 vasp.6.3.2 27Jun22 (build Jul  3 2023 11:46:21) complex
 executed on    LinuxNV_CrayMPICH date 2024.04.22  00:24:29

 INCAR:
   ADDGRID = True
   ALGO = Normal
   EDIFF = 0.0007
   ENCUT = 520.0
   IBRION = -1
   ICHARG = 0
   ISIF = 3
   ISMEAR = -5
   ISPIN = 2
   KPOINT_BSE = -1 0 0 0
   LAECHG = True
   LASPH = True
   LCHARG = True
   LELF = True
   LORBIT = 11
   LREAL = Auto
   LVHAR = True
   LWAVE = False
   MAGMOM = 2*0.6 2*7.0 10*0.6
   NELM = 1000
   NSW = 0
   PREC = accurate
   SIGMA = 0.05

 POTCAR:    PAW_PBE Rb_sv 06Sep2000
 POTCAR:    PAW_PBE Eu 23Dec2003
 POTCAR:    PAW_PBE Ge_d 03Jul2007
 POTCAR:    PAW_PBE S 06Sep2000
 POTCAR:    PAW_PBE Rb_sv 06Sep2000
   VRHFIN =Rb: 4s4p5s

   TITEL  = PAW_PBE Rb_sv 06Sep2000
   POMASS =   85.468; ZVAL   =    9.000    mass and valenz
   ENMAX  =  220.112; ENMIN  =  165.084 eV

   TITEL  = PAW_PBE Eu 23Dec2003
   POMASS =  151.965; ZVAL   =   17.000    mass and valenz
   ENMAX  =  249.668; ENMIN  =  187.251 eV

   TITEL  = PAW_PBE Ge_d 03Jul2007
   POMASS =   72.610; ZVAL   =   14.000    mass and valenz
   ENMAX  =  310.294; ENMIN  =  232.720 eV

   TITEL  = PAW_PBE S 06Sep2000
   POMASS =   32.066; ZVAL   =    6.000    mass and valenz
   ENMAX  =  258.689; ENMIN  =  194.016 eV

 Optimization of the real space projectors (new method)

 maximal supplied QI-value         = 15.12
 optimisation between [QCUT,QGAM] = [ 11.64, 23.28] = [ 37.95,151.78] Ry
 Optimized for a Real-space Cutoff    1.63 Angstroem

   l    n(q)    QCUT    max X(q) W(low)/X(q) W(high)/X(q)  e(spline)
   0     11    11.641    11.905    0.26E-04    0.31E-05    0.88E-07
   0     11    11.641    15.029    0.40E-04    0.49E-05    0.17E-06
   1     11    11.641   129.694    0.10E-03    0.47E-04    0.47E-06
   1     11    11.641   129.780    0.10E-03    0.47E-04    0.47E-06
   2     10    11.641    17.083    0.83E-05    0.11E-04    0.75E-07
 Optimization of the real space projectors (new method)

[...]

   l    n(q)    QCUT    max X(q) W(low)/X(q) W(high)/X(q)  e(spline)
   2     10    11.539     8.936    0.13E-03    0.18E-03    0.23E-06
   2     10    11.539     8.183    0.16E-03    0.22E-03    0.28E-06
   0     11    11.539    62.777    0.61E-04    0.20E-04    0.15E-06
   0     11    11.539    50.556    0.58E-04    0.19E-04    0.14E-06
   1     10    11.539    38.422    0.20E-04    0.75E-05    0.16E-06
   1     10    11.539    22.623    0.19E-04    0.69E-05    0.15E-06
 Optimization of the real space projectors (new method)

 maximal supplied QI-value         = 19.84
 optimisation between [QCUT,QGAM] = [ 11.51, 23.22] = [ 37.09,150.92] Ry
 Optimized for a Real-space Cutoff    1.21 Angstroem

   l    n(q)    QCUT    max X(q) W(low)/X(q) W(high)/X(q)  e(spline)
   0      8    11.508   187.594    0.96E-04    0.18E-03    0.54E-07
   0      8    11.508   164.243    0.96E-04    0.18E-03    0.54E-07
   1      8    11.508    67.533    0.18E-03    0.65E-04    0.94E-07
   1      8    11.508    50.729    0.18E-03    0.63E-04    0.92E-07
  PAW_PBE Rb_sv 06Sep2000               :
  PAW_PBE Eu 23Dec2003                  :
  PAW_PBE Ge_d 03Jul2007                :
  PAW_PBE S 06Sep2000                   :

 POSCAR: Rb2 Eu2 Ge2 S8
  positions in direct lattice
 exchange correlation table for  LEXCH =        8
   RHO(1)=    0.500       N(1)  =     2000
   RHO(2)=  100.500       N(2)  =     4000

 VTST: version 4.2, (08/11/21)

 CHAIN: initializing optimizer

 OPT: Using VASP Dynamics algorithm
 CHAIN: Read ICHAIN             0

 POSCAR: Rb2 Eu2 Ge2 S8
  positions in direct lattice

 ion  position               nearest neighbor table
   1  0.750  0.232  0.564-  13 3.46   8 3.49   8 3.55   9 3.57   7 3.58  11 3.60  10 3.61  12 3.68
                             5 4.07   6 4.12   6 4.27   3 4.62   2 4.79   2 4.79   2 4.98   2 4.98
   2  0.250  0.768  0.436-  14 3.46   7 3.49   7 3.55  10 3.57   8 3.58  12 3.60   9 3.61  11 3.68
                             6 4.07   5 4.12   5 4.27   4 4.62   1 4.79   1 4.79   1 4.98   1 4.98
   3  0.767  0.266  0.052-  13 2.91   7 2.91  12 2.93  10 2.96  11 2.96   9 3.04  14 3.05   1 4.62

   4  0.267  0.734  0.948-  14 2.91   8 2.91  11 2.93   9 2.96  12 2.96  10 3.04  13 3.05   2 4.62

   5  0.736  0.720  0.173-   7 2.20  13 2.23  12 2.24   9 2.24   1 4.07   2 4.12   2 4.27
   6  0.236  0.280  0.827-   8 2.20  14 2.23  11 2.24  10 2.24   2 4.07   1 4.12   1 4.27
   7  0.746  0.909  0.326-   5 2.20   3 2.91   2 3.49   2 3.55   1 3.58
   8  0.246  0.091  0.674-   6 2.20   4 2.91   1 3.49   1 3.55   2 3.58
   9  0.492  0.481  0.217-   5 2.24   4 2.96   3 3.04   1 3.57   2 3.61
  10  0.992  0.519  0.783-   6 2.24   3 2.96   4 3.04   2 3.57   1 3.61
  11  0.502  0.491  0.797-   6 2.24   4 2.93   3 2.96   1 3.60   2 3.68
  12  0.002  0.509  0.203-   5 2.24   3 2.93   4 2.96   2 3.60   1 3.68
  13  0.684  0.925  0.936-   5 2.23   3 2.91   4 3.05   1 3.46
  14  0.184  0.075  0.064-   6 2.23   4 2.91   3 3.05   2 3.46

  LATTYP: Found a simple monoclinic cell.
 ALAT       =     6.8009260000
 B/A-ratio  =     0.9770054843
 C/A-ratio  =     1.3667600864
 COS(beta)  =    -0.3177822026

  Lattice vectors:

 A1 = (   0.0000000000,   6.8009260000,   0.0000000000)
 A2 = (   6.6445420000,   0.0000000000,   0.0000000000)
 A3 = (   0.0000000000,  -2.9538600000,  -8.8134040000)

Analysis of symmetry for initial positions (statically):
 Subroutine PRICEL returns:
 Original cell was already a primitive cell.

 Routine SETGRP: Setting up the symmetry group for a
 simple monoclinic supercell.

 Subroutine GETGRP returns: Found  2 space group operations
 (whereof  1 operations were pure point group operations)
 out of a pool of  4 trial point group operations.

The static configuration has the point symmetry C_1 .
 The point group associated with its full space group is C_2 .

Analysis of symmetry for dynamics (positions and initial velocities):
 Subroutine PRICEL returns:
 Original cell was already a primitive cell.

[...]

The dynamic configuration has the point symmetry C_1 .
 The point group associated with its full space group is C_2 .

Analysis of structural, dynamic, and magnetic symmetry:
 Subroutine PRICEL returns:
 Original cell was already a primitive cell.

 Routine SETGRP: Setting up the symmetry group for a
 simple monoclinic supercell.

 Subroutine GETGRP returns: Found  2 space group operations
 (whereof  1 operations were pure point group operations)
 out of a pool of  4 trial point group operations.

The overall configuration has the point symmetry C_1 .
 The point group associated with its full space group is C_2 .

 Subroutine INISYM returns: Found  2 space group operations
 (whereof  1 operations are pure point group operations),
 and found     1 'primitive' translations

                                     Primitive cell

  volume of cell :     398.2693

  direct lattice vectors                    reciprocal lattice vectors
     6.644542000  0.000000000  0.000000000     0.150499463  0.000000000  0.000000000
     0.000000000  6.800926000  0.000000000     0.000000000  0.147038800 -0.049280849
     0.000000000  2.953860000  8.813404000     0.000000000  0.000000000  0.113463538

  length of vectors
     6.644542000  6.800926000  9.295234207     0.150499463  0.155077435  0.113463538

  position of ions in fractional coordinates (direct lattice)
     0.750425000  0.232116000  0.563855000
     0.250425000  0.767884000  0.436145000
     0.766549000  0.265971000  0.052476000
     0.266549000  0.734029000  0.947524000
     0.736150000  0.720163000  0.172989000
     0.236150000  0.279837000  0.827011000
     0.745842000  0.909037000  0.325837000
     0.245842000  0.090963000  0.674163000
     0.491899000  0.481307000  0.217437000
     0.991899000  0.518693000  0.782563000
     0.501633000  0.491334000  0.797030000
     0.001633000  0.508666000  0.202970000
     0.684401000  0.924754000  0.936157000
     0.184401000  0.075246000  0.063843000

  ion indices of the primitive-cell ions
   primitive index   ion index
                 1           1
                 2           2
                 3           3
                 4           4
                 5           5
                 6           6
                 7           7
                 8           8
                 9           9
                10          10
                11          11
                12          12
                13          13
                14          14

 KPOINTS: Kpoints from vasprun.xml

Automatic generation of k-mesh.
 Grid dimensions read from file:
 generate k-points for:    4    4    3

 Generating k-lattice:

  Cartesian coordinates                     Fractional coordinates (reciprocal lattice)
     0.037624866  0.000000000  0.000000000     0.250000000  0.000000000  0.000000000
     0.000000000  0.036759700 -0.012320212     0.000000000  0.250000000  0.000000000
     0.000000000  0.000000000  0.037821179     0.000000000  0.000000000  0.333333333

  Length of vectors
     0.037624866  0.038769359  0.037821179

  Shift w.r.t. Gamma in fractional coordinates (k-lattice)
     0.000000000  0.000000000  0.000000000

 TETIRR: Found    144 inequivalent tetrahedra from      288

 Subroutine IBZKPT returns following result:

 Found     21 irreducible k-points:

 Following reciprocal coordinates:
            Coordinates               Weight
  0.000000  0.000000  0.000000      1.000000
  0.250000  0.000000  0.000000      2.000000
  0.500000  0.000000  0.000000      1.000000
  0.000000  0.250000  0.000000      2.000000
  0.250000  0.250000  0.000000      4.000000
  0.500000  0.250000  0.000000      2.000000
  0.000000  0.500000  0.000000      1.000000
  0.250000  0.500000  0.000000      2.000000
  0.500000  0.500000  0.000000      1.000000
  0.000000  0.000000  0.333333      2.000000
  0.250000  0.000000  0.333333      4.000000
  0.500000  0.000000  0.333333      2.000000
  0.000000  0.250000  0.333333      2.000000
  0.250000  0.250000  0.333333      4.000000
  0.500000  0.250000  0.333333      2.000000
  0.000000  0.500000  0.333333      2.000000
  0.250000  0.500000  0.333333      4.000000
  0.500000  0.500000  0.333333      2.000000
  0.000000 -0.250000  0.333333      2.000000
  0.250000 -0.250000  0.333333      4.000000
  0.500000 -0.250000  0.333333      2.000000

 Following cartesian coordinates:
            Coordinates               Weight
  0.000000  0.000000  0.000000      1.000000
  0.037625  0.000000  0.000000      2.000000
  0.075250  0.000000  0.000000      1.000000
  0.000000  0.036760 -0.012320      2.000000
  0.037625  0.036760 -0.012320      4.000000
  0.075250  0.036760 -0.012320      2.000000
  0.000000  0.073519 -0.024640      1.000000
  0.037625  0.073519 -0.024640      2.000000
  0.075250  0.073519 -0.024640      1.000000
  0.000000  0.000000  0.037821      2.000000
  0.037625  0.000000  0.037821      4.000000
  0.075250  0.000000  0.037821      2.000000
  0.000000  0.036760  0.025501      2.000000
  0.037625  0.036760  0.025501      4.000000
  0.075250  0.036760  0.025501      2.000000
  0.000000  0.073519  0.013181      2.000000
  0.037625  0.073519  0.013181      4.000000
  0.075250  0.073519  0.013181      2.000000
[...]
  318                map_forward                           0.000227                    4   7
  319                  map_gather                            0.000047                  2   8
  320                  m_alltoallv_z                         0.000026                  2   8
  321                  map_scatter                           0.000119                  2   8
  322                map_backward                          0.000100                    2   7
  323                  map_gather                            0.000027                  1   8
  324                  m_alltoallv_z                         0.000011                  1   8
  325                  map_scatter                           0.000044                  1   8
  326          m_sumb_d                              0.000009                          2   4
  327          pothar                                0.000089                          1   4
  328            m_sumb_d                              0.000012                        1   5
  329        brmix                                 0.010605                            1   3
  330          m_sumb_d                              0.000037                          6   4
  331          brpre                                 0.000036                          2   4
  332          setg0                                 0.001344                          1   4
  333          broyd                                 0.007663                          1   4
  334            m_sumb_d                              0.000202                       49   5
  335            brget                                 0.001639                      219   5
  336            brsav                                 0.000349                       47   5
  337        m_bcast_d                             0.000024                            2   3
  338      potlok                                0.047606                              2   2
  339        fft3d_mpi                             0.028933                           36   3
  340          fftbrc_mpi                            0.024712                         36   4
  341            fftbas_plan_mpi                       0.024692                       36   5
  342              map_forward                           0.007185                     40   6
  343                map_gather                            0.002204                   24   7
  344                m_alltoallv_z                         0.002715                   24   7
  345                map_scatter                           0.002035                   24   7
  346              map_backward                          0.005723                     32   6
  347                map_gather                            0.002006                   16   7
  348                m_alltoallv_z                         0.001792                   16   7
  349                map_scatter                           0.001704                   16   7
  350              dfftw_execute                         0.010056                     30   6
  351        m_sumb_d                              0.000029                            5   3
  352        pothar                                0.001861                            2   3
  353          m_sumb_d                              0.000139                          2   4
  354        m_bcast_d                             0.003093                            4   3
  355      potlok_metagga                        0.000000                              1   2
  356      set_dd_magatom                        0.000004                              1   2
  357      set_dd_paw                            1.507217                              1   2
  358        m_sumb_d                              0.136134                            7   3
  359      augmentation_charge                   0.129876                              1   2
  360        fft3d_mpi                             0.063441                            2   3
  361          fftbrc_mpi                            0.056026                          2   4
  362            fftbas_plan_mpi                       0.056025                        2   5
  363              dfftw_execute                         0.034718                      6   6
  364              map_backward                          0.021066                      4   6
  365                map_gather                            0.006909                    2   7
  366                m_alltoallv_z                         0.007114                    2   7
  367                map_scatter                           0.007031                    2   7
  368      fftwav_mpi                            3.661935                           2772   2
  369        fftwav                                3.658427                         2772   3
  370          fft3d                                 3.387090                       2772   4
  371      densta                                2.243637                              1   2

 Flat profile

 set_dd_paw                             95.363712          70
 eddav                                  63.868146          72
 lapack                                 60.413146      127557
 raccmu_                                54.755449      127557
 m_sumb_d                               43.076718      392142
 redis_pw                               29.411007      704946
 m_alltoall_d                           12.953755     1856946
 total_time                             12.770864           1
 init_acc                               10.727946           1
 fft3d                                   9.723930      761494
 densta                                  8.703458          73
 phaser                                  8.414337        3297
 dfftw_execute                           7.440068        2124
 eccp                                    6.971974       66528
 redis_proj                              5.976820      893574
 setdij_                                 5.859688          96
 fftwav                                  5.128401      506380
 orth1                                   5.024575      382797
 augmentation_charge                     4.642109          70
 hamiltmu                                3.896564      127557
 racc0mu_acc                             3.777684      127557
 acc_init_cublas                         3.718124           1
 overl                                   3.664340      443742
 w1_copy                                 3.642493      765342
 rpromu_acc                              3.356400       97569
 m_bcast_z                               3.088387      131253
 soft_charge                             2.921187          69
 setup_precond                           2.432819       66528
 m_bcast_d                               2.067732      255259
 overl_mu                                2.021875      127557
 m_alltoallv_z                           1.709082        2825
 pw_charge                               1.682648       47896
 ggemm                                   1.631674      160821
 map_scatter                             1.298822        2825
 fft3d_mpi                               1.195748      257641
 kinhamil                                1.161329      255114
 vhamil                                  1.141528      255114
 acc_init_cusolver                       1.087174           1
 fftext_mpi                              1.085702      255114
 map_gather                              1.077780        2825
 newband                                 1.059752      130581
 depsum                                  1.035349          69
 apply_precond                           1.023925      188586
 set_charge                              0.874364          69
 rpro_isp                                0.690957         273
 fftwav_mpi                              0.680401      506380
 potlok                                  0.360366          70
 acc_cufft_makeplan                      0.278409          19
 broyd                                   0.238801          68
 elmin                                   0.167039           1
 rspher_all                              0.154408          14
 fftbas_plan_mpi                         0.147198        2527
 brmix                                   0.145367          68
 sphpro_fast                             0.117947           2
 lincom                                  0.109136        3066
 w1_projall                              0.098275       94293
 setg0                                   0.091355          70
 brget                                   0.082228       10956
 proall                                  0.075688           1
 orthch                                  0.032673           1
 truncate_high_frequency_w1              0.025949      321642
 brsav                                   0.021536        2891
 force_and_stress                        0.020378           1
 map_backward                            0.017219        2654
 map_forward                             0.016648        2400
 choleski                                0.012884          42
 stufak                                  0.010161           1
 fft_gq                                  0.008060          69
 pothar                                  0.007471          71
 strnlr                                  0.005996           1
 inisym                                  0.004365           1
 forhar                                  0.002782           2
 brpre                                   0.002673         136
 strelo                                  0.002516           1
 fornlr                                  0.002089           1
 strehar                                 0.001900           1
 fftbrc_mpi                              0.001533        2527
 forloc                                  0.001470           1
 strkin                                  0.001278           1
 fewald                                  0.000410           1
 set_dd_magatom                          0.000321          70
 rsp                                     0.000305           1
 vectorpot                               0.000294          69
 brgrid                                  0.000253           1
 chggra                                  0.000241           1
 fordep                                  0.000067           1
 rcp                                     0.000029           1
 crpa_reader                             0.000026           1
 posmap                                  0.000017           2
 acc_cufft_makeplans                     0.000013           3
 potlok_metagga                          0.000007          69
 rotate_active_occupied_orbital          0.000000           1
 redis_pw_over_bands                     0.000000           1
  summed up times     506.5177259445190

 Accumulative profile

 total_time                            506.517726           1
 elmin                                 459.730145           1
 eddav                                 324.232711          72
 set_dd_paw                            103.934234          70
 hamiltmu                               69.705379      127557
 raccmu_                                60.555008      127557
 lapack                                 60.413146      127557
 m_sumb_d                               43.076718      392142
 redis_pw                               35.774622      704946
 set_charge                             18.499922          69
 newband                                15.608647      130581
 fft3d_mpi                              14.692520      257641
 fftwav_mpi                             13.744311      506380
 setdij_                                13.284518          96
 fftwav                                 13.063910      506380
 m_alltoall_d                           12.953755     1856946
 redis_proj                             12.566961      893574
 fftbrc_mpi                             11.708350        2527
 fftbas_plan_mpi                        11.706818        2527
 init_acc                               10.727946           1
 fft3d                                   9.723930      761494
 augmentation_charge                     9.137583          70
 densta                                  8.703458          73
 phaser                                  8.414337        3297
 force_and_stress                        7.790195           1
 dfftw_execute                           7.440068        2124
 soft_charge                             7.430547          69
 eccp                                    6.971974       66528
 orth1                                   5.024575      382797
 kinhamil                                4.112278      255114
 racc0mu_acc                             3.777684      127557
 acc_init_cublas                         3.718124           1
 overl                                   3.664340      443742
 w1_copy                                 3.642493      765342
 rpromu_acc                              3.356400       97569
 m_bcast_z                               3.088387      131253
 fftext_mpi                              2.950949      255114
 w1_projall                              2.854250       94293
 setup_precond                           2.432819       66528
 m_bcast_d                               2.067732      255259
 map_backward                            2.066008        2654
 map_forward                             2.053544        2400
 overl_mu                                2.021875      127557
 strnlr                                  1.812719           1
 m_alltoallv_z                           1.709082        2825
 pw_charge                               1.682648       47896
 rpro_isp                                1.659668         273
 ggemm                                   1.631674      160821
 map_scatter                             1.298822        2825
 vhamil                                  1.141528      255114
 acc_init_cusolver                       1.087174           1
 map_gather                              1.077780        2825
 depsum                                  1.046642          69
 apply_precond                           1.023925      188586
 potlok                                  0.854676          70
 fordep                                  0.826286           1
 fornlr                                  0.604058           1
 brmix                                   0.598659          68
 broyd                                   0.353624          68
 orthch                                  0.327472           1
 acc_cufft_makeplans                     0.278422           3
 acc_cufft_makeplan                      0.278409          19
 fft_gq                                  0.190154          69
 proall                                  0.180611           1
 rspher_all                              0.154408          14
 sphpro_fast                             0.122514           2
 lincom                                  0.109136        3066
 setg0                                   0.091355          70
 brget                                   0.082228       10956
 truncate_high_frequency_w1              0.025949      321642
 brsav                                   0.021536        2891
 choleski                                0.012884          42
 stufak                                  0.010161           1
 pothar                                  0.008256          71
 inisym                                  0.004382           1
 forhar                                  0.002861           2
 brpre                                   0.002673         136
 strelo                                  0.002616           1
 strehar                                 0.001939           1
 forloc                                  0.001931           1
 strkin                                  0.001292           1
 fewald                                  0.001182           1
 chggra                                  0.000867           1
 set_dd_magatom                          0.000321          70
 rsp                                     0.000305           1
 vectorpot                               0.000294          69
 brgrid                                  0.000253           1
 rcp                                     0.000029           1
 crpa_reader                             0.000026           1
 posmap                                  0.000017           2
 potlok_metagga                          0.000007          69
 rotate_active_occupied_orbital          0.000000           1
 redis_pw_over_bands                     0.000000           1

Profiling took   1.668537  0.785812  0.003316  0.003213 seconds
Profiling took   1.068137 seconds