 vasp.6.3.2 27Jun22 (build Jul  3 2023 11:46:21) complex
 executed on    LinuxNV_CrayMPICH date 2024.04.20  22:56:02

 INCAR:
   ADDGRID = True
   ALGO = Normal
   EDIFF = 0.0014
   ENCUT = 520.0
   IBRION = -1
   ICHARG = 0
   ISIF = 3
   ISMEAR = -5
   ISPIN = 2
   KPOINT_BSE = -1 0 0 0
   LAECHG = True
   LASPH = True
   LCHARG = True
   LELF = True
   LORBIT = 11
   LREAL = Auto
   LVHAR = True
   LWAVE = False
   MAGMOM = 6*0.6 2*7.0 20*0.6
   NELM = 1000
   NSW = 0
   PREC = accurate
   SIGMA = 0.05

 POTCAR:    PAW_PBE K_sv 06Sep2000
 POTCAR:    PAW_PBE Eu 23Dec2003
 POTCAR:    PAW_PBE P 06Sep2000
 POTCAR:    PAW_PBE O 08Apr2002
 POTCAR:    PAW_PBE K_sv 06Sep2000
   VRHFIN =K:  3s3p4s

   TITEL  = PAW_PBE K_sv 06Sep2000
   POMASS =   39.098; ZVAL   =    9.000    mass and valenz
   ENMAX  =  259.264; ENMIN  =  194.448 eV

   TITEL  = PAW_PBE Eu 23Dec2003
   POMASS =  151.965; ZVAL   =   17.000    mass and valenz
   ENMAX  =  249.668; ENMIN  =  187.251 eV

   TITEL  = PAW_PBE P 06Sep2000
   POMASS =   30.974; ZVAL   =    5.000    mass and valenz
   ENMAX  =  255.040; ENMIN  =  191.280 eV

   TITEL  = PAW_PBE O 08Apr2002
   POMASS =   16.000; ZVAL   =    6.000    mass and valenz
   ENMAX  =  400.000; ENMIN  =  300.000 eV

 Optimization of the real space projectors (new method)

 maximal supplied QI-value         = 16.25
 optimisation between [QCUT,QGAM] = [ 11.54, 23.24] = [ 37.28,151.24] Ry
 Optimized for a Real-space Cutoff    1.32 Angstroem

   l    n(q)    QCUT    max X(q) W(low)/X(q) W(high)/X(q)  e(spline)
   0      9    11.539    11.234    0.52E-04    0.40E-04    0.14E-07
   0      9    11.539    12.505    0.97E-04    0.77E-04    0.27E-07
   1      9    11.539   167.359    0.18E-03    0.11E-02    0.48E-06
   1      9    11.539   168.875    0.18E-03    0.11E-02    0.48E-06
   2      8    11.539     3.435    0.16E-03    0.11E-03    0.38E-07
 Optimization of the real space projectors (new method)

[...]

   l    n(q)    QCUT    max X(q) W(low)/X(q) W(high)/X(q)  e(spline)
   0      8    11.508   160.924    0.96E-04    0.17E-03    0.52E-07
   0      8    11.508   130.086    0.95E-04    0.17E-03    0.51E-07
   1      8    11.508    74.434    0.16E-03    0.74E-04    0.91E-07
   1      8    11.508    49.120    0.16E-03    0.71E-04    0.89E-07
 Optimization of the real space projectors (new method)

 maximal supplied QI-value         = 24.76
 optimisation between [QCUT,QGAM] = [ 11.64, 23.27] = [ 37.91,151.63] Ry
 Optimized for a Real-space Cutoff    1.14 Angstroem

   l    n(q)    QCUT    max X(q) W(low)/X(q) W(high)/X(q)  e(spline)
   0      8    11.635    20.381    0.10E-03    0.33E-03    0.24E-06
   0      8    11.635    15.268    0.11E-03    0.35E-03    0.26E-06
   1      7    11.635     5.964    0.24E-03    0.31E-03    0.30E-06
   1      7    11.635     5.382    0.22E-03    0.25E-03    0.26E-06
  PAW_PBE K_sv 06Sep2000                :
  PAW_PBE Eu 23Dec2003                  :
  PAW_PBE P 06Sep2000                   :
  PAW_PBE O 08Apr2002                   :

 POSCAR: K6 Eu2 P4 O16
  positions in direct lattice
 exchange correlation table for  LEXCH =        8
   RHO(1)=    0.500       N(1)  =     2000
   RHO(2)=  100.500       N(2)  =     4000

 VTST: version 4.2, (08/11/21)

 CHAIN: initializing optimizer

 OPT: Using VASP Dynamics algorithm
 CHAIN: Read ICHAIN             0

 POSCAR: K6 Eu2 P4 O16
  positions in direct lattice

 ion  position               nearest neighbor table
   1  0.250  0.358  0.911-  19 2.64  11 3.29   4 3.71   4 3.71
   2  0.250  0.507  0.308-  23 2.71  21 2.73  11 3.37   5 3.52   6 3.71   6 3.71
   3  0.750  0.200  0.415-  18 2.75  26 2.83  27 2.83  15 2.86  14 2.86  23 2.88  23 2.88  12 3.28
                             9 3.32  11 3.34  11 3.34   4 3.52
   4  0.750  0.493  0.692-  28 2.71  22 2.73  12 3.37   3 3.52   1 3.71   1 3.71
   5  0.250  0.800  0.585-  17 2.75  24 2.83  25 2.83  16 2.86  13 2.86  28 2.88  28 2.88  11 3.28
                            10 3.32  12 3.34  12 3.34   2 3.52
   6  0.750  0.642  0.089-  20 2.64  12 3.29   2 3.71   2 3.71
   7  0.750  0.994  0.790-  14 2.36  15 2.36  24 2.46  25 2.46  20 2.48  28 2.56  22 2.59   9 3.14

   8  0.250  0.006  0.210-  13 2.36  16 2.36  26 2.46  27 2.46  19 2.48  23 2.56  21 2.59  10 3.14

   9  0.750  0.191  0.072-  20 1.55  26 1.56  27 1.56  22 1.56   7 3.14   3 3.32
  10  0.250  0.809  0.928-  19 1.55  24 1.56  25 1.56  21 1.56   8 3.14   5 3.32
  11  0.250  0.235  0.588-  17 1.54  23 1.56  14 1.56  15 1.56   5 3.28   1 3.29   3 3.34   3 3.34
                             2 3.37
  12  0.750  0.765  0.412-  18 1.54  28 1.56  13 1.56  16 1.56   3 3.28   6 3.29   5 3.34   5 3.34
                             4 3.37
  13  0.972  0.846  0.342-  12 1.56   8 2.36   5 2.86
  14  0.472  0.154  0.658-  11 1.56   7 2.36   3 2.86
  15  0.028  0.154  0.658-  11 1.56   7 2.36   3 2.86
  16  0.528  0.846  0.342-  12 1.56   8 2.36   5 2.86
  17  0.250  0.437  0.604-  11 1.54   5 2.75
  18  0.750  0.563  0.396-  12 1.54   3 2.75
  19  0.250  0.011  0.953-  10 1.55   8 2.48   1 2.64
  20  0.750  0.989  0.047-   9 1.55   7 2.48   6 2.64
  21  0.250  0.715  0.073-  10 1.56   8 2.59   2 2.73
  22  0.750  0.285  0.927-   9 1.56   7 2.59   4 2.73
  23  0.250  0.183  0.433-  11 1.56   8 2.56   2 2.71   3 2.88   3 2.88
  24  0.029  0.755  0.845-  10 1.56   7 2.46   5 2.83
  25  0.471  0.755  0.845-  10 1.56   7 2.46   5 2.83
  26  0.971  0.245  0.155-   9 1.56   8 2.46   3 2.83
  27  0.529  0.245  0.155-   9 1.56   8 2.46   3 2.83
  28  0.750  0.817  0.567-  12 1.56   7 2.56   4 2.71   5 2.88   5 2.88

  LATTYP: Found a simple monoclinic cell.
 ALAT       =     7.5576620000
 B/A-ratio  =     0.7606389383
 C/A-ratio  =     1.2813597576
 COS(beta)  =    -0.0214059483

  Lattice vectors:

 A1 = (   0.0000000000,   7.5576620000,   0.0000000000)
 A2 = (   5.7486520000,   0.0000000000,   0.0000000000)
 A3 = (   0.0000000000,  -0.2072970000,  -9.6818650000)

Analysis of symmetry for initial positions (statically):
 Subroutine PRICEL returns:
 Original cell was already a primitive cell.

 Routine SETGRP: Setting up the symmetry group for a
 simple monoclinic supercell.

 Subroutine GETGRP returns: Found  4 space group operations
 (whereof  2 operations were pure point group operations)
 out of a pool of  4 trial point group operations.

The static configuration has the point symmetry S_2 .
 The point group associated with its full space group is C_2h.

Analysis of symmetry for dynamics (positions and initial velocities):
 Subroutine PRICEL returns:
 Original cell was already a primitive cell.

[...]

The dynamic configuration has the point symmetry S_2 .
 The point group associated with its full space group is C_2h.

Analysis of structural, dynamic, and magnetic symmetry:
 Subroutine PRICEL returns:
 Original cell was already a primitive cell.

 Routine SETGRP: Setting up the symmetry group for a
 simple monoclinic supercell.

 Subroutine GETGRP returns: Found  4 space group operations
 (whereof  2 operations were pure point group operations)
 out of a pool of  4 trial point group operations.

The overall configuration has the point symmetry S_2 .
 The point group associated with its full space group is C_2h.

 Subroutine INISYM returns: Found  4 space group operations
 (whereof  2 operations are pure point group operations),
 and found     1 'primitive' translations

                                     Primitive cell

  volume of cell :     420.6419

  direct lattice vectors                    reciprocal lattice vectors
     5.748652000  0.000000000  0.000000000     0.173953824  0.000000000  0.000000000
     0.000000000  7.557662000  0.000000000     0.000000000  0.132316052 -0.002833000
     0.000000000  0.207297000  9.681865000     0.000000000  0.000000000  0.103285886

  length of vectors
     5.748652000  7.557662000  9.684083949     0.173953824  0.132346377  0.103285886

  position of ions in fractional coordinates (direct lattice)
     0.250000000  0.357500000  0.911399000
     0.250000000  0.506587000  0.307794000
     0.750000000  0.199897000  0.414907000
     0.750000000  0.493413000  0.692206000
     0.250000000  0.800103000  0.585093000
     0.750000000  0.642500000  0.088601000
     0.750000000  0.994058000  0.790072000
     0.250000000  0.005942000  0.209928000
     0.750000000  0.191425000  0.071855000
     0.250000000  0.808575000  0.928145000
     0.250000000  0.234638000  0.588035000
     0.750000000  0.765362000  0.411965000
     0.972123000  0.846137000  0.341953000
     0.472123000  0.153863000  0.658047000
     0.027877000  0.153863000  0.658047000
     0.527877000  0.846137000  0.341953000
     0.250000000  0.437112000  0.603907000
     0.750000000  0.562888000  0.396093000
     0.250000000  0.010575000  0.953449000
     0.750000000  0.989425000  0.046551000
     0.250000000  0.714534000  0.073418000
     0.750000000  0.285466000  0.926582000
     0.250000000  0.182574000  0.433000000
     0.029149000  0.755301000  0.845126000
     0.470851000  0.755301000  0.845126000
     0.970851000  0.244699000  0.154874000
     0.529149000  0.244699000  0.154874000
     0.750000000  0.817426000  0.567000000

  ion indices of the primitive-cell ions
   primitive index   ion index
                 1           1
                 2           2
                 3           3
                 4           4
                 5           5
                 6           6
                 7           7
                 8           8
                 9           9
                10          10
                11          11
                12          12
                13          13
                14          14
                15          15
                16          16
                17          17
                18          18
                19          19
                20          20
                21          21
                22          22
                23          23
                24          24
                25          25
                26          26
                27          27
                28          28

 KPOINTS: Kpoints from vasprun.xml

Automatic generation of k-mesh.
 Grid dimensions read from file:
 generate k-points for:    5    3    3

 Generating k-lattice:

  Cartesian coordinates                     Fractional coordinates (reciprocal lattice)
     0.034790765  0.000000000  0.000000000     0.200000000  0.000000000  0.000000000
     0.000000000  0.044105351 -0.000944333     0.000000000  0.333333333 -0.000000000
     0.000000000  0.000000000  0.034428629     0.000000000  0.000000000  0.333333333

  Length of vectors
     0.034790765  0.044115459  0.034428629

  Shift w.r.t. Gamma in fractional coordinates (k-lattice)
     0.000000000  0.000000000  0.000000000

 TETIRR: Found    126 inequivalent tetrahedra from      270

 Subroutine IBZKPT returns following result:

 Found     15 irreducible k-points:

 Following reciprocal coordinates:
            Coordinates               Weight
  0.000000  0.000000  0.000000      1.000000
  0.200000  0.000000  0.000000      2.000000
  0.400000  0.000000  0.000000      2.000000
  0.000000  0.333333  0.000000      2.000000
[...]
  318                map_forward                           0.000218                    4   7
  319                  map_gather                            0.000050                  2   8
  320                  m_alltoallv_z                         0.000025                  2   8
  321                  map_scatter                           0.000111                  2   8
  322                map_backward                          0.000099                    2   7
  323                  map_gather                            0.000024                  1   8
  324                  m_alltoallv_z                         0.000010                  1   8
  325                  map_scatter                           0.000048                  1   8
  326          m_sumb_d                              0.000009                          2   4
  327          pothar                                0.000089                          1   4
  328            m_sumb_d                              0.000014                        1   5
  329        brmix                                 0.011286                            1   3
  330          m_sumb_d                              0.000055                          6   4
  331          brpre                                 0.000036                          2   4
  332          setg0                                 0.001386                          1   4
  333          broyd                                 0.008198                          1   4
  334            m_sumb_d                              0.000594                       50   5
  335            brget                                 0.001659                      224   5
  336            brsav                                 0.000341                       48   5
  337        m_bcast_d                             0.000025                            2   3
  338      potlok                                0.048938                              2   2
  339        fft3d_mpi                             0.029518                           36   3
  340          fftbrc_mpi                            0.024544                         36   4
  341            fftbas_plan_mpi                       0.024521                       36   5
  342              map_forward                           0.007175                     40   6
  343                map_gather                            0.002226                   24   7
  344                m_alltoallv_z                         0.002743                   24   7
  345                map_scatter                           0.002000                   24   7
  346              map_backward                          0.006166                     32   6
  347                map_gather                            0.002005                   16   7
  348                m_alltoallv_z                         0.002160                   16   7
  349                map_scatter                           0.001795                   16   7
  350              dfftw_execute                         0.009411                     30   6
  351        m_sumb_d                              0.000028                            5   3
  352        pothar                                0.001914                            2   3
  353          m_sumb_d                              0.000049                          2   4
  354        m_bcast_d                             0.003316                            4   3
  355      potlok_metagga                        0.000000                              1   2
  356      set_dd_magatom                        0.000004                              1   2
  357      set_dd_paw                            2.514970                              1   2
  358        m_sumb_d                              0.000435                            7   3
  359      augmentation_charge                   0.147371                              1   2
  360        fft3d_mpi                             0.065163                            2   3
  361          fftbrc_mpi                            0.057552                          2   4
  362            fftbas_plan_mpi                       0.057549                        2   5
  363              dfftw_execute                         0.034467                      6   6
  364              map_backward                          0.022827                      4   6
  365                map_gather                            0.007635                    2   7
  366                m_alltoallv_z                         0.007990                    2   7
  367                map_scatter                           0.007192                    2   7
  368      fftwav_mpi                            4.178334                           3150   2
  369        fftwav                                4.174307                         3150   3
  370          fft3d                                 3.851865                       3150   4
  371      densta                                6.054902                              1   2

 Flat profile

 set_dd_paw                            354.870208         141
 eddav                                 151.928132         143
 lapack                                143.313343      304415
 raccmu_                               130.028429      304415
 redis_pw                               71.398847     1621446
 m_sumb_d                               67.490716      929755
 m_alltoall_d                           30.435651     4268964
 densta                                 20.489586         144
 fft3d                                  17.788346     1737960
 eccp                                   15.757666      150150
 phaser                                 15.444628        4485
 total_time                             14.827662           1
 orth1                                  14.694070      913395
 redis_proj                             14.133332     2058978
 dfftw_execute                          12.759180        3828
 setdij_                                12.500093         167
 augmentation_charge                    11.406508         141
 fftwav                                 11.332666     1150308
 init_acc                               11.166211           1
 racc0mu_acc                             9.006187      304415
 hamiltmu                                8.828987      304415
 overl                                   8.786704     1025184
 w1_copy                                 8.783152     1762956
 rpromu_acc                              7.636701      230705
 m_bcast_z                               6.967753      308615
 soft_charge                             6.245646         140
 setup_precond                           5.592126      150150
 ggemm                                   5.160266      381635
 m_bcast_d                               5.105777      609117
 overl_mu                                4.778578      304415
 pw_charge                               3.461786      108354
 m_alltoallv_z                           3.195671        5523
 vhamil                                  2.815425      587652
 kinhamil                                2.777664      587652
 fft3d_mpi                               2.590153      592593
 fftext_mpi                              2.532244      587652
 map_scatter                             2.515643        5523
 apply_precond                           2.489683      437502
 acc_init_cublas                         2.428572           1
 depsum                                  2.391683         140
 newband                                 2.370801      308705
 map_gather                              2.077307        5523
 set_charge                              1.676945         140
 fftwav_mpi                              1.625419     1150308
 acc_init_cusolver                       0.800670           1
 potlok                                  0.722041         141
 rpro_isp                                0.697773         195
 broyd                                   0.612354         139
 brmix                                   0.376082         139
 elmin                                   0.303336           1
 fftbas_plan_mpi                         0.285503        4941
 sphpro_fast                             0.224368           2
 w1_projall                              0.220578      227195
 brget                                   0.207348       28148
 setg0                                   0.192684         141
 rspher_all                              0.189981          14
 lincom                                  0.159388        4320
 acc_cufft_makeplan                      0.142309          19
 proall                                  0.080840           1
 truncate_high_frequency_w1              0.057733      737802
 brsav                                   0.055492        7881
 orthch                                  0.035589           1
 map_backward                            0.030600        5210
 map_forward                             0.029424        4672
 force_and_stress                        0.023074           1
 stufak                                  0.017957           1
 fft_gq                                  0.016032         140
 pothar                                  0.013610         142
 choleski                                0.013047          30
 strnlr                                  0.005670           1
 brpre                                   0.005513         278
 inisym                                  0.004279           1
 forhar                                  0.004040           2
 fftbrc_mpi                              0.002887        4941
 strelo                                  0.002568           1
 forloc                                  0.002096           1
 fornlr                                  0.001977           1
 strehar                                 0.001946           1
 strkin                                  0.001411           1
 rsp                                     0.000948           1
 set_dd_magatom                          0.000631         141
 vectorpot                               0.000587         140
 fewald                                  0.000380           1
 brgrid                                  0.000261           1
 chggra                                  0.000253           1
 fordep                                  0.000099           1
 rcp                                     0.000041           1
 posmap                                  0.000030           2
 crpa_reader                             0.000028           1
 potlok_metagga                          0.000013         140
 acc_cufft_makeplans                     0.000012           3
 rotate_active_occupied_orbital          0.000001           1
 redis_pw_over_bands                     0.000000           1
  summed up times     1239.149631977081

 Accumulative profile

 total_time                           1239.149632           1
 elmin                                1183.840122           1
 eddav                                 756.402567         143
 set_dd_paw                            355.413142         141
 hamiltmu                              165.112075      304415
 raccmu_                               143.813194      304415
 lapack                                143.313343      304415
 redis_pw                               86.365185     1621446
 m_sumb_d                               67.490716      929755
 set_charge                             39.960389         140
 newband                                35.571952      308705
 m_alltoall_d                           30.435651     4268964
 redis_proj                             29.602646     2058978
 fft3d_mpi                              27.654676      592593
 fftwav_mpi                             26.578123     1150308
 setdij_                                25.184988         167
 fftwav                                 24.952703     1150308
 fftbrc_mpi                             20.896215        4941
 fftbas_plan_mpi                        20.893328        4941
 augmentation_charge                    20.597990         141
 densta                                 20.489586         144
 fft3d                                  17.788346     1737960
 eccp                                   15.757666      150150
 phaser                                 15.444628        4485
 soft_charge                            15.112139         140
 orth1                                  14.694070      913395
 dfftw_execute                          12.759180        3828
 init_acc                               11.166211           1
 kinhamil                                9.654470      587652
 force_and_stress                        9.520415           1
 racc0mu_acc                             9.006187      304415
 overl                                   8.786704     1025184
 w1_copy                                 8.783152     1762956
 rpromu_acc                              7.636701      230705
 w1_projall                              7.071849      227195
 m_bcast_z                               6.967753      308615
 fftext_mpi                              6.876806      587652
 setup_precond                           5.592126      150150
 ggemm                                   5.160266      381635
 m_bcast_d                               5.105777      609117
 overl_mu                                4.778578      304415
 map_backward                            4.211355        5210
 map_forward                             3.637289        4672
 pw_charge                               3.461786      108354
 m_alltoallv_z                           3.195671        5523
 vhamil                                  2.815425      587652
 map_scatter                             2.515643        5523
 apply_precond                           2.489683      437502
 depsum                                  2.439649         140
 acc_init_cublas                         2.428572           1
 map_gather                              2.077307        5523
 strnlr                                  1.996518           1
 rpro_isp                                1.901181         195
 potlok                                  1.625653         141
 brmix                                   1.537620         139
 broyd                                   0.945997         139
 fordep                                  0.915175           1
 acc_init_cusolver                       0.800670           1
 fornlr                                  0.667955           1
 fft_gq                                  0.435650         140
 orthch                                  0.377189           1
 sphpro_fast                             0.234510           2
 brget                                   0.207348       28148
 setg0                                   0.192684         141
 rspher_all                              0.189981          14
 proall                                  0.189757           1
 lincom                                  0.159388        4320
 acc_cufft_makeplans                     0.142321           3
 acc_cufft_makeplan                      0.142309          19
 truncate_high_frequency_w1              0.057733      737802
 brsav                                   0.055492        7881
 stufak                                  0.017957           1
 pothar                                  0.015004         142
 choleski                                0.013047          30
 brpre                                   0.005513         278
 inisym                                  0.004309           1
 forhar                                  0.004110           2
 fewald                                  0.002843           1
 strelo                                  0.002580           1
 forloc                                  0.002412           1
 strehar                                 0.001949           1
 strkin                                  0.001432           1
 rsp                                     0.000948           1
 chggra                                  0.000861           1
 set_dd_magatom                          0.000631         141
 vectorpot                               0.000587         140
 brgrid                                  0.000261           1
 rcp                                     0.000041           1
 posmap                                  0.000030           2
 crpa_reader                             0.000028           1
 potlok_metagga                          0.000013         140
 rotate_active_occupied_orbital          0.000001           1
 redis_pw_over_bands                     0.000000           1

Profiling took   3.714260  1.805467  0.003414  0.003302 seconds
Profiling took   2.423242 seconds