 vasp.6.3.2 27Jun22 (build Jul  3 2023 11:46:21) complex
 executed on    LinuxNV_CrayMPICH date 2024.04.22  03:28:49

 INCAR:
   ADDGRID = True
   ALGO = Normal
   EDIFF = 0.0007
   ENCUT = 520.0
   IBRION = -1
   ICHARG = 0
   ISIF = 3
   ISMEAR = -5
   ISPIN = 2
   KPOINT_BSE = -1 0 0 0
   LAECHG = True
   LASPH = True
   LCHARG = True
   LELF = True
   LORBIT = 11
   LREAL = Auto
   LVHAR = True
   LWAVE = False
   MAGMOM = 2*0.6 2*7.0 10*0.6
   NELM = 1000
   NSW = 0
   PREC = accurate
   SIGMA = 0.05

 POTCAR:    PAW_PBE K_sv 06Sep2000
 POTCAR:    PAW_PBE Eu 23Dec2003
 POTCAR:    PAW_PBE Si 05Jan2001
 POTCAR:    PAW_PBE S 06Sep2000
 POTCAR:    PAW_PBE K_sv 06Sep2000
   VRHFIN =K:  3s3p4s

   TITEL  = PAW_PBE K_sv 06Sep2000
   POMASS =   39.098; ZVAL   =    9.000    mass and valenz
   ENMAX  =  259.264; ENMIN  =  194.448 eV

   TITEL  = PAW_PBE Eu 23Dec2003
   POMASS =  151.965; ZVAL   =   17.000    mass and valenz
   ENMAX  =  249.668; ENMIN  =  187.251 eV

   TITEL  = PAW_PBE Si 05Jan2001
   POMASS =   28.085; ZVAL   =    4.000    mass and valenz
   ENMAX  =  245.345; ENMIN  =  184.009 eV

   TITEL  = PAW_PBE S 06Sep2000
   POMASS =   32.066; ZVAL   =    6.000    mass and valenz
   ENMAX  =  258.689; ENMIN  =  194.016 eV

 Optimization of the real space projectors (new method)

 maximal supplied QI-value         = 16.25
 optimisation between [QCUT,QGAM] = [ 11.54, 23.24] = [ 37.28,151.24] Ry
 Optimized for a Real-space Cutoff    1.32 Angstroem

   l    n(q)    QCUT    max X(q) W(low)/X(q) W(high)/X(q)  e(spline)
   0      9    11.539    11.234    0.52E-04    0.40E-04    0.14E-07
   0      9    11.539    12.505    0.97E-04    0.77E-04    0.27E-07
   1      9    11.539   167.359    0.18E-03    0.11E-02    0.48E-06
   1      9    11.539   168.875    0.18E-03    0.11E-02    0.48E-06
   2      8    11.539     3.435    0.16E-03    0.11E-03    0.38E-07
 Optimization of the real space projectors (new method)

[...]

   l    n(q)    QCUT    max X(q) W(low)/X(q) W(high)/X(q)  e(spline)
   0      8    11.508   159.560    0.71E-04    0.15E-03    0.51E-07
   0      8    11.508   115.863    0.70E-04    0.15E-03    0.51E-07
   1      8    11.508    88.339    0.16E-03    0.38E-04    0.82E-07
   1      8    11.508    48.592    0.15E-03    0.36E-04    0.79E-07
 Optimization of the real space projectors (new method)

 maximal supplied QI-value         = 19.84
 optimisation between [QCUT,QGAM] = [ 11.51, 23.22] = [ 37.09,150.92] Ry
 Optimized for a Real-space Cutoff    1.21 Angstroem

   l    n(q)    QCUT    max X(q) W(low)/X(q) W(high)/X(q)  e(spline)
   0      8    11.508   187.594    0.96E-04    0.18E-03    0.54E-07
   0      8    11.508   164.243    0.96E-04    0.18E-03    0.54E-07
   1      8    11.508    67.533    0.18E-03    0.65E-04    0.94E-07
   1      8    11.508    50.729    0.18E-03    0.63E-04    0.92E-07
  PAW_PBE K_sv 06Sep2000                :
  PAW_PBE Eu 23Dec2003                  :
  PAW_PBE Si 05Jan2001                  :
  PAW_PBE S 06Sep2000                   :

 POSCAR: K2 Eu2 Si2 S8
  positions in direct lattice
 exchange correlation table for  LEXCH =        8
   RHO(1)=    0.500       N(1)  =     2000
   RHO(2)=  100.500       N(2)  =     4000

 VTST: version 4.2, (08/11/21)

 CHAIN: initializing optimizer

 OPT: Using VASP Dynamics algorithm
 CHAIN: Read ICHAIN             0

 POSCAR: K2 Eu2 Si2 S8
  positions in direct lattice

 ion  position               nearest neighbor table
   1  0.308  0.228  0.067-  11 3.30
   2  0.808  0.772  0.933-   7 3.30
   3  0.774  0.735  0.445-  13 2.83   7 2.84  10 2.86  14 2.91  11 2.92  12 2.94   9 3.00
   4  0.274  0.265  0.555-   8 2.83  11 2.84  12 2.86   9 2.91   7 2.92  10 2.94  14 3.00
   5  0.325  0.717  0.677-   8 2.11  14 2.14  12 2.14  11 2.14
   6  0.825  0.283  0.323-  13 2.11   9 2.14  10 2.14   7 2.14
   7  0.879  0.081  0.562-   6 2.14   3 2.84   4 2.92   2 3.30
   8  0.326  0.911  0.832-   5 2.11   4 2.83
   9  0.053  0.519  0.276-   6 2.14   4 2.91   3 3.00
  10  0.559  0.468  0.299-   6 2.14   3 2.86   4 2.94
  11  0.379  0.919  0.438-   5 2.14   4 2.84   3 2.92   1 3.30
  12  0.059  0.532  0.701-   5 2.14   4 2.86   3 2.94
  13  0.826  0.089  0.168-   6 2.11   3 2.83
  14  0.553  0.481  0.724-   5 2.14   3 2.91   4 3.00

  LATTYP: Found a simple monoclinic cell.
 ALAT       =     6.5756690000
 B/A-ratio  =     1.0243944761
 C/A-ratio  =     1.3238560580
 COS(beta)  =    -0.3010241221

  Lattice vectors:

 A1 = (   0.0000000000,   6.5756690000,   0.0000000000)
 A2 = (   6.7360790000,   0.0000000000,   0.0000000000)
 A3 = (   0.0000000000,  -2.6204870000,  -8.3014600000)

Analysis of symmetry for initial positions (statically):
 Subroutine PRICEL returns:
 Original cell was already a primitive cell.

 Routine SETGRP: Setting up the symmetry group for a
 simple monoclinic supercell.

 Subroutine GETGRP returns: Found  2 space group operations
 (whereof  1 operations were pure point group operations)
 out of a pool of  4 trial point group operations.

The static configuration has the point symmetry C_1 .
 The point group associated with its full space group is C_2 .

Analysis of symmetry for dynamics (positions and initial velocities):
 Subroutine PRICEL returns:
 Original cell was already a primitive cell.

[...]

The dynamic configuration has the point symmetry C_1 .
 The point group associated with its full space group is C_2 .

Analysis of structural, dynamic, and magnetic symmetry:
 Subroutine PRICEL returns:
 Original cell was already a primitive cell.

 Routine SETGRP: Setting up the symmetry group for a
 simple monoclinic supercell.

 Subroutine GETGRP returns: Found  2 space group operations
 (whereof  1 operations were pure point group operations)
 out of a pool of  4 trial point group operations.

The overall configuration has the point symmetry C_1 .
 The point group associated with its full space group is C_2 .

 Subroutine INISYM returns: Found  2 space group operations
 (whereof  1 operations are pure point group operations),
 and found     1 'primitive' translations

                                     Primitive cell

  volume of cell :     367.7067

  direct lattice vectors                    reciprocal lattice vectors
     6.736079000  0.000000000  0.000000000     0.148454316  0.000000000  0.000000000
     0.000000000  6.575669000  0.000000000     0.000000000  0.152075781 -0.048005123
     0.000000000  2.620487000  8.301460000     0.000000000  0.000000000  0.120460738

  length of vectors
     6.736079000  6.575669000  8.705239241     0.148454316  0.159472678  0.120460738

  position of ions in fractional coordinates (direct lattice)
     0.308316000  0.228310000  0.066696000
     0.808316000  0.771690000  0.933304000
     0.774113000  0.735204000  0.445440000
     0.274113000  0.264796000  0.554560000
     0.324712000  0.717352000  0.677456000
     0.824712000  0.282648000  0.322544000
     0.879078000  0.080885000  0.561875000
     0.326327000  0.910741000  0.832441000
     0.052625000  0.519327000  0.275792000
     0.559259000  0.467552000  0.298557000
     0.379078000  0.919115000  0.438125000
     0.059259000  0.532448000  0.701443000
     0.826327000  0.089259000  0.167559000
     0.552625000  0.480673000  0.724208000

  ion indices of the primitive-cell ions
   primitive index   ion index
                 1           1
                 2           2
                 3           3
                 4           4
                 5           5
                 6           6
                 7           7
                 8           8
                 9           9
                10          10
                11          11
                12          12
                13          13
                14          14

 KPOINTS: Kpoints from vasprun.xml

Automatic generation of k-mesh.
 Grid dimensions read from file:
 generate k-points for:    4    4    3

 Generating k-lattice:

  Cartesian coordinates                     Fractional coordinates (reciprocal lattice)
     0.037113579  0.000000000  0.000000000     0.250000000  0.000000000  0.000000000
     0.000000000  0.038018945 -0.012001281     0.000000000  0.250000000  0.000000000
     0.000000000  0.000000000  0.040153579     0.000000000  0.000000000  0.333333333

  Length of vectors
     0.037113579  0.039868170  0.040153579

  Shift w.r.t. Gamma in fractional coordinates (k-lattice)
     0.000000000  0.000000000  0.000000000

 TETIRR: Found    144 inequivalent tetrahedra from      288

 Subroutine IBZKPT returns following result:

 Found     21 irreducible k-points:

 Following reciprocal coordinates:
            Coordinates               Weight
  0.000000  0.000000  0.000000      1.000000
  0.250000  0.000000  0.000000      2.000000
  0.500000  0.000000  0.000000      1.000000
  0.000000  0.250000  0.000000      2.000000
  0.250000  0.250000  0.000000      4.000000
  0.500000  0.250000  0.000000      2.000000
  0.000000  0.500000  0.000000      1.000000
  0.250000  0.500000  0.000000      2.000000
  0.500000  0.500000  0.000000      1.000000
  0.000000  0.000000  0.333333      2.000000
  0.250000  0.000000  0.333333      4.000000
  0.500000  0.000000  0.333333      2.000000
  0.000000  0.250000  0.333333      2.000000
  0.250000  0.250000  0.333333      4.000000
  0.500000  0.250000  0.333333      2.000000
  0.000000  0.500000  0.333333      2.000000
  0.250000  0.500000  0.333333      4.000000
  0.500000  0.500000  0.333333      2.000000
  0.000000 -0.250000  0.333333      2.000000
  0.250000 -0.250000  0.333333      4.000000
  0.500000 -0.250000  0.333333      2.000000

 Following cartesian coordinates:
            Coordinates               Weight
  0.000000  0.000000  0.000000      1.000000
  0.037114  0.000000  0.000000      2.000000
  0.074227  0.000000  0.000000      1.000000
  0.000000  0.038019 -0.012001      2.000000
  0.037114  0.038019 -0.012001      4.000000
  0.074227  0.038019 -0.012001      2.000000
  0.000000  0.076038 -0.024003      1.000000
  0.037114  0.076038 -0.024003      2.000000
  0.074227  0.076038 -0.024003      1.000000
  0.000000  0.000000  0.040154      2.000000
  0.037114  0.000000  0.040154      4.000000
  0.074227  0.000000  0.040154      2.000000
  0.000000  0.038019  0.028152      2.000000
  0.037114  0.038019  0.028152      4.000000
  0.074227  0.038019  0.028152      2.000000
  0.000000  0.076038  0.016151      2.000000
  0.037114  0.076038  0.016151      4.000000
  0.074227  0.076038  0.016151      2.000000
  0.000000 -0.038019  0.052155      2.000000
  0.037114 -0.038019  0.052155      4.000000
  0.074227 -0.038019  0.052155      2.000000

 SYSTEM =  unknown system
 POSCAR =  K2 Eu2 Si2 S8

 Startparameter for this run:
   NWRITE =      2    write-flag & timer
   PREC   = accura    normal or accurate (medium, high low for compatibility)
   ISTART =      0    job   : 0-new  1-cont  2-samecut
   ICHARG =      0    charge: 1-file 2-atom 10-const
   ISPIN  =      2    spin polarized calculation?
   LNONCOLLINEAR =      F non collinear calculations
   LSORBIT =      F    spin-orbit coupling
   INIWAV =      1    electr: 0-lowe 1-rand  2-diag
   LASPH  =      T    aspherical Exc in radial PAW
[...]
  318                map_forward                           0.000206                    4   7
  319                  map_gather                            0.000048                  2   8
  320                  m_alltoallv_z                         0.000026                  2   8
  321                  map_scatter                           0.000099                  2   8
  322                map_backward                          0.000100                    2   7
  323                  map_gather                            0.000026                  1   8
  324                  m_alltoallv_z                         0.000011                  1   8
  325                  map_scatter                           0.000046                  1   8
  326          m_sumb_d                              0.000009                          2   4
  327          pothar                                0.000083                          1   4
  328            m_sumb_d                              0.000009                        1   5
  329        brmix                                 0.011167                            1   3
  330          m_sumb_d                              0.000036                          6   4
  331          brpre                                 0.000034                          2   4
  332          setg0                                 0.001221                          1   4
  333          broyd                                 0.008424                          1   4
  334            brget                                 0.002348                      326   5
  335            brsav                                 0.001080                      163   5
  336            m_sumb_d                              0.000201                       47   5
  337        m_bcast_d                             0.000026                            2   3
  338      potlok                                0.044269                              2   2
  339        fft3d_mpi                             0.026834                           36   3
  340          fftbrc_mpi                            0.023172                         36   4
  341            fftbas_plan_mpi                       0.023155                       36   5
  342              map_forward                           0.006523                     40   6
  343                map_gather                            0.002006                   24   7
  344                m_alltoallv_z                         0.002444                   24   7
  345                map_scatter                           0.001869                   24   7
  346              map_backward                          0.006010                     32   6
  347                map_gather                            0.001861                   16   7
  348                m_alltoallv_z                         0.002349                   16   7
  349                map_scatter                           0.001586                   16   7
  350              dfftw_execute                         0.008978                     30   6
  351        m_sumb_d                              0.000027                            5   3
  352        pothar                                0.001727                            2   3
  353          m_sumb_d                              0.000146                          2   4
  354        m_bcast_d                             0.002893                            4   3
  355      potlok_metagga                        0.000000                              1   2
  356      set_dd_magatom                        0.000004                              1   2
  357      set_dd_paw                            1.377309                              1   2
  358        m_sumb_d                              0.009954                            7   3
  359      augmentation_charge                   0.115140                              1   2
  360        fft3d_mpi                             0.053207                            2   3
  361          fftbrc_mpi                            0.047539                          2   4
  362            fftbas_plan_mpi                       0.047536                        2   5
  363              dfftw_execute                         0.026067                      6   6
  364              map_backward                          0.021279                      4   6
  365                map_gather                            0.005298                    2   7
  366                m_alltoallv_z                         0.008700                    2   7
  367                map_scatter                           0.007271                    2   7
  368      fftwav_mpi                            2.848017                           2394   2
  369        fftwav                                2.845020                         2394   3
  370          fft3d                                 2.629054                       2394   4
  371      densta                                1.934669                              1   2

 Flat profile

 set_dd_paw                            340.335115         248
 eddav                                 217.984946         250
 m_sumb_d                              204.040481     1327221
 lapack                                198.565137      432011
 raccmu_                               174.352998      432011
 redis_pw                               95.757993     2258295
 m_alltoall_d                           40.984175     5889149
 phaser                                 22.452504       10773
 fft3d                                  21.218193     2394040
 eccp                                   20.753507      199500
 redis_proj                             19.030359     2871074
 dfftw_execute                          18.962029        6396
 densta                                 18.486326         251
 setdij_                                15.800423         274
 augmentation_charge                    15.298693         248
 fftwav                                 14.901889     1581803
 orth1                                  13.948866     1296159
 hamiltmu                               12.636187      432011
 racc0mu_acc                            12.439835      432011
 w1_copy                                11.970790     2436711
 init_acc                               11.945134           1
 total_time                             11.823166           1
 overl                                  11.783182     1425016
 rpromu_acc                              9.858382      329741
 soft_charge                             9.448966         247
 m_bcast_z                               9.375036      435203
 setup_precond                           7.292919      199500
 m_bcast_d                               7.214273      864523
 overl_mu                                6.661982      432011
 ggemm                                   6.018450      537011
 pw_charge                               4.948701      144061
 m_alltoallv_z                           4.760136        9589
 map_scatter                             4.141707        9589
 vhamil                                  3.773257      812237
 kinhamil                                3.737622      812237
 fft3d_mpi                               3.565734      820816
 fftext_mpi                              3.469588      812237
 apply_precond                           3.398109      612737
 newband                                 3.231604      442511
 depsum                                  3.190727         247
 set_charge                              2.929639         247
 map_gather                              2.804236        9589
 acc_init_cublas                         2.462648           1
 fftwav_mpi                              2.159518     1581803
 broyd                                   1.272292         246
 potlok                                  1.175630         248
 acc_init_cusolver                       0.790370           1
 rpro_isp                                0.612064         273
 elmin                                   0.486577           1
 brmix                                   0.484545         246
 fftbas_plan_mpi                         0.420034        8579
 brget                                   0.401627       54155
 lincom                                  0.365084       10542
 w1_projall                              0.314876      327011
 setg0                                   0.306545         248
 acc_cufft_makeplan                      0.143924          19
 rspher_all                              0.123327          14
 brsav                                   0.109018       15506
 sphpro_fast                             0.100873           2
 truncate_high_frequency_w1              0.076047     1011737
 proall                                  0.062186           1
 map_backward                            0.058175        9062
 map_forward                             0.053888        8096
 fft_gq                                  0.027785         247
 orthch                                  0.027565           1
 pothar                                  0.022051         249
 force_and_stress                        0.017786           1
 choleski                                0.011032          42
 brpre                                   0.009300         492
 stufak                                  0.008443           1
 strnlr                                  0.005974           1
 fftbrc_mpi                              0.005111        8579
 inisym                                  0.004242           1
 forhar                                  0.002621           2
 strelo                                  0.002444           1
 fornlr                                  0.002053           1
 strehar                                 0.001779           1
 forloc                                  0.001351           1
 strkin                                  0.001144           1
 set_dd_magatom                          0.001089         248
 vectorpot                               0.001014         247
 fewald                                  0.000371           1
 rsp                                     0.000261           1
 chggra                                  0.000245           1
 brgrid                                  0.000241           1
 fordep                                  0.000062           1
 potlok_metagga                          0.000030         247
 crpa_reader                             0.000028           1
 rcp                                     0.000021           1
 posmap                                  0.000017           2
 acc_cufft_makeplans                     0.000012           3
 rotate_active_occupied_orbital          0.000001           1
 redis_pw_over_bands                     0.000000           1
  summed up times     1637.426315069199

 Accumulative profile

 total_time                           1637.426315           1
 elmin                                1594.412773           1
 eddav                                1147.714436         250
 set_dd_paw                            340.813026         248
 hamiltmu                              223.053691      432011
 m_sumb_d                              204.040481     1327221
 lapack                                198.565137      432011
 raccmu_                               193.454815      432011
 redis_pw                              116.003556     2258295
 set_charge                             55.978799         247
 newband                                47.075368      442511
 m_alltoall_d                           40.984175     5889149
 fft3d_mpi                              40.510164      820816
 redis_proj                             39.768971     2871074
 setdij_                                35.167710         274
 fftwav_mpi                             32.540487     1581803
 fftbrc_mpi                             31.205317        8579
 fftbas_plan_mpi                        31.200207        8579
 fftwav                                 30.380969     1581803
 augmentation_charge                    28.464335         248
 phaser                                 22.452504       10773
 fft3d                                  21.218193     2394040
 soft_charge                            21.033733         247
 eccp                                   20.753507      199500
 dfftw_execute                          18.962029        6396
 densta                                 18.486326         251
 orth1                                  13.948866     1296159
 kinhamil                               13.189432      812237
 racc0mu_acc                            12.439835      432011
 w1_copy                                11.970790     2436711
 init_acc                               11.945134           1
 overl                                  11.783182     1425016
 rpromu_acc                              9.858382      329741
 w1_projall                              9.685719      327011
 fftext_mpi                              9.451810      812237
 m_bcast_z                               9.375036      435203
 setup_precond                           7.292919      199500
 m_bcast_d                               7.214273      864523
 force_and_stress                        6.975738           1
 overl_mu                                6.661982      432011
 map_backward                            6.532462        9062
 ggemm                                   6.018450      537011
 map_forward                             5.285681        8096
 pw_charge                               4.948701      144061
 m_alltoallv_z                           4.760136        9589
 map_scatter                             4.141707        9589
 vhamil                                  3.773257      812237
 apply_precond                           3.398109      612737
 depsum                                  3.231059         247
 map_gather                              2.804236        9589
 brmix                                   2.647355         246
 potlok                                  2.558697         248
 acc_init_cublas                         2.462648           1
 broyd                                   1.832260         246
 strnlr                                  1.521497           1
 rpro_isp                                1.414467         273
 acc_init_cusolver                       0.790370           1
 fordep                                  0.767218           1
 fft_gq                                  0.670863         247
 fornlr                                  0.505990           1
 brget                                   0.401627       54155
 lincom                                  0.365084       10542
 orthch                                  0.329104           1
 setg0                                   0.306545         248
 proall                                  0.148329           1
 acc_cufft_makeplans                     0.143936           3
 acc_cufft_makeplan                      0.143924          19
 rspher_all                              0.123327          14
 brsav                                   0.109018       15506
 sphpro_fast                             0.104511           2
 truncate_high_frequency_w1              0.076047     1011737
 pothar                                  0.024291         249
 choleski                                0.011032          42
 brpre                                   0.009300         492
 stufak                                  0.008443           1
 inisym                                  0.004259           1
 forhar                                  0.002670           2
 strelo                                  0.002602           1
 fewald                                  0.001813           1
 strehar                                 0.001789           1
 forloc                                  0.001382           1
 strkin                                  0.001165           1
 set_dd_magatom                          0.001089         248
 vectorpot                               0.001014         247
 chggra                                  0.000835           1
 rsp                                     0.000261           1
 brgrid                                  0.000241           1
 potlok_metagga                          0.000030         247
 crpa_reader                             0.000028           1
 rcp                                     0.000021           1
 posmap                                  0.000017           2
 rotate_active_occupied_orbital          0.000001           1
 redis_pw_over_bands                     0.000000           1

Profiling took   5.209276  2.502920  0.003406  0.003305 seconds
Profiling took   3.293186 seconds