 vasp.6.3.2 27Jun22 (build Jul  3 2023 11:46:21) complex
 executed on    LinuxNV_CrayMPICH date 2024.04.22  00:39:57

 INCAR:
   ALGO = Fast
   EDIFF = 0.0001
   EFIELD_PEAD = 0.0 0.0 0.0
   ENCUT = 520.0
   IBRION = 1
   ICHARG = 1
   ISIF = 3
   ISMEAR = 0
   ISPIN = 2
   LCALCEPS = False
   LCALCPOL = False
   LDAU = False
   LEFG = False
   LMAXTAU = 0
   LORBIT = 11
   LPEAD = False
   LREAL = Auto
   LRHFATM = False
   LWAVE = False
   MAGMOM = 2*7.0 10*0.6
   METAGGA = --
   NELM = 1000
   NSW = 99
   PREC = accurate
   SIGMA = 0.2

 POTCAR:    PAW_PBE Eu 23Dec2003
 POTCAR:    PAW_PBE K_sv 06Sep2000
 POTCAR:    PAW_PBE Pd 04Jan2005
 POTCAR:    PAW_PBE O 08Apr2002
 POTCAR:    PAW_PBE Eu 23Dec2003
   VRHFIN =Eu : [core=Kr4d]

   TITEL  = PAW_PBE Eu 23Dec2003
   POMASS =  151.965; ZVAL   =   17.000    mass and valenz
   ENMAX  =  249.668; ENMIN  =  187.251 eV

   TITEL  = PAW_PBE K_sv 06Sep2000
   POMASS =   39.098; ZVAL   =    9.000    mass and valenz
   ENMAX  =  259.264; ENMIN  =  194.448 eV

   TITEL  = PAW_PBE Pd 04Jan2005
   POMASS =  106.420; ZVAL   =   10.000    mass and valenz
   ENMAX  =  250.925; ENMIN  =  188.194 eV

   TITEL  = PAW_PBE O 08Apr2002
   POMASS =   16.000; ZVAL   =    6.000    mass and valenz
   ENMAX  =  400.000; ENMIN  =  300.000 eV

 Optimization of the real space projectors (new method)

 maximal supplied QI-value         = 13.42
 optimisation between [QCUT,QGAM] = [ 11.67, 23.35] = [ 38.16,152.62] Ry
 Optimized for a Real-space Cutoff    1.63 Angstroem

   l    n(q)    QCUT    max X(q) W(low)/X(q) W(high)/X(q)  e(spline)
   0     11    11.673    10.400    0.14E-04    0.18E-05    0.24E-07
   0     11    11.673    10.768    0.21E-04    0.32E-05    0.49E-07
   1     11    11.673     4.094    0.40E-05    0.13E-04    0.93E-07
   1     11    11.673     4.009    0.11E-04    0.46E-04    0.33E-06
   2     10    11.673    29.030    0.79E-04    0.60E-04    0.70E-06
   2     10    11.673    19.941    0.80E-04    0.60E-04    0.71E-06
   3     10    11.673    88.889    0.23E-03    0.29E-03    0.30E-06
   3     10    11.673    76.102    0.23E-03    0.30E-03    0.30E-06
 Optimization of the real space projectors (new method)

[...]

   l    n(q)    QCUT    max X(q) W(low)/X(q) W(high)/X(q)  e(spline)
   2      9    11.633    59.108    0.81E-04    0.17E-04    0.26E-06
   2      9    11.633    58.101    0.82E-04    0.18E-04    0.27E-06
   0     10    11.633   102.235    0.26E-04    0.16E-04    0.21E-06
   0     10    11.633    58.388    0.23E-04    0.15E-04    0.20E-06
   1     10    11.633    22.191    0.10E-03    0.20E-03    0.14E-06
   1     10    11.633    15.590    0.86E-04    0.17E-03    0.12E-06
 Optimization of the real space projectors (new method)

 maximal supplied QI-value         = 24.76
 optimisation between [QCUT,QGAM] = [ 11.64, 23.27] = [ 37.91,151.63] Ry
 Optimized for a Real-space Cutoff    1.14 Angstroem

   l    n(q)    QCUT    max X(q) W(low)/X(q) W(high)/X(q)  e(spline)
   0      8    11.635    20.381    0.10E-03    0.33E-03    0.24E-06
   0      8    11.635    15.268    0.11E-03    0.35E-03    0.26E-06
   1      7    11.635     5.964    0.24E-03    0.31E-03    0.30E-06
   1      7    11.635     5.382    0.22E-03    0.25E-03    0.26E-06
  PAW_PBE Eu 23Dec2003                  :
  PAW_PBE K_sv 06Sep2000                :
  PAW_PBE Pd 04Jan2005                  :
  PAW_PBE O 08Apr2002                   :

 POSCAR: K2 Eu2 Pd2 O6
  positions in direct lattice
 exchange correlation table for  LEXCH =        8
   RHO(1)=    0.500       N(1)  =     2000
   RHO(2)=  100.500       N(2)  =     4000

 VTST: version 4.2, (08/11/21)

 CHAIN: initializing optimizer

 OPT: Using VASP QUASI-newton optimizer
 CHAIN: Read ICHAIN             0

 POSCAR: K2 Eu2 Pd2 O6
  positions in direct lattice

 ion  position               nearest neighbor table
   1  0.652  0.304  0.077-   7 2.34  10 2.43   9 2.48  12 2.49  12 2.49  11 2.58  11 2.58   6 3.25
                             6 3.25   5 3.27   5 3.27
   2  0.348  0.696  0.923-  11 2.34   9 2.43  10 2.48   8 2.49   8 2.49   7 2.58   7 2.58   5 3.25
                             5 3.25   6 3.27   6 3.27
   3  0.355  0.711  0.436-  12 2.68   5 3.37   5 3.37   6 3.46   6 3.46   4 3.72   4 3.75   4 3.75

   4  0.645  0.289  0.564-   8 2.68   6 3.37   6 3.37   5 3.46   5 3.46   3 3.72   3 3.75   3 3.75

   5  0.994  0.988  0.222-   9 1.99   9 1.99  12 2.03   7 2.07   2 3.25   2 3.25   1 3.27   1 3.27
                             3 3.37   3 3.37   6 3.38   4 3.46   4 3.46
   6  0.006  0.012  0.778-  10 1.99  10 1.99   8 2.03  11 2.07   1 3.25   1 3.25   2 3.27   2 3.27
                             4 3.37   4 3.37   5 3.38   3 3.46   3 3.46
   7  0.833  0.667  0.135-   5 2.07   1 2.34   2 2.58   2 2.58
   8  0.849  0.697  0.722-   6 2.03   2 2.49   2 2.49   4 2.68
   9  0.494  0.987  0.193-   5 1.99   5 1.99   2 2.43   1 2.48
  10  0.506  0.013  0.807-   6 1.99   6 1.99   1 2.43   2 2.48
  11  0.167  0.333  0.865-   6 2.07   2 2.34   1 2.58   1 2.58
  12  0.151  0.303  0.278-   5 2.03   1 2.49   1 2.49   3 2.68

  LATTYP: Found a base centered monoclinic cell.
 ALAT       =    13.3084052678
 B/A-ratio  =     0.2975936463
 C/A-ratio  =     0.5642504423
 COS(beta)  =    -0.2516970010

  Lattice vectors:

 A1 = (   1.9802484300,   6.4390789700,  -1.6782951800)
 A2 = (  -1.9802484200,   6.4390789700,  -1.6782951800)
 A3 = (   0.0000000000,   0.0040258400,   7.5092724800)

Analysis of symmetry for initial positions (statically):
 Subroutine PRICEL returns:
 Original cell was already a primitive cell.

 Routine SETGRP: Setting up the symmetry group for a
 base centered monoclinic supercell.

 Subroutine GETGRP returns: Found  4 space group operations
 (whereof  4 operations were pure point group operations)
 out of a pool of  4 trial point group operations.

The static configuration has the point symmetry C_2h.

Analysis of symmetry for dynamics (positions and initial velocities):
 Subroutine PRICEL returns:
 Original cell was already a primitive cell.

[...]

The dynamic configuration has the point symmetry C_2h.

Analysis of structural, dynamic, and magnetic symmetry:
 Subroutine PRICEL returns:
 Original cell was already a primitive cell.

 Routine SETGRP: Setting up the symmetry group for a
 base centered monoclinic supercell.

 Subroutine GETGRP returns: Found  4 space group operations
 (whereof  4 operations were pure point group operations)
 out of a pool of  4 trial point group operations.

The overall configuration has the point symmetry C_2h.

 Subroutine INISYM returns: Found  4 space group operations
 (whereof  4 operations are pure point group operations),
 and found     1 'primitive' translations

                                     Primitive cell

  volume of cell :     191.5279

  direct lattice vectors                    reciprocal lattice vectors
     3.960496850  0.000000000  0.000000000     0.252493573  0.077640008 -0.000041624
    -1.980248420  6.439078970 -1.678295180     0.000000000  0.155280016 -0.000083248
     0.000000000  0.004025840  7.509272480    -0.000000000  0.034704521  0.133150087

  length of vectors
     3.960496850  6.942607327  7.509273559     0.264160892  0.155280038  0.137598508

  position of ions in fractional coordinates (direct lattice)
     0.651992440  0.303984890  0.076705900
     0.348007560  0.696015110  0.923294100
     0.355465440  0.710930870  0.435692900
     0.644534560  0.289069130  0.564307100
     0.993946850  0.987893710  0.221961810
     0.006053150  0.012106290  0.778038190
     0.833491910  0.666983820  0.134805020
     0.848712370  0.697424740  0.722386350
     0.493657220  0.987314450  0.193129540
     0.506342780  0.012685550  0.806870460
     0.166508090  0.333016180  0.865194980
     0.151287630  0.302575260  0.277613650

  ion indices of the primitive-cell ions
   primitive index   ion index
                 1           1
                 2           2
                 3           3
                 4           4
                 5           5
                 6           6
                 7           7
                 8           8
                 9           9
                10          10
                11          11
                12          12

 KPOINTS: Kpoints from vasprun.xml

Automatic generation of k-mesh.
 Grid dimensions read from file:
 generate k-points for:    6    6    6

 Generating k-lattice:

  Cartesian coordinates                     Fractional coordinates (reciprocal lattice)
     0.042082262  0.012940001 -0.000006937     0.166666667 -0.000000000 -0.000000000
     0.000000000  0.025880003 -0.000013875     0.000000000  0.166666667  0.000000000
    -0.000000000  0.005784087  0.022191681     0.000000000  0.000000000  0.166666667

  Length of vectors
     0.044026815  0.025880006  0.022933085

  Shift w.r.t. Gamma in fractional coordinates (k-lattice)
     0.500000000  0.500000000  0.500000000

 Subroutine IBZKPT returns following result:

 Found    108 irreducible k-points:

 Following reciprocal coordinates:
            Coordinates               Weight
  0.083333  0.083333  0.083333      4.000000
  0.250000  0.083333  0.083333      4.000000
  0.416667  0.083333  0.083333      4.000000
 -0.416667  0.083333  0.083333      4.000000
 -0.250000  0.083333  0.083333      4.000000
 -0.083333  0.083333  0.083333      4.000000
  0.083333  0.250000  0.083333      4.000000
  0.250000  0.250000  0.083333      4.000000
  0.416667  0.250000  0.083333      4.000000
 -0.416667  0.250000  0.083333      4.000000
 -0.250000  0.250000  0.083333      4.000000
 -0.083333  0.250000  0.083333      4.000000
  0.083333  0.416667  0.083333      4.000000
  0.250000  0.416667  0.083333      4.000000
  0.416667  0.416667  0.083333      4.000000
 -0.416667  0.416667  0.083333      4.000000
 -0.250000  0.416667  0.083333      4.000000
 -0.083333  0.416667  0.083333      4.000000
  0.083333 -0.416667  0.083333      4.000000
  0.250000 -0.416667  0.083333      4.000000
  0.416667 -0.416667  0.083333      4.000000
 -0.416667 -0.416667  0.083333      4.000000
 -0.250000 -0.416667  0.083333      4.000000
 -0.083333 -0.416667  0.083333      4.000000
  0.083333 -0.250000  0.083333      4.000000
  0.250000 -0.250000  0.083333      4.000000
  0.416667 -0.250000  0.083333      4.000000
 -0.416667 -0.250000  0.083333      4.000000
 -0.250000 -0.250000  0.083333      4.000000
 -0.083333 -0.250000  0.083333      4.000000
  0.083333 -0.083333  0.083333      4.000000
  0.250000 -0.083333  0.083333      4.000000
  0.416667 -0.083333  0.083333      4.000000
 -0.416667 -0.083333  0.083333      4.000000
 -0.250000 -0.083333  0.083333      4.000000
 -0.083333 -0.083333  0.083333      4.000000
  0.083333  0.083333  0.250000      4.000000
  0.250000  0.083333  0.250000      4.000000
  0.416667  0.083333  0.250000      4.000000
 -0.416667  0.083333  0.250000      4.000000
 -0.250000  0.083333  0.250000      4.000000
 -0.083333  0.083333  0.250000      4.000000
  0.083333  0.250000  0.250000      4.000000
  0.250000  0.250000  0.250000      4.000000
  0.416667  0.250000  0.250000      4.000000
 -0.416667  0.250000  0.250000      4.000000
 -0.250000  0.250000  0.250000      4.000000
[...]
  325          m_sumb_d                              0.000211                         36   4
  326          brpre                                 0.000118                         12   4
  327          setg0                                 0.003927                          6   4
  328          broyd                                 0.003836                          6   4
  329            m_sumb_d                              0.000324                       93   5
  330            brget                                 0.001105                      309   5
  331            brsav                                 0.000294                       81   5
  332        m_bcast_d                             0.000139                           12   3
  333      potlok                                0.036286                              6   2
  334        fft3d_mpi                             0.024068                          156   3
  335          fftbrc_mpi                            0.018684                        156   4
  336            fftbas_plan_mpi                       0.018609                      156   5
  337              map_forward                           0.008019                    168   6
  338                map_gather                            0.001877                   96   7
  339                m_alltoallv_z                         0.001063                   96   7
  340                map_scatter                           0.003939                   96   7
  341              map_backward                          0.006155                    144   6
  342                map_gather                            0.001563                   72   7
  343                m_alltoallv_z                         0.000825                   72   7
  344                map_scatter                           0.002715                   72   7
  345        m_sumb_d                              0.000154                           30   3
  346        pothar                                0.000477                            6   3
  347          m_sumb_d                              0.000037                          6   4
  348        m_bcast_d                             0.000152                           12   3
  349      potlok_metagga                        0.000001                              6   2
  350      set_dd_magatom                        0.000023                              6   2
  351      set_dd_paw                            0.062134                              6   2
  352        m_sumb_d                              0.003881                           42   3
  353      wavpre_noio                           0.313054                              5   2
  354        stufak                                0.020128                            5   3
  355      densta                                0.018023                              1   2
  356        m_sumb_d                              0.001079                           39   3

 Flat profile

 raccmu_                                79.931869      221634
 eccp                                   77.357997      976621
 phaser                                 42.958617       21600
 eddav                                  39.554677          10
 eccp_nl                                39.443827      726277
 redis_pw                               38.298540      540081
 i2                                     38.249263      137579
 w1_gemv                                37.696311     1568806
 lapack                                 37.052888       84055
 m_sumb_d                               34.288308      283660
 eddiag                                 24.699426          51
 m_alltoall_d                           21.887718     3574989
 rpromu_acc                             21.098625      284274
 fftwav                                 20.147211     1708082
 cnorma                                 19.274753      726277
 fft3d                                  18.184289     2593453
 rpro_isp                               17.023239        8424
 eddrmm                                 16.882707          51
 overl1                                 12.971930      784403
 init_acc                               11.234918           1
 soft_charge                            10.849125          57
 w1_copy                                10.535416     2028200
 setup_precond                           8.798834      250344
 w1_dscal                                8.725157     1442565
 hamilt_local                            8.617171      209304
 racc0mu_acc                             7.274675      221634
 redis_proj                              7.141218      625644
 total_time                              7.038001           1
 apply_precond                           6.613194     1439566
 newband                                 6.261796      234810
 w1_dot                                  5.882230      208935
 w1_daxpy                                5.839815     1034686
 w1_gaxpy                                5.745749     1113313
 hamiltmu                                5.366656      221634
 pw_charge                               4.680984      176350
 kinhamil                                3.851341      885371
 depsum                                  3.837015          57
 orth1                                   3.780253      322149
 vhamil                                  3.745890      885371
 fftext_mpi                              3.546084      885371
 overl_mu                                3.359048      221634
 acc_init_cublas                         3.297609           1
 overl                                   2.504863      298998
 m_bcast_z                               2.444892      100471
 zhegv                                   2.394492      308408
 fftwav_mpi                              2.277822     1708082
 choleski                                2.261308       12312
 orthch                                  2.144268          57
 m_bcast_d                               1.395716      168261
 i3                                      1.343074      137579
 setdij_                                 1.256104         220
 acc_init_cusolver                       1.123069           1
 ggemm                                   1.107334      105655
 rspher_all                              0.736602          79
 set_dd_paw                              0.669208          69
 sphpro_fast                             0.655182           7
 lincom                                  0.509535       25488
 elmin                                   0.503530           6
 proall                                  0.398287           6
 fft3d_mpi                               0.364573      887397
 augmentation_charge                     0.360992          57
 set_charge                              0.347860          57
 densta                                  0.308886          62
 acc_cufft_makeplan                      0.293706          19
 wavpre_noio                             0.292926           5
 potlok                                  0.194159          63
 force_and_stress                        0.190682           6
 w1_projall                              0.180263      200034
 strnlr                                  0.171521           6
 m_alltoallv_z                           0.164710        2266
 i1                                      0.156715      137579
 map_scatter                             0.116428        2266
 dfftw_execute                           0.089884         714
 fftbas_plan_mpi                         0.077939        2026
 map_gather                              0.070174        2266
 truncate_high_frequency_w1              0.069597      926411
 fornlr                                  0.059654           6
 brmix                                   0.042886          57
 setg0                                   0.037129          69
 stufak                                  0.024733           6
 broyd                                   0.021688          57
 strkin                                  0.014319           6
 map_forward                             0.013342        1928
 map_backward                            0.012897        2124
 brget                                   0.010000        2787
 forhar                                  0.009731          12
 strelo                                  0.008917           6
 strehar                                 0.006071           6
 pothar                                  0.005058          69
 forloc                                  0.004954           6
 inisym                                  0.004220           1
 brsav                                   0.002695         754
 fft_gq                                  0.002315          57
 rsp                                     0.001600           6
 shift_bands_between_low_high            0.001370       11016
 chggra                                  0.001293           6
 brpre                                   0.001143         114
 fftbrc_mpi                              0.001011        2026
 fewald                                  0.000353           6
 set_dd_magatom                          0.000282          69
 vectorpot                               0.000246          58
 fordep                                  0.000178           6
 brgrid                                  0.000137           1
 rcp                                     0.000100           6
 crpa_reader                             0.000028           1
 posmap                                  0.000021           2
 potlok_metagga                          0.000009          63
 acc_cufft_makeplans                     0.000008           3
 redis_pw_over_bands                     0.000002           6
 rotate_active_occupied_orbital          0.000001           6
  summed up times     810.4890599250793

 Accumulative profile

 total_time                            810.489060           1
 elmin                                 718.545184           6
 eddrmm                                410.223253          51
 eddav                                 195.259447          10
 i3                                    130.890685      137579
 i2                                    122.150672      137579
 hamiltmu                              109.332885      221634
 raccmu_                                90.565592      221634
 eccp                                   77.357997      976621
 eddiag                                 63.228133          51
 force_and_stress                       60.636095           6
 cnorma                                 58.718580      726277
 w1_gemv                                50.668241     1568806
 redis_pw                               48.505689      540081
 newband                                43.947564      234810
 phaser                                 42.958617       21600
 strnlr                                 42.488029           6
 rpro_isp                               41.085600        8424
 eccp_nl                                39.443827      726277
 lapack                                 37.052888       84055
 fftwav_mpi                             34.748636     1708082
 m_sumb_d                               34.288308      283660
 fftwav                                 32.470813     1708082
 orthch                                 27.672937          57
 set_charge                             25.881366          57
 m_alltoall_d                           21.887718     3574989
 soft_charge                            21.106453          57
 rpromu_acc                             21.098625      284274
 redis_proj                             18.821787      625644
 fft3d                                  18.184289     2593453
 fornlr                                 14.184173           6
 kinhamil                               13.511567      885371
 overl1                                 12.971930      784403
 hamilt_local                           12.473991      209304
 init_acc                               11.234918           1
 w1_copy                                10.535416     2028200
 fftext_mpi                              9.660226      885371
 setup_precond                           8.798834      250344
 w1_dscal                                8.725157     1442565
 racc0mu_acc                             7.274675      221634
 fft3d_mpi                               6.771643      887397
 w1_projall                              6.692011      200034
 apply_precond                           6.613194     1439566
 w1_dot                                  5.882230      208935
 w1_daxpy                                5.839815     1034686
 w1_gaxpy                                5.745749     1113313
 pw_charge                               4.680984      176350
 depsum                                  3.845560          57
 orth1                                   3.780253      322149
 vhamil                                  3.745890      885371
 overl_mu                                3.359048      221634
 acc_init_cublas                         3.297609           1
 proall                                  2.897848           6
 overl                                   2.504863      298998
 i1                                      2.483616      137579
 m_bcast_z                               2.444892      100471
 zhegv                                   2.394492      308408
 choleski                                2.261308       12312
 m_bcast_d                               1.395716      168261
 setdij_                                 1.295536         220
 acc_init_cusolver                       1.123069           1
 ggemm                                   1.107334      105655
 rspher_all                              0.736602          79
 set_dd_paw                              0.715369          69
 sphpro_fast                             0.681796           7
 potlok                                  0.580055          63
 fftbrc_mpi                              0.546383        2026
 fftbas_plan_mpi                         0.545372        2026
 augmentation_charge                     0.525058          57
 lincom                                  0.509535       25488
 densta                                  0.332834          62
 wavpre_noio                             0.313054           5
 acc_cufft_makeplans                     0.293714           3
 acc_cufft_makeplan                      0.293706          19
 map_forward                             0.214384        1928
 fordep                                  0.211645           6
 m_alltoallv_z                           0.164710        2266
 map_backward                            0.163166        2124
 brmix                                   0.120846          57
 map_scatter                             0.116428        2266
 dfftw_execute                           0.089884         714
 fft_gq                                  0.079406          57
 map_gather                              0.070174        2266
 truncate_high_frequency_w1              0.069597      926411
 broyd                                   0.037510          57
 setg0                                   0.037129          69
 stufak                                  0.024733           6
 strkin                                  0.014367           6
 forhar                                  0.010037          12
 brget                                   0.010000        2787
 strelo                                  0.009419           6
 strehar                                 0.006164           6
 pothar                                  0.005548          69
 forloc                                  0.005143           6
 chggra                                  0.004489           6
 inisym                                  0.004241           1
 brsav                                   0.002695         754
 fewald                                  0.002571           6
 rsp                                     0.001600           6
 shift_bands_between_low_high            0.001370       11016
 brpre                                   0.001143         114
 set_dd_magatom                          0.000282          69
 vectorpot                               0.000246          58
 brgrid                                  0.000137           1
 rcp                                     0.000100           6
 crpa_reader                             0.000028           1
 posmap                                  0.000021           2
 potlok_metagga                          0.000009          63
 redis_pw_over_bands                     0.000002           6
 rotate_active_occupied_orbital          0.000001           6

Profiling took   3.392636  2.342998  0.003489  0.003417 seconds
Profiling took   2.725409 seconds