 vasp.6.3.2 27Jun22 (build Jul  3 2023 11:46:21) complex
 executed on    LinuxNV_CrayMPICH date 2024.04.22  03:29:08

 INCAR:
   ADDGRID = True
   ALGO = Normal
   EDIFF = 0.00065
   ENCUT = 520.0
   IBRION = -1
   ICHARG = 0
   ISIF = 3
   ISMEAR = -5
   ISPIN = 2
   ISTART = 1
   KPOINT_BSE = -1 0 0 0
   LAECHG = True
   LASPH = True
   LCHARG = True
   LELF = True
   LORBIT = 11
   LREAL = Auto
   LVHAR = True
   LWAVE = False
   MAGMOM = 2*7.0 11*0.6
   NELM = 1000
   NSW = 0
   PREC = accurate
   SIGMA = 0.05

 POTCAR:    PAW_PBE Gd 23Dec2003
 POTCAR:    PAW_PBE Al 04Jan2001
 POTCAR:    PAW_PBE Si 05Jan2001
 POTCAR:    PAW_PBE Au 04Oct2007
 POTCAR:    PAW_PBE Gd 23Dec2003
   VRHFIN =Gd : [core=Xe4]

   TITEL  = PAW_PBE Gd 23Dec2003
   POMASS =  157.250; ZVAL   =   18.000    mass and valenz
   ENMAX  =  256.472; ENMIN  =  192.354 eV

   TITEL  = PAW_PBE Al 04Jan2001
   POMASS =   26.981; ZVAL   =    3.000    mass and valenz
   ENMAX  =  240.300; ENMIN  =  180.225 eV

   TITEL  = PAW_PBE Si 05Jan2001
   POMASS =   28.085; ZVAL   =    4.000    mass and valenz
   ENMAX  =  245.345; ENMIN  =  184.009 eV

   TITEL  = PAW_PBE Au 04Oct2007
   POMASS =  196.966; ZVAL   =   11.000    mass and valenz
   ENMAX  =  229.943; ENMIN  =  172.457 eV

 Optimization of the real space projectors (new method)

 maximal supplied QI-value         = 13.42
 optimisation between [QCUT,QGAM] = [ 11.67, 23.35] = [ 38.16,152.62] Ry
 Optimized for a Real-space Cutoff    1.63 Angstroem

   l    n(q)    QCUT    max X(q) W(low)/X(q) W(high)/X(q)  e(spline)
   0     11    11.673    10.501    0.14E-04    0.17E-05    0.21E-07
   0     11    11.673     9.148    0.21E-04    0.32E-05    0.45E-07
   1     11    11.673     4.035    0.33E-05    0.11E-04    0.84E-07
   1     11    11.673     4.388    0.11E-04    0.47E-04    0.34E-06
   2     10    11.673    20.656    0.12E-04    0.28E-04    0.54E-06
   2     10    11.673    12.651    0.11E-04    0.26E-04    0.51E-06
   3     10    11.673    61.921    0.19E-03    0.22E-03    0.23E-06
   3     10    11.673    48.328    0.20E-03    0.23E-03    0.23E-06
 Optimization of the real space projectors (new method)

[...]

   l    n(q)    QCUT    max X(q) W(low)/X(q) W(high)/X(q)  e(spline)
   0      8    11.508   159.560    0.71E-04    0.15E-03    0.51E-07
   0      8    11.508   115.863    0.70E-04    0.15E-03    0.51E-07
   1      8    11.508    88.339    0.16E-03    0.38E-04    0.82E-07
   1      8    11.508    48.592    0.15E-03    0.36E-04    0.79E-07
 Optimization of the real space projectors (new method)

 maximal supplied QI-value         = 15.12
 optimisation between [QCUT,QGAM] = [ 11.64, 23.28] = [ 37.95,151.78] Ry
 Optimized for a Real-space Cutoff    1.49 Angstroem

   l    n(q)    QCUT    max X(q) W(low)/X(q) W(high)/X(q)  e(spline)
   2      9    11.641    60.898    0.24E-03    0.10E-03    0.19E-06
   2      9    11.641    58.894    0.25E-03    0.10E-03    0.19E-06
   0     10    11.641   109.617    0.73E-04    0.33E-04    0.11E-06
   0     10    11.641    75.026    0.71E-04    0.32E-04    0.11E-06
   1     10    11.641    16.344    0.27E-04    0.97E-04    0.16E-06
   1     10    11.641    10.160    0.23E-04    0.77E-04    0.13E-06
  PAW_PBE Gd 23Dec2003                  :
  PAW_PBE Al 04Jan2001                  :
  PAW_PBE Si 05Jan2001                  :
  PAW_PBE Au 04Oct2007                  :

 POSCAR: Gd2 Al6 Si4 Au1
  positions in direct lattice
 exchange correlation table for  LEXCH =        8
   RHO(1)=    0.500       N(1)  =     2000
   RHO(2)=  100.500       N(2)  =     4000

 VTST: version 4.2, (08/11/21)

 CHAIN: initializing optimizer

 OPT: Using VASP Dynamics algorithm
 CHAIN: Read ICHAIN             0

 POSCAR: Gd2 Al6 Si4 Au1
  positions in direct lattice

 ion  position               nearest neighbor table
   1  0.566  0.566  0.566-  10 2.98  10 2.98  10 2.98  12 2.99  12 2.99  12 2.99   3 3.40   3 3.40
                             3 3.40   6 3.46   6 3.46   6 3.46
   2  0.434  0.434  0.434-   9 2.98   9 2.98   9 2.98  11 2.99  11 2.99  11 2.99   5 3.40   5 3.40
                             5 3.40   4 3.46   4 3.46   4 3.46
   3  0.185  0.185  0.185-  11 2.51  12 2.52  12 2.52  12 2.52   5 3.09   5 3.09   5 3.09   1 3.40
                             1 3.40   1 3.40
   4  0.052  0.052  0.052-   9 2.56   9 2.56   9 2.56  13 2.64   7 3.04   7 3.04   7 3.04   2 3.46
                             2 3.46   2 3.46
   5  0.815  0.815  0.815-  12 2.51  11 2.52  11 2.52  11 2.52   3 3.09   3 3.09   3 3.09   2 3.40
                             2 3.40   2 3.40
   6  0.948  0.948  0.948-  10 2.56  10 2.56  10 2.56  13 2.64   8 3.04   8 3.04   8 3.04   1 3.46
                             1 3.46   1 3.46
   7  0.683  0.683  0.683-   9 2.54  13 2.58  13 2.58  13 2.58   8 2.96   8 2.96   8 2.96   4 3.04
                             4 3.04   4 3.04
   8  0.317  0.317  0.317-  10 2.54  13 2.58  13 2.58  13 2.58   7 2.96   7 2.96   7 2.96   6 3.04
                             6 3.04   6 3.04
   9  0.734  0.734  0.734-   7 2.54   4 2.56   4 2.56   4 2.56   2 2.98   2 2.98   2 2.98
  10  0.266  0.266  0.266-   8 2.54   6 2.56   6 2.56   6 2.56   1 2.98   1 2.98   1 2.98
  11  0.135  0.135  0.135-   3 2.51   5 2.52   5 2.52   5 2.52   2 2.99   2 2.99   2 2.99
  12  0.865  0.865  0.865-   5 2.51   3 2.52   3 2.52   3 2.52   1 2.99   1 2.99   1 2.99
  13  0.000  0.000  0.000-   7 2.58   7 2.58   8 2.58   8 2.58   7 2.58   8 2.58   6 2.64   4 2.64

  LATTYP: Found a trigonal (rhomboedric) cell.
 ALAT       =    16.9388349717
 COS(alpha) =     0.9687393836

  Lattice vectors:

 A1 = (  16.8059340000,  -2.1177140000,   0.0000000000)
 A2 = (  16.8059340000,   2.1177140000,   0.0000000000)
 A3 = (  16.5390820000,   0.0000000000,   3.6582680000)

Analysis of symmetry for initial positions (statically):
 Subroutine PRICEL returns:
 Original cell was already a primitive cell.

 Routine SETGRP: Setting up the symmetry group for a
 trigonal (rhombohedral) supercell.

 Subroutine GETGRP returns: Found 12 space group operations
 (whereof 12 operations were pure point group operations)
 out of a pool of 12 trial point group operations.

The static configuration has the point symmetry D_3d.

Analysis of symmetry for dynamics (positions and initial velocities):
 Subroutine PRICEL returns:
 Original cell was already a primitive cell.

[...]

The dynamic configuration has the point symmetry D_3d.

Analysis of structural, dynamic, and magnetic symmetry:
 Subroutine PRICEL returns:
 Original cell was already a primitive cell.

 Routine SETGRP: Setting up the symmetry group for a
 trigonal (rhombohedral) supercell.

 Subroutine GETGRP returns: Found 12 space group operations
 (whereof 12 operations were pure point group operations)
 out of a pool of 12 trial point group operations.

The overall configuration has the point symmetry D_3d.

 Subroutine INISYM returns: Found 12 space group operations
 (whereof 12 operations are pure point group operations),
 and found     1 'primitive' translations

                                     Primitive cell

  volume of cell :     260.3967

  direct lattice vectors                    reciprocal lattice vectors
    16.805934000 -2.117714000  0.000000000     0.029751396 -0.236103648 -0.134506488
    16.805934000  2.117714000  0.000000000     0.029751396  0.236103648 -0.134506488
    16.539082000  0.000000000  3.658268000    -0.000000000  0.000000000  0.273353401

  length of vectors
    16.938834972 16.938834972 16.938835797     0.273353385  0.273353385  0.273353401

  position of ions in fractional coordinates (direct lattice)
     0.565616000  0.565616000  0.565616000
     0.434384000  0.434384000  0.434384000
     0.185408000  0.185408000  0.185408000
     0.052408000  0.052408000  0.052408000
     0.814592000  0.814592000  0.814592000
     0.947592000  0.947592000  0.947592000
     0.683306000  0.683306000  0.683306000
     0.316694000  0.316694000  0.316694000
     0.733875000  0.733875000  0.733875000
     0.266125000  0.266125000  0.266125000
     0.135433000  0.135433000  0.135433000
     0.864567000  0.864567000  0.864567000
     0.000000000  0.000000000  0.000000000

  ion indices of the primitive-cell ions
   primitive index   ion index
                 1           1
                 2           2
                 3           3
                 4           4
                 5           5
                 6           6
                 7           7
                 8           8
                 9           9
                10          10
                11          11
                12          12
                13          13

 KPOINTS: Kpoints from vasprun.xml

Automatic generation of k-mesh.
 Grid dimensions read from file:
 generate k-points for:    4    4    4

 Generating k-lattice:

  Cartesian coordinates                     Fractional coordinates (reciprocal lattice)
     0.007437849 -0.059025912 -0.033626622     0.250000000 -0.000000000 -0.000000000
     0.007437849  0.059025912 -0.033626622    -0.000000000  0.250000000 -0.000000000
    -0.000000000  0.000000000  0.068338350     0.000000000  0.000000000  0.250000000

  Length of vectors
     0.068338346  0.068338346  0.068338350

  Shift w.r.t. Gamma in fractional coordinates (k-lattice)
     0.000000000  0.000000000  0.000000000

 TETIRR: Found     30 inequivalent tetrahedra from      384

 Subroutine IBZKPT returns following result:

 Found     13 irreducible k-points:

 Following reciprocal coordinates:
            Coordinates               Weight
  0.000000  0.000000  0.000000      1.000000
  0.250000  0.000000  0.000000      6.000000
  0.500000  0.000000  0.000000      3.000000
  0.250000  0.250000  0.000000      6.000000
  0.500000  0.250000  0.000000     12.000000
 -0.250000  0.250000  0.000000      6.000000
  0.500000  0.500000  0.000000      3.000000
  0.250000  0.250000  0.250000      2.000000
  0.500000  0.250000  0.250000      6.000000
 -0.250000  0.250000  0.250000      6.000000
  0.500000  0.500000  0.250000      6.000000
 -0.250000  0.500000  0.250000      6.000000
  0.500000  0.500000  0.500000      1.000000

 Following cartesian coordinates:
            Coordinates               Weight
  0.000000  0.000000  0.000000      1.000000
  0.007438 -0.059026 -0.033627      6.000000
  0.014876 -0.118052 -0.067253      3.000000
  0.014876  0.000000 -0.067253      6.000000
  0.022314 -0.059026 -0.100880     12.000000
  0.000000  0.118052 -0.000000      6.000000
  0.029751  0.000000 -0.134506      3.000000
  0.014876  0.000000  0.001085      2.000000
  0.022314 -0.059026 -0.032542      6.000000
  0.000000  0.118052  0.068338      6.000000
  0.029751  0.000000 -0.066168      6.000000
  0.007438  0.177078  0.034712      6.000000
  0.029751  0.000000  0.002170      1.000000

 SYSTEM =  unknown system
 POSCAR =  Gd2 Al6 Si4 Au1

 Startparameter for this run:
   NWRITE =      2    write-flag & timer
   PREC   = accura    normal or accurate (medium, high low for compatibility)
   ISTART =      0    job   : 0-new  1-cont  2-samecut
   ICHARG =      2    charge: 1-file 2-atom 10-const
   ISPIN  =      2    spin polarized calculation?
   LNONCOLLINEAR =      F non collinear calculations
[...]
  290                map_forward                           0.001236                    4   7
  291                  map_gather                            0.000367                  2   8
  292                  m_alltoallv_z                         0.000029                  2   8
  293                  map_scatter                           0.000726                  2   8
  294                map_backward                          0.000501                    2   7
  295                  map_gather                            0.000115                  1   8
  296                  m_alltoallv_z                         0.000012                  1   8
  297                  map_scatter                           0.000316                  1   8
  298          m_sumb_d                              0.000011                          2   4
  299          pothar                                0.000213                          1   4
  300            m_sumb_d                              0.000007                        1   5
  301        brmix                                 0.065480                            1   3
  302          m_sumb_d                              0.000112                          6   4
  303          brpre                                 0.000329                          2   4
  304          setg0                                 0.016602                          1   4
  305          broyd                                 0.031156                          1   4
  306            m_sumb_d                              0.001970                       29   5
  307            brget                                 0.007829                      119   5
  308            brsav                                 0.002775                       27   5
  309        m_bcast_d                             0.000062                            2   3
  310      potlok                                0.492987                              2   2
  311        fft3d_mpi                             0.360080                           36   3
  312          fftbrc_mpi                            0.309166                         36   4
  313            fftbas_plan_mpi                       0.309140                       36   5
  314              map_forward                           0.078733                     40   6
  315                map_gather                            0.025411                   24   7
  316                m_alltoallv_z                         0.025087                   24   7
  317                map_scatter                           0.027522                   24   7
  318              map_backward                          0.067411                     32   6
  319                map_gather                            0.023646                   16   7
  320                m_alltoallv_z                         0.020754                   16   7
  321                map_scatter                           0.022299                   16   7
  322              dfftw_execute                         0.160505                     30   6
  323        m_sumb_d                              0.000033                            5   3
  324        pothar                                0.022494                            2   3
  325          m_sumb_d                              0.000228                          2   4
  326        m_bcast_d                             0.032426                            4   3
  327      potlok_metagga                        0.000000                              1   2
  328      set_dd_magatom                        0.000015                              1   2
  329      set_dd_paw                            1.773486                              1   2
  330        m_sumb_d                              1.162427                            7   3
  331      augmentation_charge                   2.499383                              1   2
  332        fft3d_mpi                             0.930105                            2   3
  333          fftbrc_mpi                            0.823428                          2   4
  334            fftbas_plan_mpi                       0.823423                        2   5
  335              dfftw_execute                         0.544510                      6   6
  336              map_backward                          0.278572                      4   6
  337                map_gather                            0.098770                    2   7
  338                m_alltoallv_z                         0.048667                    2   7
  339                map_scatter                           0.131118                    2   7
  340      fftwav_mpi                           19.183136                           1170   2
  341        fftwav                               19.178404                         1170   3
  342          fft3d                                18.228509                       1170   4
  343      densta                                0.391129                              1   2

 Flat profile

 raccmu_                               153.489601       22883
 total_time                            114.448746           1
 setdij_                                77.560163          51
 dfftw_execute                          47.855753        1032
 phaser                                 45.577169         871
 m_sumb_d                               41.159650       73709
 augmentation_charge                    37.496308          24
 eddav                                  25.478573          27
 fft3d                                  19.207479      129469
 set_dd_paw                             15.355350          25
 init_acc                               12.434661           1
 lapack                                 10.538699       22883
 fft3d_mpi                               9.182022       43388
 map_scatter                             9.079804        1109
 map_gather                              7.865010        1109
 redis_pw                                7.354520      118111
 hamiltmu                                6.391416       22883
 m_alltoallv_z                           5.681254        1109
 set_charge                              3.741306          23
 eccp                                    3.268886       10530
 rspher_all                              2.814841          14
 acc_init_cublas                         2.430754           1
 m_alltoall_d                            2.322674      309245
 fftwav                                  2.015640       87074
 rpromu_acc                              1.630810       18619
 pw_charge                               1.299659        6574
 redis_proj                              1.001430      150002
 potlok                                  0.977178          25
 densta                                  0.830059          28
 acc_init_cusolver                       0.804253           1
 orth1                                   0.779058       68701
 rpro_isp                                0.740161         169
 soft_charge                             0.728516          23
 racc0mu_acc                             0.664174       22883
 overl                                   0.663996       74286
 w1_copy                                 0.635998      127185
 m_bcast_z                               0.595466       24443
 m_bcast_d                               0.429249       45821
 brmix                                   0.422913          23
 setup_precond                           0.384990       10530
 setg0                                   0.383889          25
 overl_mu                                0.364159       22883
 ggemm                                   0.296213       28499
 elmin                                   0.255160           1
 vhamil                                  0.215371       42395
 newband                                 0.212960       23585
 kinhamil                                0.194673       42395
 fftext_mpi                              0.192745       42395
 apply_precond                           0.178854       31865
 broyd                                   0.174550          23
 depsum                                  0.150449          23
 acc_cufft_makeplan                      0.144061          19
 fftwav_mpi                              0.123239       87074
 brget                                   0.095216        1466
 stufak                                  0.088031           1
 fftbas_plan_mpi                         0.086322         993
 proall                                  0.067926           1
 force_and_stress                        0.058926           1
 sphpro_fast                             0.052841           2
 fft_gq                                  0.033260          23
 forhar                                  0.032151           2
 brsav                                   0.029248         372
 pothar                                  0.028260          26
 lincom                                  0.027438         728
 strelo                                  0.020303           1
 map_backward                            0.018390        1026
 w1_projall                              0.018243       17267
 map_forward                             0.017897         960
 strehar                                 0.017894           1
 forloc                                  0.016072           1
 orthch                                  0.012085           1
 brpre                                   0.009389          46
 choleski                                0.007194          26
 strnlr                                  0.004476           1
 truncate_high_frequency_w1              0.004442       52925
 inisym                                  0.004242           1
 brgrid                                  0.002071           1
 fornlr                                  0.001500           1
 fftbrc_mpi                              0.000981         993
 chggra                                  0.000746           1
 rsp                                     0.000582           1
 strkin                                  0.000461           1
 fewald                                  0.000339           1
 vectorpot                               0.000135          24
 set_dd_magatom                          0.000131          25
 fordep                                  0.000072           1
 posmap                                  0.000034           2
 crpa_reader                             0.000029           1
 rcp                                     0.000029           1
 acc_cufft_makeplans                     0.000006           3
 potlok_metagga                          0.000002          24
 rotate_active_occupied_orbital          0.000001           1
 redis_pw_over_bands                     0.000000           1
  summed up times     678.9818770885468

 Accumulative profile

 total_time                            678.981877           1
 elmin                                 428.822805           1
 eddav                                 262.749801          27
 hamiltmu                              161.855704       22883
 raccmu_                               154.517934       22883
 setdij_                               129.666651          51
 force_and_stress                       83.903335           1
 fft3d_mpi                              80.118457       43388
 fftbrc_mpi                             70.605411         993
 fftbas_plan_mpi                        70.604430         993
 set_charge                             65.764926          23
 augmentation_charge                    59.874758          24
 dfftw_execute                          47.855753        1032
 phaser                                 45.577169         871
 set_dd_paw                             44.972785          25
 m_sumb_d                               41.159650       73709
 fftwav_mpi                             21.015335       87074
 fftwav                                 20.892096       87074
 fft3d                                  19.207479      129469
 fordep                                 15.232976           1
 map_forward                            12.591802         960
 init_acc                               12.434661           1
 lapack                                 10.538699       22883
 map_backward                           10.070553        1026
 strnlr                                  9.695647           1
 map_scatter                             9.079804        1109
 redis_pw                                8.448800      118111
 map_gather                              7.865010        1109
 m_alltoallv_z                           5.681254        1109
 newband                                 4.687489       23585
 soft_charge                             3.940041          23
 eccp                                    3.268886       10530
 fornlr                                  3.220344           1
 rspher_all                              2.814841          14
 acc_init_cublas                         2.430754           1
 m_alltoall_d                            2.322674      309245
 redis_proj                              2.229824      150002
 rpro_isp                                2.127202         169
 potlok                                  1.979028          25
 rpromu_acc                              1.630810       18619
 pw_charge                               1.299659        6574
 brmix                                   1.178715          23
 densta                                  0.830059          28
 acc_init_cusolver                       0.804253           1
 proall                                  0.794231           1
 fft_gq                                  0.791149          23
 orth1                                   0.779058       68701
 kinhamil                                0.730984       42395
 racc0mu_acc                             0.664174       22883
 overl                                   0.663996       74286
 w1_copy                                 0.635998      127185
 m_bcast_z                               0.595466       24443
 fftext_mpi                              0.536311       42395
 w1_projall                              0.515567       17267
 m_bcast_d                               0.429249       45821
 setup_precond                           0.384990       10530
 setg0                                   0.383889          25
 overl_mu                                0.364159       22883
 broyd                                   0.325011          23
 ggemm                                   0.296213       28499
 orthch                                  0.275394           1
 vhamil                                  0.215371       42395
 apply_precond                           0.178854       31865
 depsum                                  0.176414          23
 acc_cufft_makeplans                     0.144067           3
 acc_cufft_makeplan                      0.144061          19
 brget                                   0.095216        1466
 stufak                                  0.088031           1
 sphpro_fast                             0.055345           2
 forhar                                  0.032370           2
 brsav                                   0.029248         372
 pothar                                  0.028852          26
 lincom                                  0.027438         728
 strelo                                  0.020673           1
 strehar                                 0.017998           1
 forloc                                  0.016254           1
 brpre                                   0.009389          46
 choleski                                0.007194          26
 truncate_high_frequency_w1              0.004442       52925
 inisym                                  0.004276           1
 chggra                                  0.003254           1
 brgrid                                  0.002071           1
 fewald                                  0.001008           1
 rsp                                     0.000582           1
 strkin                                  0.000479           1
 vectorpot                               0.000135          24
 set_dd_magatom                          0.000131          25
 posmap                                  0.000034           2
 crpa_reader                             0.000029           1
 rcp                                     0.000029           1
 potlok_metagga                          0.000002          24
 rotate_active_occupied_orbital          0.000001           1
 redis_pw_over_bands                     0.000000           1

Profiling took   0.286969  0.136104  0.003273  0.003147 seconds
Profiling took   0.174243 seconds