 vasp.6.3.2 27Jun22 (build Jul  3 2023 11:46:21) complex
 executed on    LinuxNV_CrayMPICH date 2024.04.22  03:39:02

 INCAR:
   ALGO = Normal
   EDIFF = 1e-05
   ENCUT = 520.0
   IBRION = -1
   ISIF = 3
   ISMEAR = -5
   ISPIN = 2
   LAECHG = True
   LASPH = True
   LCHARG = True
   LORBIT = 11
   LREAL = Auto
   LVHAR = True
   LWAVE = False
   MAGMOM = 1*7.0 3*0.6 8*5.0
   NELM = 1000
   NSW = 0
   PREC = Accurate
   SIGMA = 0.05

 POTCAR:    PAW_PBE Gd 23Dec2003
 POTCAR:    PAW_PBE Er_3 06Sep2000
 POTCAR:    PAW_PBE Mn_pv 02Aug2007
 POTCAR:    PAW_PBE Gd 23Dec2003
   VRHFIN =Gd : [core=Xe4]

   TITEL  = PAW_PBE Gd 23Dec2003
   POMASS =  157.250; ZVAL   =   18.000    mass and valenz
   ENMAX  =  256.472; ENMIN  =  192.354 eV

   TITEL  = PAW_PBE Er_3 06Sep2000
   POMASS =  167.260; ZVAL   =    9.000    mass and valenz
   ENMAX  =  155.037; ENMIN  =  116.278 eV

   TITEL  = PAW_PBE Mn_pv 02Aug2007
   POMASS =   54.938; ZVAL   =   13.000    mass and valenz
   ENMAX  =  269.864; ENMIN  =  202.398 eV

 Optimization of the real space projectors (new method)

 maximal supplied QI-value         = 13.42
 optimisation between [QCUT,QGAM] = [ 11.67, 23.35] = [ 38.16,152.62] Ry
 Optimized for a Real-space Cutoff    1.63 Angstroem

   l    n(q)    QCUT    max X(q) W(low)/X(q) W(high)/X(q)  e(spline)
   0     11    11.673    10.501    0.14E-04    0.17E-05    0.21E-07
   0     11    11.673     9.148    0.21E-04    0.32E-05    0.45E-07
   1     11    11.673     4.035    0.33E-05    0.11E-04    0.84E-07
   1     11    11.673     4.388    0.11E-04    0.47E-04    0.34E-06
   2     10    11.673    20.656    0.12E-04    0.28E-04    0.54E-06
   2     10    11.673    12.651    0.11E-04    0.26E-04    0.51E-06
   3     10    11.673    61.921    0.19E-03    0.22E-03    0.23E-06
   3     10    11.673    48.328    0.20E-03    0.23E-03    0.23E-06
 Optimization of the real space projectors (new method)

[...]

   l    n(q)    QCUT    max X(q) W(low)/X(q) W(high)/X(q)  e(spline)
   0     13    11.599    48.894    0.36E-04    0.44E-05    0.66E-06
   0     13    11.599    24.210    0.23E-04    0.40E-05    0.57E-06
   1     12    11.599    38.381    0.61E-05    0.13E-04    0.10E-05
   1     12    11.599    39.149    0.63E-05    0.14E-04    0.11E-05
   2     12    11.599   405.348    0.23E-03    0.44E-04    0.18E-05
   2     12    11.599   322.512    0.23E-03    0.44E-04    0.18E-05
 Optimization of the real space projectors (new method)

 maximal supplied QI-value         = 16.25
 optimisation between [QCUT,QGAM] = [ 11.54, 23.24] = [ 37.28,151.24] Ry
 Optimized for a Real-space Cutoff    1.45 Angstroem

   l    n(q)    QCUT    max X(q) W(low)/X(q) W(high)/X(q)  e(spline)
   1     10    11.539     3.658    0.56E-04    0.12E-03    0.13E-06
   1     10    11.539     5.612    0.11E-03    0.23E-03    0.24E-06
   2      9    11.539    55.373    0.45E-04    0.92E-04    0.22E-06
   2      9    11.539    50.863    0.47E-04    0.95E-04    0.22E-06
   0     10    11.539    79.536    0.46E-04    0.27E-04    0.11E-06
   0     10    11.539    38.668    0.38E-04    0.25E-04    0.10E-06
  PAW_PBE Gd 23Dec2003                  :
  PAW_PBE Er_3 06Sep2000                :
  PAW_PBE Mn_pv 02Aug2007               :

 POSCAR: Gd1 Er3 Mn8
  positions in direct lattice
 exchange correlation table for  LEXCH =        8
   RHO(1)=    0.500       N(1)  =     2000
   RHO(2)=  100.500       N(2)  =     4000

 VTST: version 4.2, (08/11/21)

 CHAIN: initializing optimizer

 OPT: Using VASP Dynamics algorithm
 CHAIN: Read ICHAIN             0

 POSCAR: Gd1 Er3 Mn8
  positions in direct lattice

 ion  position               nearest neighbor table
   1  0.667  0.333  0.563-  10 2.84  12 2.84   7 2.86   9 2.86  11 2.86   8 2.86   8 2.86   5 2.87
                             5 2.87   7 2.87   9 2.87   5 2.87   4 2.96   2 2.99   2 3.00   2 3.00
   2  0.333  0.667  0.437-   7 2.85   9 2.85  10 2.85  12 2.85   8 2.86  11 2.86  11 2.86   5 2.87
                             5 2.87  12 2.87  10 2.87   5 2.87   3 2.96   1 2.99   1 3.00   1 3.00
   3  0.333  0.667  0.063-   8 2.83   7 2.84   9 2.84  10 2.85  12 2.85  11 2.85  11 2.85   6 2.86
                            10 2.87  12 2.87   6 2.87   6 2.87   2 2.96   4 2.99   4 2.99   4 3.00
   4  0.667  0.333  0.937-  11 2.83  10 2.84  12 2.84   9 2.85   7 2.85   8 2.86   8 2.86   7 2.86
                             9 2.86   6 2.87   6 2.87   6 2.87   1 2.96   3 2.99   3 2.99   3 3.00
   5  0.000  1.000  0.500-  11 2.43   8 2.44  10 2.45  12 2.45   9 2.45   7 2.45   2 2.87   2 2.87
                             1 2.87   1 2.87   2 2.87   1 2.87
   6  1.000  0.000  0.001-  10 2.43  12 2.43   7 2.43   9 2.43  11 2.44   8 2.45   3 2.86   4 2.87
                             3 2.87   3 2.87   4 2.87   4 2.87
   7  0.168  0.337  0.751-   9 2.42   8 2.42   6 2.43   5 2.45   9 2.47   8 2.47   3 2.84   2 2.85
                             4 2.85   1 2.86   4 2.86   1 2.87
   8  0.168  0.832  0.751-   7 2.42   9 2.42   5 2.44   6 2.45   7 2.47   9 2.47   3 2.83   4 2.86
                             4 2.86   2 2.86   1 2.86   1 2.86
   9  0.663  0.832  0.751-   7 2.42   8 2.42   6 2.43   5 2.45   7 2.47   8 2.47   3 2.84   2 2.85
                             4 2.85   1 2.86   4 2.86   1 2.87
  10  0.831  0.663  0.249-  12 2.42  11 2.42   6 2.43   5 2.45  11 2.47  12 2.47   1 2.84   4 2.84
                             3 2.85   2 2.85   3 2.87   2 2.87
  11  0.831  0.169  0.249-  10 2.42  12 2.42   5 2.43   6 2.44  12 2.47  10 2.47   4 2.83   3 2.85
                             3 2.85   1 2.86   2 2.86   2 2.86
  12  0.337  0.169  0.249-  10 2.42  11 2.42   6 2.43   5 2.45  11 2.47  10 2.47   1 2.84   4 2.84
                             3 2.85   2 2.85   3 2.87   2 2.87

  LATTYP: Found a base centered monoclinic cell.
 ALAT       =     8.4746705812
 B/A-ratio  =     0.5771506931
 C/A-ratio  =     0.9338270142
 COS(beta)  =    -0.0080860975

  Lattice vectors:

 A1 = (   2.4455810000,  -4.2373010000,   0.0170470000)
 A2 = (  -2.4455810000,  -4.2373010000,   0.0170470000)
 A3 = (   0.0000000000,   0.0321550000,  -7.9138110000)

Analysis of symmetry for initial positions (statically):
 Subroutine PRICEL returns:
 Original cell was already a primitive cell.

 Routine SETGRP: Setting up the symmetry group for a
 base centered monoclinic supercell.

 Subroutine GETGRP returns: Found  2 space group operations
 (whereof  2 operations were pure point group operations)
 out of a pool of  4 trial point group operations.

The static configuration has the point symmetry C_1h.

Analysis of symmetry for dynamics (positions and initial velocities):
 Subroutine PRICEL returns:
 Original cell was already a primitive cell.

[...]

The dynamic configuration has the point symmetry C_1h.

Analysis of structural, dynamic, and magnetic symmetry:
 Subroutine PRICEL returns:
 Original cell was already a primitive cell.

 Routine SETGRP: Setting up the symmetry group for a
 base centered monoclinic supercell.

 Subroutine GETGRP returns: Found  2 space group operations
 (whereof  2 operations were pure point group operations)
 out of a pool of  4 trial point group operations.

The overall configuration has the point symmetry C_1h.

 Subroutine INISYM returns: Found  2 space group operations
 (whereof  2 operations are pure point group operations),
 and found     1 'primitive' translations

                                     Primitive cell

  volume of cell :     164.0136

  direct lattice vectors                    reciprocal lattice vectors
    -2.445581000 -4.237301000  0.017047000    -0.204450394 -0.118001571 -0.000479458
    -2.445581000  4.237301000 -0.017047000    -0.204450394  0.118001571  0.000479458
     0.000000000  0.032155000 -7.913811000    -0.000000000 -0.000508370 -0.126363436

  length of vectors
     4.892430561  4.892430561  7.913876325     0.236060510  0.236060510  0.126364458

  position of ions in fractional coordinates (direct lattice)
     0.666675000  0.333325000  0.562661000
     0.333383000  0.666617000  0.436861000
     0.333371000  0.666629000  0.063102000
     0.666648000  0.333352000  0.937045000
     0.000046000  0.999954000  0.499701000
     0.999985000  0.000015000  0.000547000
     0.168457000  0.336768000  0.750878000
     0.168445000  0.831555000  0.750813000
     0.663232000  0.831543000  0.750878000
     0.831295000  0.662987000  0.249182000
     0.831449000  0.168551000  0.249150000
     0.337013000  0.168705000  0.249182000

  ion indices of the primitive-cell ions
   primitive index   ion index
                 1           1
                 2           2
                 3           3
                 4           4
                 5           5
                 6           6
                 7           7
                 8           8
                 9           9
                10          10
                11          11
                12          12

 KPOINTS: Kpoints from vasprun.xml

Automatic generation of k-mesh.
 Grid dimensions read from file:
 generate k-points for:    6    6    3

 Generating k-lattice:

  Cartesian coordinates                     Fractional coordinates (reciprocal lattice)
    -0.034075066 -0.019666928 -0.000079910     0.166666667  0.000000000  0.000000000
    -0.034075066  0.019666928  0.000079910     0.000000000  0.166666667 -0.000000000
    -0.000000000 -0.000169457 -0.042121145     0.000000000 -0.000000000  0.333333333

  Length of vectors
     0.039343418  0.039343418  0.042121486

  Shift w.r.t. Gamma in fractional coordinates (k-lattice)
     0.000000000  0.000000000  0.000000000

 TETIRR: Found    165 inequivalent tetrahedra from      648

 Subroutine IBZKPT returns following result:

 Found     34 irreducible k-points:

 Following reciprocal coordinates:
            Coordinates               Weight
  0.000000  0.000000  0.000000      1.000000
  0.166667  0.000000  0.000000      4.000000
  0.333333  0.000000  0.000000      4.000000
  0.500000  0.000000  0.000000      2.000000
  0.166667  0.166667  0.000000      2.000000
  0.333333  0.166667  0.000000      4.000000
  0.500000  0.166667  0.000000      4.000000
 -0.333333  0.166667  0.000000      4.000000
 -0.166667  0.166667  0.000000      2.000000
  0.333333  0.333333  0.000000      2.000000
  0.500000  0.333333  0.000000      4.000000
 -0.333333  0.333333  0.000000      2.000000
  0.500000  0.500000  0.000000      1.000000
  0.000000  0.000000  0.333333      2.000000
  0.166667  0.000000  0.333333      4.000000
  0.333333  0.000000  0.333333      4.000000
  0.500000  0.000000  0.333333      4.000000
 -0.333333  0.000000  0.333333      4.000000
 -0.166667  0.000000  0.333333      4.000000
  0.166667  0.166667  0.333333      4.000000
  0.333333  0.166667  0.333333      4.000000
  0.500000  0.166667  0.333333      4.000000
 -0.333333  0.166667  0.333333      4.000000
 -0.166667  0.166667  0.333333      2.000000
  0.166667  0.333333  0.333333      4.000000
  0.333333  0.333333  0.333333      4.000000
  0.500000  0.333333  0.333333      4.000000
 -0.333333  0.333333  0.333333      2.000000
  0.166667  0.500000  0.333333      4.000000
  0.333333  0.500000  0.333333      4.000000
[...]
  239          fft3d_mpi                             0.000448                          3   4
  240            fftbrc_mpi                            0.000353                        3   5
  241              fftbas_plan_mpi                       0.000352                      3   6
  242                map_forward                           0.000170                    4   7
  243                  map_gather                            0.000040                  2   8
  244                  m_alltoallv_z                         0.000024                  2   8
  245                  map_scatter                           0.000076                  2   8
  246                map_backward                          0.000096                    2   7
  247                  map_gather                            0.000019                  1   8
  248                  m_alltoallv_z                         0.000010                  1   8
  249                  map_scatter                           0.000052                  1   8
  250          m_sumb_d                              0.000009                          2   4
  251          pothar                                0.000072                          1   4
  252            m_sumb_d                              0.000004                        1   5
  253        brmix                                 0.005850                            1   3
  254          m_sumb_d                              0.000037                          6   4
  255          brpre                                 0.000020                          2   4
  256          setg0                                 0.000540                          1   4
  257          broyd                                 0.004604                          1   4
  258            m_sumb_d                              0.000262                       49   5
  259            brget                                 0.000888                      219   5
  260            brsav                                 0.000188                       47   5
  261        m_bcast_d                             0.000023                            2   3
  262      potlok                                0.021243                              2   2
  263        fft3d_mpi                             0.013738                           36   3
  264          fftbrc_mpi                            0.011546                         36   4
  265            fftbas_plan_mpi                       0.011532                       36   5
  266              map_forward                           0.003354                     40   6
  267                map_gather                            0.001184                   24   7
  268                m_alltoallv_z                         0.001006                   24   7
  269                map_scatter                           0.000980                   24   7
  270              map_backward                          0.002900                     32   6
  271                map_gather                            0.000945                   16   7
  272                m_alltoallv_z                         0.000911                   16   7
  273                map_scatter                           0.000872                   16   7
  274              dfftw_execute                         0.003701                     30   6
  275        m_sumb_d                              0.000027                            5   3
  276        pothar                                0.000811                            2   3
  277          m_sumb_d                              0.000038                          2   4
  278        m_bcast_d                             0.001342                            4   3
  279      potlok_metagga                        0.000000                              1   2
  280      set_dd_magatom                        0.000003                              1   2
  281      set_dd_paw                            1.871127                              1   2
  282        m_sumb_d                              0.437690                            7   3
  283      augmentation_charge                   0.010165                              1   2
  284        fft3d_mpi                             0.002264                            2   3
  285          fftbrc_mpi                            0.001893                          2   4
  286            fftbas_plan_mpi                       0.001890                        2   5
  287              dfftw_execute                         0.000845                      6   6
  288              map_backward                          0.000881                      4   6
  289                map_gather                            0.000346                    2   7
  290                m_alltoallv_z                         0.000300                    2   7
  291                map_scatter                           0.000231                    2   7
  292      densta                                5.861985                              1   2

 Flat profile

 lapack                                283.929191      592070
 eddav                                 282.566602         152
 m_sumb_d                              246.282574     1799040
 raccmu_                               231.843963      592070
 set_dd_paw                            216.594181         150
 redis_pw                              129.124866     3129052
 m_alltoall_d                           57.768499     8261576
 phaser                                 33.885356       10778
 densta                                 28.152642         153
 eccp                                   27.535722      299744
 redis_proj                             26.183712     3965372
 fft3d                                  24.594216     3326399
 fftwav                                 20.208855     2190403
 orth1                                  18.777139     1776482
 racc0mu_acc                            17.098966      592070
 w1_copy                                16.618386     3407988
 overl                                  16.318619     1972316
 rpromu_acc                             13.937579      444102
 hamiltmu                               13.047703      592070
 m_bcast_z                              12.604122      599958
 soft_charge                            12.517765         148
 init_acc                               11.954748           1
 setup_precond                          10.816819      299744
 m_bcast_d                               9.682661     1184445
 overl_mu                                9.068132      592070
 ggemm                                   7.889483      747110
 total_time                              7.373610           1
 vhamil                                  5.257958     1135996
 kinhamil                                5.194888     1135996
 pw_charge                               4.985948      192519
 depsum                                  4.809884         148
 fftext_mpi                              4.807694     1135996
 apply_precond                           4.602023      836252
 newband                                 4.583902      602406
 fftwav_mpi                              2.881639     2190403
 acc_init_cublas                         2.467805           1
 setdij_                                 1.302997         176
 rpro_isp                                1.272690         442
 augmentation_charge                     1.165965         149
 set_charge                              0.810600         148
 acc_init_cusolver                       0.788481           1
 fft3d_mpi                               0.550806     1140515
 potlok                                  0.427652         150
 w1_projall                              0.413517      437030
 broyd                                   0.398045         148
 lincom                                  0.388049       10404
 elmin                                   0.267861           1
 m_alltoallv_z                           0.262441        5115
 sphpro_fast                             0.233964           2
 rspher_all                              0.209943          14
 map_scatter                             0.209184        5115
 dfftw_execute                           0.178069        1860
 fftbas_plan_mpi                         0.166507        4519
 map_gather                              0.159933        5115
 acc_cufft_makeplan                      0.134626          19
 brget                                   0.119004       30348
 truncate_high_frequency_w1              0.114552     1435740
 brmix                                   0.096240         148
 setg0                                   0.082351         150
 proall                                  0.066946           1
 orthch                                  0.034037           1
 brsav                                   0.032291        8539
 map_backward                            0.027347        4810
 map_forward                             0.026476        4228
 choleski                                0.020997          68
 force_and_stress                        0.017348           1
 pothar                                  0.011721         151
 strnlr                                  0.009753           1
 inisym                                  0.004339           1
 fft_gq                                  0.003738         148
 stufak                                  0.003616           1
 fornlr                                  0.003365           1
 brpre                                   0.003012         296
 fftbrc_mpi                              0.002231        4519
 strelo                                  0.001416           1
 forhar                                  0.001261           2
 strkin                                  0.001075           1
 strehar                                 0.000926           1
 forloc                                  0.000663           1
 vectorpot                               0.000630         149
 set_dd_magatom                          0.000599         150
 fewald                                  0.000338           1
 chggra                                  0.000231           1
 rsp                                     0.000194           1
 brgrid                                  0.000135           1
 fordep                                  0.000045           1
 crpa_reader                             0.000028           1
 rcp                                     0.000019           1
 potlok_metagga                          0.000017         149
 posmap                                  0.000017           2
 acc_cufft_makeplans                     0.000009           3
 rotate_active_occupied_orbital          0.000000           1
 redis_pw_over_bands                     0.000000           1
  summed up times     1835.996150016785

 Accumulative profile

 total_time                           1835.996150           1
 elmin                                1794.675787           1
 eddav                                1459.230206         152
 hamiltmu                              294.617096      592070
 lapack                                283.929191      592070
 set_dd_paw                            282.737396         150
 raccmu_                               258.011061      592070
 m_sumb_d                              246.282574     1799040
 redis_pw                              157.520719     3129052
 newband                                66.341127      602406
 m_alltoall_d                           57.768499     8261576
 redis_proj                             55.556359     3965372
 fftwav_mpi                             39.718677     2190403
 fftwav                                 36.837038     2190403
 phaser                                 33.885356       10778
 set_charge                             31.040091         148
 densta                                 28.152642         153
 eccp                                   27.535722      299744
 fft3d                                  24.594216     3326399
 soft_charge                            23.775495         148
 orth1                                  18.777139     1776482
 kinhamil                               18.300375     1135996
 racc0mu_acc                            17.098966      592070
 w1_copy                                16.618386     3407988
 overl                                  16.318619     1972316
 rpromu_acc                             13.937579      444102
 fftext_mpi                             13.105486     1135996
 w1_projall                             12.934888      437030
 m_bcast_z                              12.604122      599958
 init_acc                               11.954748           1
 setup_precond                          10.816819      299744
 m_bcast_d                               9.682661     1184445
 fft3d_mpi                               9.549027     1140515
 overl_mu                                9.068132      592070
 ggemm                                   7.889483      747110
 force_and_stress                        7.181271           1
 vhamil                                  5.257958     1135996
 pw_charge                               4.985948      192519
 depsum                                  4.831474         148
 apply_precond                           4.602023      836252
 strnlr                                  3.654444           1
 rpro_isp                                3.451768         442
 acc_init_cublas                         2.467805           1
 augmentation_charge                     1.502575         149
 setdij_                                 1.337729         176
 fornlr                                  1.215529           1
 potlok                                  1.175422         150
 fftbrc_mpi                              1.032189        4519
 fftbas_plan_mpi                         1.029958        4519
 acc_init_cusolver                       0.788481           1
 brmix                                   0.772006         148
 broyd                                   0.586093         148
 orthch                                  0.455268           1
 lincom                                  0.388049       10404
 map_backward                            0.359050        4810
 map_forward                             0.326332        4228
 proall                                  0.272122           1
 m_alltoallv_z                           0.262441        5115
 sphpro_fast                             0.242001           2
 rspher_all                              0.209943          14
 map_scatter                             0.209184        5115
 dfftw_execute                           0.178069        1860
 fft_gq                                  0.164049         148
 map_gather                              0.159933        5115
 acc_cufft_makeplans                     0.134635           3
 acc_cufft_makeplan                      0.134626          19
 brget                                   0.119004       30348
 truncate_high_frequency_w1              0.114552     1435740
 setg0                                   0.082351         150
 fordep                                  0.045052           1
 brsav                                   0.032291        8539
 choleski                                0.020997          68
 pothar                                  0.012951         151
 inisym                                  0.004356           1
 stufak                                  0.003616           1
 brpre                                   0.003012         296
 strelo                                  0.001426           1
 forhar                                  0.001305           2
 strkin                                  0.001088           1
 strehar                                 0.000935           1
 chggra                                  0.000760           1
 forloc                                  0.000683           1
 vectorpot                               0.000630         149
 fewald                                  0.000627           1
 set_dd_magatom                          0.000599         150
 rsp                                     0.000194           1
 brgrid                                  0.000135           1
 crpa_reader                             0.000028           1
 rcp                                     0.000019           1
 potlok_metagga                          0.000017         149
 posmap                                  0.000017           2
 rotate_active_occupied_orbital          0.000000           1
 redis_pw_over_bands                     0.000000           1

Profiling took   7.033705  3.448803  0.003395  0.003321 seconds
Profiling took   4.425928 seconds