 vasp.6.3.2 27Jun22 (build Jul  3 2023 11:46:21) complex
 executed on    LinuxNV_CrayMPICH date 2024.04.19  17:32:21

 INCAR:
   ADDGRID = True
   ALGO = Fast
   EDIFF = 5e-05
   ENCUT = 520.0
   IBRION = -1
   ISIF = 3
   ISMEAR = -5
   ISPIN = 2
   LAECHG = True
   LASPH = True
   LCHARG = True
   LORBIT = 11
   LREAL = Auto
   LVHAR = True
   LWAVE = False
   MAGMOM = 1*7.0 5*0.6
   NELM = 1000
   NSW = 0
   PREC = Accurate
   SIGMA = 0.05

 POTCAR:    PAW_PBE Gd 23Dec2003
 POTCAR:    PAW_PBE B 06Sep2000
 POTCAR:    PAW_PBE Rh_pv 25Jan2005
 POTCAR:    PAW_PBE C 08Apr2002
 POTCAR:    PAW_PBE Gd 23Dec2003
   VRHFIN =Gd : [core=Xe4]

   TITEL  = PAW_PBE Gd 23Dec2003
   POMASS =  157.250; ZVAL   =   18.000    mass and valenz
   ENMAX  =  256.472; ENMIN  =  192.354 eV

   TITEL  = PAW_PBE B 06Sep2000
   POMASS =   10.811; ZVAL   =    3.000    mass and valenz
   ENMAX  =  318.614; ENMIN  =  238.960 eV

   TITEL  = PAW_PBE Rh_pv 25Jan2005
   POMASS =  102.906; ZVAL   =   15.000    mass and valenz
   ENMAX  =  247.408; ENMIN  =  185.556 eV

   TITEL  = PAW_PBE C 08Apr2002
   POMASS =   12.011; ZVAL   =    4.000    mass and valenz
   ENMAX  =  400.000; ENMIN  =  300.000 eV

 Optimization of the real space projectors (new method)

 maximal supplied QI-value         = 13.42
 optimisation between [QCUT,QGAM] = [ 11.67, 23.35] = [ 38.16,152.62] Ry
 Optimized for a Real-space Cutoff    1.63 Angstroem

   l    n(q)    QCUT    max X(q) W(low)/X(q) W(high)/X(q)  e(spline)
   0     11    11.673    10.501    0.14E-04    0.17E-05    0.21E-07
   0     11    11.673     9.148    0.21E-04    0.32E-05    0.45E-07
   1     11    11.673     4.035    0.33E-05    0.11E-04    0.84E-07
   1     11    11.673     4.388    0.11E-04    0.47E-04    0.34E-06
   2     10    11.673    20.656    0.12E-04    0.28E-04    0.54E-06
   2     10    11.673    12.651    0.11E-04    0.26E-04    0.51E-06
   3     10    11.673    61.921    0.19E-03    0.22E-03    0.23E-06
   3     10    11.673    48.328    0.20E-03    0.23E-03    0.23E-06
 Optimization of the real space projectors (new method)

[...]

   l    n(q)    QCUT    max X(q) W(low)/X(q) W(high)/X(q)  e(spline)
   1     10    11.607     3.143    0.27E-04    0.48E-04    0.10E-06
   1     10    11.607     5.034    0.71E-04    0.17E-03    0.32E-06
   2      9    11.607    64.180    0.22E-03    0.59E-04    0.28E-06
   2      9    11.607    61.342    0.22E-03    0.61E-04    0.29E-06
   0     10    11.607    55.593    0.52E-04    0.32E-04    0.17E-06
   0     10    11.607    26.178    0.47E-04    0.29E-04    0.15E-06
 Optimization of the real space projectors (new method)

 maximal supplied QI-value         = 25.13
 optimisation between [QCUT,QGAM] = [ 11.56, 23.12] = [ 37.43,149.72] Ry
 Optimized for a Real-space Cutoff    1.04 Angstroem

   l    n(q)    QCUT    max X(q) W(low)/X(q) W(high)/X(q)  e(spline)
   0      7    11.561   115.676    0.20E-03    0.60E-03    0.21E-06
   0      7    11.561    87.132    0.20E-03    0.59E-03    0.21E-06
   1      7    11.561     4.429    0.23E-03    0.35E-03    0.15E-06
   1      7    11.561     2.733    0.18E-03    0.25E-03    0.12E-06
  PAW_PBE Gd 23Dec2003                  :
  PAW_PBE B 06Sep2000                   :
  PAW_PBE Rh_pv 25Jan2005               :
  PAW_PBE C 08Apr2002                   :

 POSCAR: Gd1 B2 Rh2 C1
  positions in direct lattice
 exchange correlation table for  LEXCH =        8
   RHO(1)=    0.500       N(1)  =     2000
   RHO(2)=  100.500       N(2)  =     4000

 VTST: version 4.2, (08/11/21)

 CHAIN: initializing optimizer

 OPT: Using VASP Dynamics algorithm
 CHAIN: Read ICHAIN             0

 POSCAR: Gd1 B2 Rh2 C1
  positions in direct lattice

 ion  position               nearest neighbor table
   1  0.000  0.000  0.000-   6 2.70   6 2.70   6 2.70   6 2.70   5 3.22   4 3.22   5 3.22   4 3.22
                             5 3.22   5 3.22   4 3.22   4 3.22
   2  0.356  0.356  0.000-   6 1.50   5 2.20   4 2.20   5 2.20   4 2.20
   3  0.644  0.644  0.000-   6 1.50   5 2.20   4 2.20   4 2.20   5 2.20
   4  0.250  0.750  0.500-   2 2.20   3 2.20   3 2.20   2 2.20   5 2.70   5 2.70   5 2.70   5 2.70
                             1 3.22   1 3.22   1 3.22   1 3.22
   5  0.750  0.250  0.500-   2 2.20   2 2.20   3 2.20   3 2.20   4 2.70   4 2.70   4 2.70   4 2.70
                             1 3.22   1 3.22   1 3.22   1 3.22
   6  0.500  0.500  0.000-   2 1.50   3 1.50   1 2.70   1 2.70   1 2.70   1 2.70

  LATTYP: Found a body centered tetragonal cell.
 ALAT       =     3.8202660000
 C/A-ratio  =     2.7146900242

  Lattice vectors:

 A1 = (  -1.9101330000,   1.9101330000,   5.1854190000)
 A2 = (   1.9101330000,  -1.9101330000,   5.1854190000)
 A3 = (   1.9101330000,   1.9101330000,  -5.1854190000)

Analysis of symmetry for initial positions (statically):
 Subroutine PRICEL returns:
 Original cell was already a primitive cell.

 Routine SETGRP: Setting up the symmetry group for a
 body centered tetragonal supercell.

 Subroutine GETGRP returns: Found 16 space group operations
 (whereof 16 operations were pure point group operations)
 out of a pool of 16 trial point group operations.

The static configuration has the point symmetry D_4h.

Analysis of symmetry for dynamics (positions and initial velocities):
 Subroutine PRICEL returns:
 Original cell was already a primitive cell.

[...]

The dynamic configuration has the point symmetry D_4h.

Analysis of structural, dynamic, and magnetic symmetry:
 Subroutine PRICEL returns:
 Original cell was already a primitive cell.

 Routine SETGRP: Setting up the symmetry group for a
 body centered tetragonal supercell.

 Subroutine GETGRP returns: Found 16 space group operations
 (whereof 16 operations were pure point group operations)
 out of a pool of 16 trial point group operations.

The overall configuration has the point symmetry D_4h.

 Subroutine INISYM returns: Found 16 space group operations
 (whereof 16 operations are pure point group operations),
 and found     1 'primitive' translations

                                     Primitive cell

  volume of cell :      75.6782

  direct lattice vectors                    reciprocal lattice vectors
    -1.910133000  1.910133000  5.185419000    -0.000000000  0.261761877  0.096424223
     1.910133000 -1.910133000  5.185419000     0.261761877 -0.000000000  0.096424223
     1.910133000  1.910133000 -5.185419000     0.261761877  0.261761877 -0.000000000

  length of vectors
     5.846861240  5.846861240  5.846861240     0.278956827  0.278956827  0.370187197

  position of ions in fractional coordinates (direct lattice)
     0.000000000  0.000000000  0.000000000
     0.355525000  0.355525000  1.000000000
     0.644475000  0.644475000  1.000000000
     0.250000000  0.750000000  0.500000000
     0.750000000  0.250000000  0.500000000
     0.500000000  0.500000000  1.000000000

  ion indices of the primitive-cell ions
   primitive index   ion index
                 1           1
                 2           2
                 3           3
                 4           4
                 5           5
                 6           6

 KPOINTS: Kpoints from vasprun.xml

Automatic generation of k-mesh.
 Grid dimensions read from file:
 generate k-points for:    6    6    6

 Generating k-lattice:

  Cartesian coordinates                     Fractional coordinates (reciprocal lattice)
    -0.000000000  0.043626980  0.016070704     0.166666667 -0.000000000  0.000000000
     0.043626980 -0.000000000  0.016070704    -0.000000000  0.166666667  0.000000000
     0.043626980  0.043626980 -0.000000000     0.000000000 -0.000000000  0.166666667

  Length of vectors
     0.046492804  0.046492804  0.061697866

  Shift w.r.t. Gamma in fractional coordinates (k-lattice)
     0.500000000  0.500000000  0.500000000

 TETIRR: Found    278 inequivalent tetrahedra from     1296

 Subroutine IBZKPT returns following result:

 Found     28 irreducible k-points:

 Following reciprocal coordinates:
            Coordinates               Weight
  0.083333  0.083333  0.083333      8.000000
  0.250000  0.083333  0.083333     16.000000
  0.416667  0.083333  0.083333      8.000000
 -0.083333  0.083333  0.083333      4.000000
  0.250000  0.250000  0.083333      8.000000
  0.416667  0.250000  0.083333     16.000000
 -0.416667  0.250000  0.083333      8.000000
 -0.250000  0.250000  0.083333      8.000000
 -0.083333  0.250000  0.083333      8.000000
  0.416667  0.416667  0.083333      4.000000
 -0.416667  0.416667  0.083333      8.000000
 -0.250000  0.416667  0.083333     16.000000
 -0.083333  0.416667  0.083333      8.000000
 -0.416667 -0.416667  0.083333      8.000000
 -0.250000 -0.416667  0.083333     16.000000
 -0.083333 -0.416667  0.083333      8.000000
 -0.250000 -0.250000  0.083333      8.000000
 -0.083333 -0.250000  0.083333      8.000000
 -0.083333 -0.083333  0.083333      2.000000
  0.250000  0.250000  0.250000      2.000000
 -0.250000  0.250000  0.250000      4.000000
 -0.416667  0.416667  0.250000      8.000000
 -0.250000  0.416667  0.250000      8.000000
 -0.416667 -0.416667  0.250000      8.000000
 -0.250000 -0.416667  0.250000      8.000000
 -0.250000 -0.250000  0.250000      2.000000
 -0.416667  0.416667  0.416667      4.000000
 -0.416667 -0.416667  0.416667      2.000000

 Following cartesian coordinates:
            Coordinates               Weight
  0.043627  0.043627  0.016071      8.000000
  0.043627  0.087254  0.032141     16.000000
  0.043627  0.130881  0.048212      8.000000
  0.043627  0.000000  0.000000      4.000000
  0.087254  0.087254  0.048212      8.000000
  0.087254  0.130881  0.064283     16.000000
  0.087254 -0.087254 -0.016071      8.000000
  0.087254 -0.043627  0.000000      8.000000
  0.087254  0.000000  0.016071      8.000000
  0.130881  0.130881  0.080354      4.000000
  0.130881 -0.087254  0.000000      8.000000
  0.130881 -0.043627  0.016071     16.000000
  0.130881  0.000000  0.032141      8.000000
 -0.087254 -0.087254 -0.080354      8.000000
 -0.087254 -0.043627 -0.064283     16.000000
 -0.087254  0.000000 -0.048212      8.000000
 -0.043627 -0.043627 -0.048212      8.000000
 -0.043627  0.000000 -0.032141      8.000000
  0.000000  0.000000 -0.016071      2.000000
  0.130881  0.130881  0.048212      2.000000
  0.130881  0.000000  0.000000      4.000000
  0.174508 -0.043627  0.000000      8.000000
  0.174508  0.000000  0.016071      8.000000
 -0.043627 -0.043627 -0.080354      8.000000
 -0.043627  0.000000 -0.064283      8.000000
  0.000000  0.000000 -0.048212      2.000000
  0.218135  0.000000  0.000000      4.000000
  0.000000  0.000000 -0.080354      2.000000

 SYSTEM =  unknown system
 POSCAR =  Gd1 B2 Rh2 C1

 Startparameter for this run:
   NWRITE =      2    write-flag & timer
   PREC   = accura    normal or accurate (medium, high low for compatibility)
   ISTART =      0    job   : 0-new  1-cont  2-samecut
   ICHARG =      2    charge: 1-file 2-atom 10-const
   ISPIN  =      2    spin polarized calculation?
   LNONCOLLINEAR =      F non collinear calculations
   LSORBIT =      F    spin-orbit coupling
   INIWAV =      1    electr: 0-lowe 1-rand  2-diag
   LASPH  =      T    aspherical Exc in radial PAW
 Electronic Relaxation 1
[...]
  382            brsav                                 0.000089                       29   5
  383        m_bcast_d                             0.000021                            2   3
  384      potlok                                0.029498                              2   2
  385        fft3d_mpi                             0.019309                           36   3
  386          fftbrc_mpi                            0.015760                         36   4
  387            fftbas_plan_mpi                       0.015739                       36   5
  388              map_forward                           0.004499                     40   6
  389                map_gather                            0.001455                   24   7
  390                m_alltoallv_z                         0.001515                   24   7
  391                map_scatter                           0.001344                   24   7
  392              map_backward                          0.003757                     32   6
  393                map_gather                            0.001231                   16   7
  394                m_alltoallv_z                         0.001162                   16   7
  395                map_scatter                           0.001173                   16   7
  396              dfftw_execute                         0.005745                     30   6
  397        m_sumb_d                              0.000028                            5   3
  398        pothar                                0.001115                            2   3
  399          m_sumb_d                              0.000076                          2   4
  400        m_bcast_d                             0.001811                            4   3
  401      potlok_metagga                        0.000000                              1   2
  402      set_dd_magatom                        0.000004                              1   2
  403      set_dd_paw                            1.396847                              1   2
  404        m_sumb_d                              0.926144                            7   3
  405      augmentation_charge                   0.137477                              1   2
  406        fft3d_mpi                             0.032035                            2   3
  407          fftbrc_mpi                            0.028105                          2   4
  408            fftbas_plan_mpi                       0.028104                        2   5
  409              dfftw_execute                         0.018806                      6   6
  410              map_backward                          0.009036                      4   6
  411                map_gather                            0.002300                    2   7
  412                m_alltoallv_z                         0.004236                    2   7
  413                map_scatter                           0.002492                    2   7
  414      densta                                0.909146                              1   2

 Flat profile

 m_sumb_d                               30.926826       21258
 raccmu_                                18.639734       16633
 set_dd_paw                             12.665515          27
 init_acc                               10.810679           1
 total_time                             10.356755           1
 phaser                                  7.316268        1988
 eccp                                    5.356396       66779
 setdij_                                 5.309930          53
 acc_init_cublas                         3.625818           1
 densta                                  3.509160          30
 w1_gemv                                 3.134239      132798
 i2                                      2.982245       11388
 eccp_nl                                 2.799934       50539
 augmentation_charge                     2.719026          26
 eddav                                   2.520071           5
 lapack                                  2.400409        5245
 redis_pw                                2.096194       38750
 dfftw_execute                           1.936223        1020
 eddrmm                                  1.788865          24
 eddiag                                  1.664081          24
 m_alltoall_d                            1.513716      226870
 cnorma                                  1.322200       50539
 fft3d                                   1.155763      162301
 overl1                                  1.098076       66399
 acc_init_cusolver                       1.041074           1
 fftwav                                  1.036157      100792
 rpromu_acc                              0.890416       17417
 soft_charge                             0.805028          25
 w1_copy                                 0.749108      144205
 m_alltoallv_z                           0.689921        1145
 w1_dscal                                0.658348      109749
 hamilt_local                            0.606984       13440
 setup_precond                           0.578886       16240
 apply_precond                           0.546061      120266
 racc0mu_acc                             0.537778       16633
 w1_gaxpy                                0.505082       99375
 newband                                 0.501815       18257
 redis_proj                              0.478364       45152
 rpro_isp                                0.457845         364
 hamiltmu                                0.414103       16633
 w1_daxpy                                0.402596       74676
 w1_dot                                  0.362878       13201
 fft3d_mpi                               0.324887       62550
 map_scatter                             0.307415        1145
 pw_charge                               0.303288       11114
 acc_cufft_makeplan                      0.300973          19
 orth1                                   0.292145       21223
 kinhamil                                0.267102       61509
 vhamil                                  0.264569       61509
 map_gather                              0.261537        1145
 overl_mu                                0.253460       16633
 fftext_mpi                              0.248571       61509
 rspher_all                              0.231766          14
 depsum                                  0.222067          25
 orthch                                  0.208038          25
 set_charge                              0.200664          25
 zhegv                                   0.200231       24137
 choleski                                0.180568        1400
 overl                                   0.178218       20924
 m_bcast_z                               0.160389        7485
 fftwav_mpi                              0.138105      100792
 potlok                                  0.106369          27
 i3                                      0.100424       11388
 m_bcast_d                               0.089298       10549
 fftbas_plan_mpi                         0.074656        1041
 ggemm                                   0.069035        6645
 elmin                                   0.063257           1
 lincom                                  0.057101        3024
 proall                                  0.044835           1
 sphpro_fast                             0.043555           2
 brmix                                   0.024453          25
 setg0                                   0.019841          27
 w1_projall                              0.014417       15233
 broyd                                   0.013039          25
 i1                                      0.012088       11388
 force_and_stress                        0.009166           1
 strnlr                                  0.007727           1
 map_backward                            0.005733        1086
 map_forward                             0.005205         996
 brget                                   0.004949        1719
 truncate_high_frequency_w1              0.004799       64309
 inisym                                  0.004337           1
 stufak                                  0.003389           1
 pothar                                  0.002969          28
 fornlr                                  0.002652           1
 forhar                                  0.002552           2
 strelo                                  0.001705           1
 fft_gq                                  0.001408          25
 forloc                                  0.001321           1
 brsav                                   0.001276         429
 strehar                                 0.001247           1
 fftbrc_mpi                              0.000682        1041
 brpre                                   0.000496          50
 fewald                                  0.000326           1
 strkin                                  0.000289           1
 chggra                                  0.000234           1
 shift_bands_between_low_high            0.000194        1344
 brgrid                                  0.000160           1
 set_dd_magatom                          0.000124          27
 rsp                                     0.000117           1
 vectorpot                               0.000110          26
 fordep                                  0.000067           1
 crpa_reader                             0.000026           1
 posmap                                  0.000025           2
 rcp                                     0.000014           1
 acc_cufft_makeplans                     0.000009           3
 potlok_metagga                          0.000001          26
 rotate_active_occupied_orbital          0.000000           1
 redis_pw_over_bands                     0.000000           1
  summed up times     154.2502319812775

 Accumulative profile

 total_time                            154.250232           1
 elmin                                 116.649216           1
 eddrmm                                 47.397570          24
 set_dd_paw                             37.841546          27
 m_sumb_d                               30.926826       21258
 hamiltmu                               20.809808       16633
 raccmu_                                19.430971       16633
 eddav                                  16.630211           5
 init_acc                               10.810679           1
 i2                                      9.845704       11388
 i3                                      9.167664       11388
 force_and_stress                        7.882693           1
 setdij_                                 7.558591          53
 phaser                                  7.316268        1988
 set_charge                              5.446061          25
 eccp                                    5.356396       66779
 w1_gemv                                 4.232315      132798
 cnorma                                  4.122133       50539
 eddiag                                  4.057952          24
 fft3d_mpi                               4.022039       62550
 acc_init_cublas                         3.625818           1
 augmentation_charge                     3.584266          26
 densta                                  3.509160          30
 fftbrc_mpi                              3.281372        1041
 fftbas_plan_mpi                         3.280690        1041
 newband                                 2.972690       18257
 eccp_nl                                 2.799934       50539
 redis_pw                                2.757524       38750
 lapack                                  2.400409        5245
 dfftw_execute                           1.936223        1020
 fftwav_mpi                              1.914245      100792
 strnlr                                  1.898972           1
 orthch                                  1.894969          25
 fftwav                                  1.776140      100792
 soft_charge                             1.540197          25
 m_alltoall_d                            1.513716      226870
 redis_proj                              1.330750       45152
 fft3d                                   1.155763      162301
 overl1                                  1.098076       66399
 rpro_isp                                1.079248         364
 acc_init_cusolver                       1.041074           1
 kinhamil                                0.949430       61509
 rpromu_acc                              0.890416       17417
 fordep                                  0.856679           1
 hamilt_local                            0.856249       13440
 map_forward                             0.786853         996
 w1_copy                                 0.749108      144205
 m_alltoallv_z                           0.689921        1145
 fftext_mpi                              0.682328       61509
 w1_dscal                                0.658348      109749
 fornlr                                  0.631053           1
 setup_precond                           0.578886       16240
 apply_precond                           0.546061      120266
 racc0mu_acc                             0.537778       16633
 w1_gaxpy                                0.505082       99375
 w1_projall                              0.502894       15233
 map_backward                            0.482957        1086
 potlok                                  0.426187          27
 w1_daxpy                                0.402596       74676
 w1_dot                                  0.362878       13201
 map_scatter                             0.307415        1145
 pw_charge                               0.303288       11114
 acc_cufft_makeplans                     0.300982           3
 acc_cufft_makeplan                      0.300973          19
 orth1                                   0.292145       21223
 vhamil                                  0.264569       61509
 map_gather                              0.261537        1145
 overl_mu                                0.253460       16633
 rspher_all                              0.231766          14
 depsum                                  0.227020          25
 zhegv                                   0.200231       24137
 proall                                  0.183827           1
 choleski                                0.180568        1400
 i1                                      0.179328       11388
 overl                                   0.178218       20924
 m_bcast_z                               0.160389        7485
 m_bcast_d                               0.089298       10549
 ggemm                                   0.069035        6645
 brmix                                   0.068147          25
 lincom                                  0.057101        3024
 sphpro_fast                             0.044876           2
 fft_gq                                  0.042395          25
 broyd                                   0.022059          25
 setg0                                   0.019841          27
 brget                                   0.004949        1719
 truncate_high_frequency_w1              0.004799       64309
 inisym                                  0.004362           1
 stufak                                  0.003389           1
 pothar                                  0.003273          28
 forhar                                  0.002567           2
 strelo                                  0.001716           1
 forloc                                  0.001427           1
 brsav                                   0.001276         429
 strehar                                 0.001257           1
 chggra                                  0.000801           1
 fewald                                  0.000510           1
 brpre                                   0.000496          50
 strkin                                  0.000301           1
 shift_bands_between_low_high            0.000194        1344
 brgrid                                  0.000160           1
 set_dd_magatom                          0.000124          27
 rsp                                     0.000117           1
 vectorpot                               0.000110          26
 crpa_reader                             0.000026           1
 posmap                                  0.000025           2
 rcp                                     0.000014           1
 potlok_metagga                          0.000001          26
 rotate_active_occupied_orbital          0.000000           1
 redis_pw_over_bands                     0.000000           1

Profiling took   0.257167  0.173973  0.003414  0.003318 seconds
Profiling took   0.208787 seconds