 vasp.6.3.2 27Jun22 (build Jul  3 2023 11:46:21) complex
 executed on    LinuxNV_CrayMPICH date 2024.04.21  22:09:59

 INCAR:
   ADDGRID = True
   ALGO = Fast
   EDIFF = 0.0001
   ENCUT = 520.0
   IBRION = -1
   ISIF = 3
   ISMEAR = -5
   ISPIN = 2
   LAECHG = True
   LASPH = True
   LCHARG = True
   LORBIT = 11
   LREAL = Auto
   LVHAR = True
   LWAVE = False
   MAGMOM = 1*7.0 4*0.6
   NELM = 1000
   NSW = 0
   PREC = Accurate
   SIGMA = 0.05

 POTCAR:    PAW_PBE Gd 23Dec2003
 POTCAR:    PAW_PBE Si 05Jan2001
 POTCAR:    PAW_PBE Ir 06Sep2000
 POTCAR:    PAW_PBE Gd 23Dec2003
   VRHFIN =Gd : [core=Xe4]

   TITEL  = PAW_PBE Gd 23Dec2003
   POMASS =  157.250; ZVAL   =   18.000    mass and valenz
   ENMAX  =  256.472; ENMIN  =  192.354 eV

   TITEL  = PAW_PBE Si 05Jan2001
   POMASS =   28.085; ZVAL   =    4.000    mass and valenz
   ENMAX  =  245.345; ENMIN  =  184.009 eV

   TITEL  = PAW_PBE Ir 06Sep2000
   POMASS =  192.220; ZVAL   =    9.000    mass and valenz
   ENMAX  =  210.864; ENMIN  =  158.148 eV

 Optimization of the real space projectors (new method)

 maximal supplied QI-value         = 13.42
 optimisation between [QCUT,QGAM] = [ 11.67, 23.35] = [ 38.16,152.62] Ry
 Optimized for a Real-space Cutoff    1.63 Angstroem

   l    n(q)    QCUT    max X(q) W(low)/X(q) W(high)/X(q)  e(spline)
   0     11    11.673    10.501    0.14E-04    0.17E-05    0.21E-07
   0     11    11.673     9.148    0.21E-04    0.32E-05    0.45E-07
   1     11    11.673     4.035    0.33E-05    0.11E-04    0.84E-07
   1     11    11.673     4.388    0.11E-04    0.47E-04    0.34E-06
   2     10    11.673    20.656    0.12E-04    0.28E-04    0.54E-06
   2     10    11.673    12.651    0.11E-04    0.26E-04    0.51E-06
   3     10    11.673    61.921    0.19E-03    0.22E-03    0.23E-06
   3     10    11.673    48.328    0.20E-03    0.23E-03    0.23E-06
 Optimization of the real space projectors (new method)

[...]

   l    n(q)    QCUT    max X(q) W(low)/X(q) W(high)/X(q)  e(spline)
   0      8    11.508   159.560    0.71E-04    0.15E-03    0.51E-07
   0      8    11.508   115.863    0.70E-04    0.15E-03    0.51E-07
   1      8    11.508    88.339    0.16E-03    0.38E-04    0.82E-07
   1      8    11.508    48.592    0.15E-03    0.36E-04    0.79E-07
 Optimization of the real space projectors (new method)

 maximal supplied QI-value         = 14.36
 optimisation between [QCUT,QGAM] = [ 11.63, 23.27] = [ 37.90,151.59] Ry
 Optimized for a Real-space Cutoff    1.63 Angstroem

   l    n(q)    QCUT    max X(q) W(low)/X(q) W(high)/X(q)  e(spline)
   2     10    11.633   134.116    0.23E-03    0.25E-04    0.92E-06
   2     10    11.633   130.192    0.23E-03    0.25E-04    0.92E-06
   0     11    11.633    60.310    0.44E-04    0.29E-04    0.76E-06
   0     11    11.633    39.218    0.38E-04    0.27E-04    0.71E-06
   1     11    11.633    18.439    0.37E-04    0.62E-04    0.19E-06
   1     11    11.633    12.760    0.29E-04    0.50E-04    0.16E-06
  PAW_PBE Gd 23Dec2003                  :
  PAW_PBE Si 05Jan2001                  :
  PAW_PBE Ir 06Sep2000                  :

 POSCAR: Gd1 Si2 Ir2
  positions in direct lattice
 exchange correlation table for  LEXCH =        8
   RHO(1)=    0.500       N(1)  =     2000
   RHO(2)=  100.500       N(2)  =     4000

 VTST: version 4.2, (08/11/21)

 CHAIN: initializing optimizer

 OPT: Using VASP Dynamics algorithm
 CHAIN: Read ICHAIN             0

 POSCAR: Gd1 Si2 Ir2
  positions in direct lattice

 ion  position               nearest neighbor table
   1  0.000  0.000  0.000-   2 3.15   2 3.15   2 3.15   3 3.15   2 3.15   3 3.15   3 3.15   3 3.15
                             4 3.25   4 3.25   5 3.25   5 3.25   5 3.25   4 3.25   4 3.25   5 3.25
   2  0.622  0.622  0.000-   4 2.42   5 2.42   4 2.42   5 2.42   3 2.46   1 3.15   1 3.15   1 3.15
                             1 3.15
   3  0.378  0.378  0.000-   4 2.42   5 2.42   4 2.42   5 2.42   2 2.46   1 3.15   1 3.15   1 3.15
                             1 3.15
   4  0.250  0.750  0.500-   3 2.42   2 2.42   3 2.42   2 2.42   5 2.90   5 2.90   5 2.90   5 2.90
                             1 3.25   1 3.25   1 3.25   1 3.25
   5  0.750  0.250  0.500-   3 2.42   2 2.42   3 2.42   2 2.42   4 2.90   4 2.90   4 2.90   4 2.90
                             1 3.25   1 3.25   1 3.25   1 3.25

  LATTYP: Found a body centered tetragonal cell.
 ALAT       =     4.0947820000
 C/A-ratio  =     2.4599399919

  Lattice vectors:

 A1 = (  -2.0473910000,   2.0473910000,   5.0364590000)
 A2 = (   2.0473910000,  -2.0473910000,   5.0364590000)
 A3 = (   2.0473910000,   2.0473910000,  -5.0364590000)

Analysis of symmetry for initial positions (statically):
 Subroutine PRICEL returns:
 Original cell was already a primitive cell.

 Routine SETGRP: Setting up the symmetry group for a
 body centered tetragonal supercell.

 Subroutine GETGRP returns: Found 16 space group operations
 (whereof 16 operations were pure point group operations)
 out of a pool of 16 trial point group operations.

The static configuration has the point symmetry D_4h.

Analysis of symmetry for dynamics (positions and initial velocities):
 Subroutine PRICEL returns:
 Original cell was already a primitive cell.

[...]

The dynamic configuration has the point symmetry D_4h.

Analysis of structural, dynamic, and magnetic symmetry:
 Subroutine PRICEL returns:
 Original cell was already a primitive cell.

 Routine SETGRP: Setting up the symmetry group for a
 body centered tetragonal supercell.

 Subroutine GETGRP returns: Found 16 space group operations
 (whereof 16 operations were pure point group operations)
 out of a pool of 16 trial point group operations.

The overall configuration has the point symmetry D_4h.

 Subroutine INISYM returns: Found 16 space group operations
 (whereof 16 operations are pure point group operations),
 and found     1 'primitive' translations

                                     Primitive cell

  volume of cell :      84.4475

  direct lattice vectors                    reciprocal lattice vectors
    -2.047391000  2.047391000  5.036459000     0.000000000  0.244213245  0.099276099
     2.047391000 -2.047391000  5.036459000     0.244213245  0.000000000  0.099276099
     2.047391000  2.047391000 -5.036459000     0.244213245  0.244213245  0.000000000

  length of vectors
     5.809435349  5.809435349  5.809435349     0.263620661  0.263620661  0.345369683

  position of ions in fractional coordinates (direct lattice)
     0.000000000  0.000000000  0.000000000
     0.622078000  0.622078000  0.000000000
     0.377922000  0.377922000  0.000000000
     0.250000000  0.750000000  0.500000000
     0.750000000  0.250000000  0.500000000

  ion indices of the primitive-cell ions
   primitive index   ion index
                 1           1
                 2           2
                 3           3
                 4           4
                 5           5

 KPOINTS: Kpoints from vasprun.xml

Automatic generation of k-mesh.
 Grid dimensions read from file:
 generate k-points for:    6    6    6

 Generating k-lattice:

  Cartesian coordinates                     Fractional coordinates (reciprocal lattice)
     0.000000000  0.040702208  0.016546016     0.166666667  0.000000000  0.000000000
     0.040702208  0.000000000  0.016546016    -0.000000000  0.166666667  0.000000000
     0.040702208  0.040702208  0.000000000    -0.000000000  0.000000000  0.166666667

  Length of vectors
     0.043936777  0.043936777  0.057561614

  Shift w.r.t. Gamma in fractional coordinates (k-lattice)
     0.500000000  0.500000000  0.500000000

 TETIRR: Found    278 inequivalent tetrahedra from     1296

 Subroutine IBZKPT returns following result:

 Found     28 irreducible k-points:

 Following reciprocal coordinates:
            Coordinates               Weight
  0.083333  0.083333  0.083333      8.000000
  0.250000  0.083333  0.083333     16.000000
  0.416667  0.083333  0.083333      8.000000
 -0.083333  0.083333  0.083333      4.000000
  0.250000  0.250000  0.083333      8.000000
  0.416667  0.250000  0.083333     16.000000
 -0.416667  0.250000  0.083333      8.000000
 -0.250000  0.250000  0.083333      8.000000
 -0.083333  0.250000  0.083333      8.000000
  0.416667  0.416667  0.083333      4.000000
 -0.416667  0.416667  0.083333      8.000000
 -0.250000  0.416667  0.083333     16.000000
 -0.083333  0.416667  0.083333      8.000000
 -0.416667 -0.416667  0.083333      8.000000
 -0.250000 -0.416667  0.083333     16.000000
 -0.083333 -0.416667  0.083333      8.000000
 -0.250000 -0.250000  0.083333      8.000000
 -0.083333 -0.250000  0.083333      8.000000
 -0.083333 -0.083333  0.083333      2.000000
  0.250000  0.250000  0.250000      2.000000
 -0.250000  0.250000  0.250000      4.000000
 -0.416667  0.416667  0.250000      8.000000
 -0.250000  0.416667  0.250000      8.000000
 -0.416667 -0.416667  0.250000      8.000000
 -0.250000 -0.416667  0.250000      8.000000
 -0.250000 -0.250000  0.250000      2.000000
 -0.416667  0.416667  0.416667      4.000000
 -0.416667 -0.416667  0.416667      2.000000

 Following cartesian coordinates:
            Coordinates               Weight
  0.040702  0.040702  0.016546      8.000000
  0.040702  0.081404  0.033092     16.000000
  0.040702  0.122107  0.049638      8.000000
  0.040702  0.000000  0.000000      4.000000
  0.081404  0.081404  0.049638      8.000000
  0.081404  0.122107  0.066184     16.000000
  0.081404 -0.081404 -0.016546      8.000000
  0.081404 -0.040702  0.000000      8.000000
  0.081404  0.000000  0.016546      8.000000
  0.122107  0.122107  0.082730      4.000000
  0.122107 -0.081404  0.000000      8.000000
  0.122107 -0.040702  0.016546     16.000000
  0.122107  0.000000  0.033092      8.000000
 -0.081404 -0.081404 -0.082730      8.000000
 -0.081404 -0.040702 -0.066184     16.000000
 -0.081404  0.000000 -0.049638      8.000000
 -0.040702 -0.040702 -0.049638      8.000000
 -0.040702  0.000000 -0.033092      8.000000
  0.000000  0.000000 -0.016546      2.000000
  0.122107  0.122107  0.049638      2.000000
  0.122107  0.000000  0.000000      4.000000
  0.162809 -0.040702  0.000000      8.000000
  0.162809  0.000000  0.016546      8.000000
 -0.040702 -0.040702 -0.082730      8.000000
 -0.040702  0.000000 -0.066184      8.000000
  0.000000  0.000000 -0.049638      2.000000
  0.203511  0.000000  0.000000      4.000000
  0.000000  0.000000 -0.082730      2.000000

 SYSTEM =  unknown system
 POSCAR =  Gd1 Si2 Ir2

 Startparameter for this run:
   NWRITE =      2    write-flag & timer
   PREC   = accura    normal or accurate (medium, high low for compatibility)
   ISTART =      0    job   : 0-new  1-cont  2-samecut
   ICHARG =      2    charge: 1-file 2-atom 10-const
   ISPIN  =      2    spin polarized calculation?
   LNONCOLLINEAR =      F non collinear calculations
   LSORBIT =      F    spin-orbit coupling
   INIWAV =      1    electr: 0-lowe 1-rand  2-diag
   LASPH  =      T    aspherical Exc in radial PAW
 Electronic Relaxation 1
   ENCUT  =  520.0 eV  38.22 Ry    6.18 a.u.  10.80 10.80 10.80*2*pi/ulx,y,z
   ENINI  =  520.0     initial cutoff
   ENAUG  =  537.2 eV  augmentation charge cutoff
[...]
  382            m_sumb_d                              0.000439                       47   5
  383        m_bcast_d                             0.000026                            2   3
  384      potlok                                0.027422                              2   2
  385        fft3d_mpi                             0.018598                           36   3
  386          fftbrc_mpi                            0.015928                         36   4
  387            fftbas_plan_mpi                       0.015912                       36   5
  388              map_forward                           0.004655                     40   6
  389                map_gather                            0.001476                   24   7
  390                m_alltoallv_z                         0.001652                   24   7
  391                map_scatter                           0.001343                   24   7
  392              map_backward                          0.004128                     32   6
  393                map_gather                            0.001261                   16   7
  394                m_alltoallv_z                         0.001542                   16   7
  395                map_scatter                           0.001136                   16   7
  396              dfftw_execute                         0.005438                     30   6
  397        m_sumb_d                              0.000028                            5   3
  398        pothar                                0.001124                            2   3
  399          m_sumb_d                              0.000076                          2   4
  400        m_bcast_d                             0.001813                            4   3
  401      potlok_metagga                        0.000001                              1   2
  402      set_dd_magatom                        0.000004                              1   2
  403      set_dd_paw                            1.392642                              1   2
  404        m_sumb_d                              0.932335                            7   3
  405      augmentation_charge                   0.157939                              1   2
  406        fft3d_mpi                             0.033893                            2   3
  407          fftbrc_mpi                            0.029437                          2   4
  408            fftbas_plan_mpi                       0.029436                        2   5
  409              dfftw_execute                         0.019775                      6   6
  410              map_backward                          0.009375                      4   6
  411                map_gather                            0.002509                    2   7
  412                m_alltoallv_z                         0.004311                    2   7
  413                map_scatter                           0.002546                    2   7
  414      densta                                0.621628                              1   2

 Flat profile

 m_sumb_d                              118.907913       35399
 set_dd_paw                             54.615465         118
 raccmu_                                50.968804       49057
 phaser                                 24.923265        7084
 eccp                                   20.422913      258065
 setdij_                                16.573769         144
 augmentation_charge                    13.991669         117
 w1_gemv                                13.575543      582214
 i2                                     12.322579       44931
 init_acc                               11.584361           1
 eccp_nl                                11.285766      204305
 total_time                             10.699769           1
 densta                                  9.557427         121
 eddrmm                                  6.820240         115
 dfftw_execute                           6.085616        3204
 cnorma                                  5.401899      204305
 redis_pw                                5.005281       55388
 overl1                                  4.786136      291107
 eddiag                                  4.634684         115
 m_alltoall_d                            3.781804      628964
 fft3d                                   3.711658      527601
 acc_init_cublas                         3.386391           1
 soft_charge                             3.232485         116
 fftwav                                  3.000880      314968
 w1_dscal                                2.758992      456841
 w1_copy                                 2.569717      483337
 w1_gaxpy                                2.383775      455077
 hamilt_local                            2.377078       51520
 apply_precond                           2.298571      512576
 setup_precond                           1.897674       53760
 eddav                                   1.880577           5
 lapack                                  1.863189        4126
 rpromu_acc                              1.860720       49393
 m_alltoallv_z                           1.740644        4603
 w1_daxpy                                1.655373      305646
 racc0mu_acc                             1.638447       49057
 newband                                 1.490628       55777
 w1_dot                                  1.438426       51483
 hamiltmu                                1.218618       49057
 fft3d_mpi                               1.190488      216768
 redis_proj                              1.088792       67896
 pw_charge                               1.070081       39018
 acc_init_cusolver                       1.058202           1
 set_charge                              0.974220         116
 map_scatter                             0.973917        4603
 orthch                                  0.939713         116
 kinhamil                                0.907212      212633
 vhamil                                  0.900982      212633
 zhegv                                   0.859388      101340
 map_gather                              0.847586        4603
 fftext_mpi                              0.840675      212633
 depsum                                  0.830462         116
 overl_mu                                0.742327       49057
 choleski                                0.579649        6496
 potlok                                  0.422318         118
 fftwav_mpi                              0.420531      314968
 rpro_isp                                0.395968         364
 i3                                      0.391353       44931
 orth1                                   0.366078       25314
 acc_cufft_makeplan                      0.255235          19
 broyd                                   0.246206         116
 overl                                   0.240349       27200
 fftbas_plan_mpi                         0.231545        4135
 lincom                                  0.229403       13216
 rspher_all                              0.224173          14
 elmin                                   0.215628           1
 m_bcast_z                               0.128248        5918
 brmix                                   0.111004         116
 setg0                                   0.091781         118
 m_bcast_d                               0.075006        8493
 brget                                   0.069673       22643
 ggemm                                   0.054040        5246
 i1                                      0.047064       44931
 proall                                  0.043208           1
 w1_projall                              0.041252       47937
 sphpro_fast                             0.034399           2
 map_backward                            0.024367        4362
 map_forward                             0.022097        3908
 brsav                                   0.018680        6328
 truncate_high_frequency_w1              0.016151      214873
 pothar                                  0.009827         119
 force_and_stress                        0.008873           1
 strnlr                                  0.007591           1
 inisym                                  0.004344           1
 fft_gq                                  0.004233         116
 fornlr                                  0.002597           1
 stufak                                  0.002549           1
 fftbrc_mpi                              0.002429        4135
 brpre                                   0.002359         232
 forhar                                  0.001949           2
 strelo                                  0.001625           1
 strehar                                 0.001252           1
 forloc                                  0.001019           1
 shift_bands_between_low_high            0.000711        6440
 set_dd_magatom                          0.000536         118
 vectorpot                               0.000491         117
 fewald                                  0.000348           1
 chggra                                  0.000236           1
 strkin                                  0.000215           1
 brgrid                                  0.000158           1
 rsp                                     0.000092           1
 fordep                                  0.000052           1
 crpa_reader                             0.000029           1
 posmap                                  0.000021           2
 rcp                                     0.000011           1
 potlok_metagga                          0.000011         117
 acc_cufft_makeplans                     0.000010           3
 rotate_active_occupied_orbital          0.000000           1
 redis_pw_over_bands                     0.000000           1
  summed up times     466.6217658519745

 Accumulative profile

 total_time                            466.621766           1
 elmin                                 428.291695           1
 eddrmm                                179.347059         115
 set_dd_paw                            164.242943         118
 m_sumb_d                              118.907913       35399
 hamiltmu                               57.740236       49057
 raccmu_                                53.349578       49057
 i2                                     42.101086       44931
 i3                                     36.916810       44931
 set_charge                             25.694334         116
 phaser                                 24.923265        7084
 setdij_                                22.708485         144
 eccp                                   20.422913      258065
 w1_gemv                                18.361679      582214
 augmentation_charge                    17.940505         117
 cnorma                                 16.687665      204305
 eddiag                                 13.865089         115
 eddav                                  12.688824           5
 fft3d_mpi                              12.521504      216768
 init_acc                               11.584361           1
 eccp_nl                                11.285766      204305
 fftbrc_mpi                              9.928201        4135
 fftbas_plan_mpi                         9.925772        4135
 densta                                  9.557427         121
 newband                                 9.215916       55777
 force_and_stress                        7.982130           1
 redis_pw                                6.669655       55388
 orthch                                  6.663456         116
 dfftw_execute                           6.085616        3204
 soft_charge                             5.959019         116
 fftwav_mpi                              5.730253      314968
 fftwav                                  5.309722      314968
 overl1                                  4.786136      291107
 m_alltoall_d                            3.781804      628964
 fft3d                                   3.711658      527601
 acc_init_cublas                         3.386391           1
 hamilt_local                            3.317956       51520
 kinhamil                                3.211936      212633
 redis_proj                              3.206222       67896
 w1_dscal                                2.758992      456841
 w1_copy                                 2.569717      483337
 w1_gaxpy                                2.383775      455077
 fftext_mpi                              2.304723      212633
 apply_precond                           2.298571      512576
 setup_precond                           1.897674       53760
 lapack                                  1.863189        4126
 rpromu_acc                              1.860720       49393
 map_forward                             1.829367        3908
 map_backward                            1.779245        4362
 m_alltoallv_z                           1.740644        4603
 strnlr                                  1.676764           1
 w1_daxpy                                1.655373      305646
 racc0mu_acc                             1.638447       49057
 w1_projall                              1.622302       47937
 w1_dot                                  1.438426       51483
 potlok                                  1.093547         118
 pw_charge                               1.070081       39018
 acc_init_cusolver                       1.058202           1
 map_scatter                             0.973917        4603
 fordep                                  0.944818           1
 vhamil                                  0.900982      212633
 zhegv                                   0.859388      101340
 rpro_isp                                0.848715         364
 map_gather                              0.847586        4603
 depsum                                  0.838468         116
 overl_mu                                0.742327       49057
 i1                                      0.735570       44931
 brmix                                   0.580741         116
 choleski                                0.579649        6496
 fornlr                                  0.560581           1
 broyd                                   0.370115         116
 orth1                                   0.366078       25314
 acc_cufft_makeplans                     0.255246           3
 acc_cufft_makeplan                      0.255235          19
 overl                                   0.240349       27200
 lincom                                  0.229403       13216
 rspher_all                              0.224173          14
 fft_gq                                  0.195389         116
 proall                                  0.168988           1
 m_bcast_z                               0.128248        5918
 setg0                                   0.091781         118
 m_bcast_d                               0.075006        8493
 brget                                   0.069673       22643
 ggemm                                   0.054040        5246
 sphpro_fast                             0.035434           2
 brsav                                   0.018680        6328
 truncate_high_frequency_w1              0.016151      214873
 pothar                                  0.010970         119
 inisym                                  0.004365           1
 stufak                                  0.002549           1
 brpre                                   0.002359         232
 forhar                                  0.001964           2
 strelo                                  0.001673           1
 strehar                                 0.001258           1
 forloc                                  0.001057           1
 chggra                                  0.000780           1
 shift_bands_between_low_high            0.000711        6440
 set_dd_magatom                          0.000536         118
 fewald                                  0.000503           1
 vectorpot                               0.000491         117
 strkin                                  0.000229           1
 brgrid                                  0.000158           1
 rsp                                     0.000092           1
 crpa_reader                             0.000029           1
 posmap                                  0.000021           2
 rcp                                     0.000011           1
 potlok_metagga                          0.000011         117
 rotate_active_occupied_orbital          0.000000           1
 redis_pw_over_bands                     0.000000           1

Profiling took   0.801684  0.575537  0.003227  0.003124 seconds
Profiling took   0.648764 seconds