 vasp.6.3.2 27Jun22 (build Jul  3 2023 11:46:21) complex
 executed on    LinuxNV_CrayMPICH date 2024.04.21  02:49:35

 INCAR:
   ADDGRID = True
   ALGO = Normal
   EDIFF = 0.0019
   ENCUT = 520.0
   IBRION = -1
   ICHARG = 0
   ISIF = 3
   ISMEAR = -5
   ISPIN = 2
   KPOINT_BSE = -1 0 0 0
   LAECHG = True
   LASPH = True
   LCHARG = True
   LDAU = True
   LDAUJ = 0.0 0.0 0.0 0.0
   LDAUL = 0 0 2 0
   LDAUPRINT = 1
   LDAUTYPE = 2
   LDAUU = 0.0 0.0 3.9 0.0
   LELF = True
   LMAXMIX = 6
   LORBIT = 11
   LREAL = Auto
   LVHAR = True
   LWAVE = False
   MAGMOM = 5*0.6 8*7.0 4*5.0 21*0.6
   NELM = 1000
   NSW = 0
   PREC = accurate
   SIGMA = 0.05

 POTCAR:    PAW_PBE Ba_sv 06Sep2000
 POTCAR:    PAW_PBE Gd 23Dec2003
 POTCAR:    PAW_PBE Mn_pv 02Aug2007
 POTCAR:    PAW_PBE O 08Apr2002
 POTCAR:    PAW_PBE Ba_sv 06Sep2000
   VRHFIN =Ba: 5s5p6s

   TITEL  = PAW_PBE Ba_sv 06Sep2000
   POMASS =  137.327; ZVAL   =   10.000    mass and valenz
   ENMAX  =  187.181; ENMIN  =  140.386 eV

   TITEL  = PAW_PBE Gd 23Dec2003
   POMASS =  157.250; ZVAL   =   18.000    mass and valenz
   ENMAX  =  256.472; ENMIN  =  192.354 eV

   TITEL  = PAW_PBE Mn_pv 02Aug2007
   POMASS =   54.938; ZVAL   =   13.000    mass and valenz
   ENMAX  =  269.864; ENMIN  =  202.398 eV

   TITEL  = PAW_PBE O 08Apr2002
   POMASS =   16.000; ZVAL   =    6.000    mass and valenz
   ENMAX  =  400.000; ENMIN  =  300.000 eV

 Optimization of the real space projectors (new method)

 maximal supplied QI-value         = 13.42
 optimisation between [QCUT,QGAM] = [ 11.67, 23.35] = [ 38.16,152.62] Ry
 Optimized for a Real-space Cutoff    1.68 Angstroem

   l    n(q)    QCUT    max X(q) W(low)/X(q) W(high)/X(q)  e(spline)
   0     12    11.673    13.244    0.27E-04    0.53E-05    0.55E-07
   0     12    11.673    14.240    0.39E-04    0.74E-05    0.11E-06
   1     11    11.673     4.828    0.65E-05    0.14E-04    0.51E-07
   1     11    11.673     3.934    0.16E-04    0.58E-04    0.38E-06
   2     11    11.673    87.714    0.23E-03    0.16E-03    0.84E-06
   2     11    11.673    59.874    0.22E-03    0.15E-03    0.81E-06
 Optimization of the real space projectors (new method)

[...]

   l    n(q)    QCUT    max X(q) W(low)/X(q) W(high)/X(q)  e(spline)
   1     10    11.539     3.658    0.56E-04    0.12E-03    0.13E-06
   1     10    11.539     5.612    0.11E-03    0.23E-03    0.24E-06
   2      9    11.539    55.373    0.45E-04    0.92E-04    0.22E-06
   2      9    11.539    50.863    0.47E-04    0.95E-04    0.22E-06
   0     10    11.539    79.536    0.46E-04    0.27E-04    0.11E-06
   0     10    11.539    38.668    0.38E-04    0.25E-04    0.10E-06
 Optimization of the real space projectors (new method)

 maximal supplied QI-value         = 24.76
 optimisation between [QCUT,QGAM] = [ 11.64, 23.27] = [ 37.91,151.63] Ry
 Optimized for a Real-space Cutoff    1.14 Angstroem

   l    n(q)    QCUT    max X(q) W(low)/X(q) W(high)/X(q)  e(spline)
   0      8    11.635    20.381    0.10E-03    0.33E-03    0.24E-06
   0      8    11.635    15.268    0.11E-03    0.35E-03    0.26E-06
   1      7    11.635     5.964    0.24E-03    0.31E-03    0.30E-06
   1      7    11.635     5.382    0.22E-03    0.25E-03    0.26E-06
  PAW_PBE Ba_sv 06Sep2000               :
  PAW_PBE Gd 23Dec2003                  :
  PAW_PBE Mn_pv 02Aug2007               :
  PAW_PBE O 08Apr2002                   :

 POSCAR: Ba5 Gd8 Mn4 O21
  positions in direct lattice
 exchange correlation table for  LEXCH =        8
   RHO(1)=    0.500       N(1)  =     2000
   RHO(2)=  100.500       N(2)  =     4000

 VTST: version 4.2, (08/11/21)

 CHAIN: initializing optimizer

 OPT: Using VASP Dynamics algorithm
 CHAIN: Read ICHAIN             0

 POSCAR: Ba5 Gd8 Mn4 O21
  positions in direct lattice

 ion  position               nearest neighbor table
   1  0.862  0.467  0.329-  37 2.67  38 2.78  36 2.93  36 2.93  29 3.00  30 3.00  20 3.31  23 3.31
                            21 3.31  22 3.31  16 3.38  15 3.49  15 3.49  12 3.57   9 3.86   9 3.86
   2  0.138  0.533  0.671-  38 2.67  37 2.78  34 2.93  34 2.93  33 3.00  26 3.00  24 3.31  19 3.31
                            25 3.31  18 3.31  14 3.38  17 3.49  17 3.49  11 3.57   6 3.86   6 3.86
   3  0.467  0.138  0.605-  34 2.67  36 2.78  37 2.93  37 2.93  31 3.00  28 3.00  18 3.31  25 3.31
                            23 3.31  20 3.31  15 3.38  14 3.49  14 3.49  10 3.57   8 3.86   8 3.86
   4  0.533  0.862  0.395-  36 2.67  34 2.78  38 2.93  38 2.93  27 3.00  32 3.00  22 3.31  21 3.31
                            19 3.31  24 3.31  17 3.38  16 3.49  16 3.49  13 3.57   7 3.86   7 3.86
   5  0.000  0.000  0.000-  35 2.93  35 2.93  26 2.99  30 2.99  28 2.99  32 2.99  31 2.99  27 2.99
                            29 2.99  33 2.99  16 3.58  17 3.58  14 3.58  15 3.58  10 3.77  13 3.77
   6  0.752  0.169  0.921-  25 2.31  18 2.31  21 2.38  22 2.38  33 2.47  26 2.47  34 2.61  17 2.97
                            16 3.15  10 3.53   2 3.86   2 3.86   3 4.06
   7  0.169  0.248  0.417-  24 2.31  19 2.31  23 2.38  20 2.38  32 2.47  27 2.47  38 2.61  16 2.97
                            15 3.15  11 3.53   4 3.86   4 3.86   2 4.06
   8  0.831  0.752  0.583-  20 2.31  23 2.31  19 2.38  24 2.38  28 2.47  31 2.47  37 2.61  14 2.97
                            17 3.15  12 3.53   3 3.86   3 3.86   1 4.06
   9  0.248  0.831  0.079-  21 2.31  22 2.31  25 2.38  18 2.38  29 2.47  30 2.47  36 2.61  15 2.97
                            14 3.15  13 3.53   1 3.86   1 3.86   4 4.06
  10  0.590  0.358  0.948-  30 2.34  29 2.34  18 2.36  25 2.36  35 2.37  31 2.49  28 2.49  11 3.36
                            12 3.36   6 3.53   3 3.57   5 3.77   5 3.77
  11  0.358  0.410  0.769-  28 2.34  31 2.34  24 2.36  19 2.36  35 2.37  26 2.49  33 2.49  10 3.36
                            13 3.36   7 3.53   2 3.57   5 3.77   5 3.77
  12  0.642  0.590  0.231-  32 2.34  27 2.34  20 2.36  23 2.36  35 2.37  30 2.49  29 2.49  13 3.36
                            10 3.36   8 3.53   1 3.57   5 3.77   5 3.77
  13  0.410  0.642  0.052-  26 2.34  33 2.34  22 2.36  21 2.36  35 2.37  27 2.49  32 2.49  12 3.36
                            11 3.36   9 3.53   4 3.57   5 3.77   5 3.77
  14  0.040  0.750  0.791-  37 2.07  18 2.12  25 2.12  31 2.17  28 2.17   8 2.97   9 3.15   2 3.38
                             3 3.49   3 3.49   5 3.58
  15  0.250  0.040  0.290-  36 2.07  23 2.12  20 2.12  30 2.17  29 2.17   9 2.97   7 3.15   3 3.38
                             1 3.49   1 3.49   5 3.58
  16  0.960  0.250  0.209-  38 2.07  22 2.12  21 2.12  27 2.17  32 2.17   7 2.97   6 3.15   1 3.38
                             4 3.49   4 3.49   5 3.58
  17  0.750  0.960  0.710-  34 2.07  19 2.12  24 2.12  26 2.17  33 2.17   6 2.97   8 3.15   4 3.38
                             2 3.49   2 3.49   5 3.58
  18  0.900  0.493  0.891-  14 2.12   6 2.31  10 2.36   9 2.38   3 3.31   2 3.31
  19  0.493  0.602  0.594-  17 2.12   7 2.31  11 2.36   8 2.38   2 3.31   4 3.31
  20  0.008  0.900  0.406-  15 2.12   8 2.31  12 2.36   7 2.38   1 3.31   3 3.31
  21  0.602  0.008  0.109-  16 2.12   9 2.31  13 2.36   6 2.38   4 3.31   1 3.31
  22  0.100  0.507  0.109-  16 2.12   9 2.31  13 2.36   6 2.38   4 3.31   1 3.31
  23  0.507  0.398  0.406-  15 2.12   8 2.31  12 2.36   7 2.38   1 3.31   3 3.31
  24  0.992  0.100  0.594-  17 2.12   7 2.31  11 2.36   8 2.38   2 3.31   4 3.31
  25  0.398  0.992  0.891-  14 2.12   6 2.31  10 2.36   9 2.38   3 3.31   2 3.31
  26  0.072  0.298  0.870-  17 2.17  13 2.34   6 2.47  11 2.49   5 2.99   2 3.00
  27  0.298  0.428  0.226-  16 2.17  12 2.34   7 2.47  13 2.49   5 2.99   4 3.00
  28  0.202  0.072  0.774-  14 2.17  11 2.34   8 2.47  10 2.49   5 2.99   3 3.00
  29  0.428  0.202  0.130-  15 2.17  10 2.34   9 2.47  12 2.49   5 2.99   1 3.00
  30  0.928  0.702  0.130-  15 2.17  10 2.34   9 2.47  12 2.49   5 2.99   1 3.00
  31  0.702  0.572  0.774-  14 2.17  11 2.34   8 2.47  10 2.49   5 2.99   3 3.00
  32  0.798  0.928  0.226-  16 2.17  12 2.34   7 2.47  13 2.49   5 2.99   4 3.00
  33  0.572  0.798  0.870-  17 2.17  13 2.34   6 2.47  11 2.49   5 2.99   2 3.00
  34  0.625  0.035  0.661-  17 2.07   6 2.61   3 2.67   4 2.78   2 2.93   2 2.93
  35  0.500  0.500  0.000-  11 2.37  12 2.37  10 2.37  13 2.37   5 2.93   5 2.93
  36  0.375  0.965  0.339-  15 2.07   9 2.61   4 2.67   3 2.78   1 2.93   1 2.93
  37  0.965  0.625  0.590-  14 2.07   8 2.61   1 2.67   2 2.78   3 2.93   3 2.93
  38  0.035  0.375  0.410-  16 2.07   7 2.61   2 2.67   1 2.78   4 2.93   4 2.93

  LATTYP: Found a body centered tetragonal cell.
 ALAT       =    14.1598600000
 C/A-ratio  =     0.4131662319

  Lattice vectors:

 A1 = (  -7.0799300000,   7.0799300000,   2.9251880000)
 A2 = (   7.0799300000,  -7.0799300000,   2.9251880000)
 A3 = (   7.0799300000,   7.0799300000,  -2.9251880000)

Analysis of symmetry for initial positions (statically):
 Subroutine PRICEL returns:
 Original cell was already a primitive cell.

 Routine SETGRP: Setting up the symmetry group for a
 body centered tetragonal supercell.

 Subroutine GETGRP returns: Found  8 space group operations
 (whereof  8 operations were pure point group operations)
 out of a pool of 16 trial point group operations.

The static configuration has the point symmetry C_4h.

Analysis of symmetry for dynamics (positions and initial velocities):
 Subroutine PRICEL returns:
 Original cell was already a primitive cell.

[...]

The dynamic configuration has the point symmetry C_4h.

Analysis of structural, dynamic, and magnetic symmetry:
 Subroutine PRICEL returns:
 Original cell was already a primitive cell.

 Routine SETGRP: Setting up the symmetry group for a
 body centered tetragonal supercell.

 Subroutine GETGRP returns: Found  8 space group operations
 (whereof  8 operations were pure point group operations)
 out of a pool of 16 trial point group operations.

The overall configuration has the point symmetry C_4h.

 Subroutine INISYM returns: Found  8 space group operations
 (whereof  8 operations are pure point group operations),
 and found     1 'primitive' translations

                                     Primitive cell

  volume of cell :     586.5050

  direct lattice vectors                    reciprocal lattice vectors
    -7.079930000  7.079930000  2.925188000    -0.000000000  0.070622167  0.170929185
     7.079930000 -7.079930000  2.925188000     0.070622167 -0.000000000  0.170929185
     7.079930000  7.079930000 -2.925188000     0.070622167  0.070622167  0.000000000

  length of vectors
    10.431085392 10.431085392 10.431085392     0.184943983  0.184943983  0.099874827

  position of ions in fractional coordinates (direct lattice)
     0.862038000  0.467249000  0.329287000
     0.137962000  0.532751000  0.670713000
     0.467249000  0.137962000  0.605211000
     0.532751000  0.862038000  0.394789000
     0.000000000  0.000000000  0.000000000
     0.751945000  0.169403000  0.921348000
     0.169403000  0.248055000  0.417458000
     0.830597000  0.751945000  0.582542000
     0.248055000  0.830597000  0.078652000
     0.589555000  0.358353000  0.947907000
     0.358353000  0.410445000  0.768798000
     0.641647000  0.589555000  0.231202000
     0.410445000  0.641647000  0.052093000
[...]
  318                map_forward                           0.000413                    4   7
  319                  map_gather                            0.000068                  2   8
  320                  m_alltoallv_z                         0.000029                  2   8
  321                  map_scatter                           0.000276                  2   8
  322                map_backward                          0.000168                    2   7
  323                  map_gather                            0.000035                  1   8
  324                  m_alltoallv_z                         0.000013                  1   8
  325                  map_scatter                           0.000099                  1   8
  326          m_sumb_d                              0.000011                          2   4
  327          pothar                                0.000097                          1   4
  328            m_sumb_d                              0.000004                        1   5
  329        brmix                                 0.031589                            1   3
  330          m_sumb_d                              0.000073                          6   4
  331          brpre                                 0.000091                          2   4
  332          setg0                                 0.003835                          1   4
  333          broyd                                 0.023046                          1   4
  334            brget                                 0.005845                      326   5
  335            brsav                                 0.002809                      163   5
  336            m_sumb_d                              0.002463                       47   5
  337        m_bcast_d                             0.000036                            2   3
  338      potlok                                0.116321                              2   2
  339        fft3d_mpi                             0.072362                           36   3
  340          fftbrc_mpi                            0.059757                         36   4
  341            fftbas_plan_mpi                       0.059730                       36   5
  342              map_forward                           0.015635                     40   6
  343                map_gather                            0.004147                   24   7
  344                m_alltoallv_z                         0.006391                   24   7
  345                map_scatter                           0.004835                   24   7
  346              map_backward                          0.013952                     32   6
  347                map_gather                            0.003265                   16   7
  348                m_alltoallv_z                         0.006368                   16   7
  349                map_scatter                           0.004054                   16   7
  350              dfftw_execute                         0.027994                     30   6
  351        m_sumb_d                              0.000031                            5   3
  352        pothar                                0.005370                            2   3
  353          m_sumb_d                              0.000456                          2   4
  354        m_bcast_d                             0.008247                            4   3
  355      potlok_metagga                        0.000000                              1   2
  356      set_dd_magatom                        0.000006                              1   2
  357      set_dd_paw                            4.380762                              1   2
  358        m_sumb_d                              0.478123                            7   3
  359      augmentation_charge                   0.543985                              1   2
  360        fft3d_mpi                             0.187813                            2   3
  361          fftbrc_mpi                            0.157943                          2   4
  362            fftbas_plan_mpi                       0.157940                        2   5
  363              dfftw_execute                         0.088793                      6   6
  364              map_backward                          0.068930                      4   6
  365                map_gather                            0.025189                    2   7
  366                m_alltoallv_z                         0.015305                    2   7
  367                map_scatter                           0.028425                    2   7
  368      fftwav_mpi                            9.057152                           2448   2
  369        fftwav                                9.053713                         2448   3
  370          fft3d                                 8.468510                       2448   4
  371      densta                                4.891428                              1   2

 Flat profile

 set_dd_paw                            490.682340         128
 raccmu_                               197.344768      231593
 eddav                                 147.931281         130
 lapack                                119.709989      231593
 m_sumb_d                              115.361128      707859
 redis_pw                               58.818699     1286622
 setdij_                                52.686875         154
 augmentation_charge                    45.603687         128
 total_time                             35.933408           1
 dfftw_execute                          30.893461        3516
 phaser                                 23.695775        1638
 m_alltoall_d                           23.681779     3352462
 fft3d                                  20.669000     1368373
 densta                                 14.810418         131
 eccp                                   13.889540      106080
 orth1                                  12.588152      694887
 hamiltmu                               11.279183      231593
 init_acc                               11.234162           1
 redis_proj                             10.843711     1643740
 fft3d_mpi                               9.358568      467685
 fftwav                                  9.302268      905187
 map_scatter                             7.713656        5029
 w1_copy                                 6.867988     1389558
 map_gather                              6.867471        5029
 racc0mu_acc                             6.858551      231593
 overl                                   6.857694      820304
 rpromu_acc                              6.378999      181205
 m_alltoallv_z                           5.980463        5029
 m_bcast_z                               5.451006      234857
 set_charge                              5.279713         127
 ggemm                                   4.873295      284633
 soft_charge                             4.311415         127
 m_bcast_d                               3.927124      463447
 setup_precond                           3.913686      106080
 overl_mu                                3.626912      231593
 pw_charge                               3.417989       71839
 acc_init_cublas                         2.424793           1
 vhamil                                  2.163164      463186
 kinhamil                                2.101683      463186
 fftext_mpi                              2.007507      463186
 apply_precond                           1.945806      357106
 newband                                 1.762098      233153
 depsum                                  1.742303         127
 broyd                                   1.418296         126
 potlok                                  1.404091         128
 fftwav_mpi                              1.204978      905187
 rspher_all                              0.933787          14
 acc_init_cusolver                       0.793844           1
 brmix                                   0.648648         126
 rpro_isp                                0.626894          78
 setg0                                   0.457680         128
 brget                                   0.448704       25067
 elmin                                   0.431913           1
 fftbas_plan_mpi                         0.258582        4499
 sphpro_fast                             0.249248           2
 w1_projall                              0.181451      178553
 acc_cufft_makeplan                      0.149221          19
 brsav                                   0.124086        7034
 proall                                  0.094279           1
 lincom                                  0.070532        1572
 stufak                                  0.058807           1
 truncate_high_frequency_w1              0.046594      569266
 fft_gq                                  0.036813         127
 map_backward                            0.036526        4742
 force_and_stress                        0.036102           1
 orthch                                  0.035972           1
 map_forward                             0.033875        4256
 pothar                                  0.018450         129
 choleski                                0.011730          12
 brpre                                   0.011101         252
 forhar                                  0.010360           2
 strelo                                  0.005994           1
 forloc                                  0.005255           1
 inisym                                  0.004776           1
 strehar                                 0.004753           1
 strnlr                                  0.004218           1
 fftbrc_mpi                              0.003001        4499
 rsp                                     0.002315           1
 strkin                                  0.001769           1
 fornlr                                  0.001449           1
 brgrid                                  0.000627           1
 set_dd_magatom                          0.000594         128
 vectorpot                               0.000514         127
 fewald                                  0.000345           1
 chggra                                  0.000325           1
 fordep                                  0.000155           1
 posmap                                  0.000068           2
 rcp                                     0.000060           1
 crpa_reader                             0.000028           1
 potlok_metagga                          0.000011         127
 acc_cufft_makeplans                     0.000008           3
 rotate_active_occupied_orbital          0.000001           1
 redis_pw_over_bands                     0.000000           1
  summed up times     1562.660339117050

 Accumulative profile

 total_time                           1562.660339           1
 elmin                                1461.319196           1
 eddav                                 743.599358         130
 set_dd_paw                            551.353444         128
 hamiltmu                              228.857759      231593
 raccmu_                               207.830230      231593
 lapack                                119.709989      231593
 m_sumb_d                              115.361128      707859
 set_charge                             91.896316         127
 setdij_                                86.478440         154
 redis_pw                               70.542665     1286622
 augmentation_charge                    69.962145         128
 fft3d_mpi                              64.477531      467685
 fftbrc_mpi                             51.787036        4499
 fftbas_plan_mpi                        51.784035        4499
 dfftw_execute                          30.893461        3516
 newband                                28.014712      233153
 fftwav_mpi                             27.844319      905187
 fftwav                                 26.639341      905187
 force_and_stress                       23.699507           1
 phaser                                 23.695775        1638
 m_alltoall_d                           23.681779     3352462
 redis_proj                             22.801524     1643740
 fft3d                                  20.669000     1368373
 densta                                 14.810418         131
 soft_charge                            14.569660         127
 eccp                                   13.889540      106080
 orth1                                  12.588152      694887
 init_acc                               11.234162           1
 map_backward                           11.036281        4742
 map_forward                             9.595711        4256
 map_scatter                             7.713656        5029
 kinhamil                                7.585182      463186
 w1_copy                                 6.867988     1389558
 map_gather                              6.867471        5029
 racc0mu_acc                             6.858551      231593
 overl                                   6.857694      820304
 rpromu_acc                              6.378999      181205
 m_alltoallv_z                           5.980463        5029
 fftext_mpi                              5.483500      463186
 m_bcast_z                               5.451006      234857
 w1_projall                              5.428729      178553
 ggemm                                   4.873295      284633
 m_bcast_d                               3.927124      463447
 setup_precond                           3.913686      106080
 overl_mu                                3.626912      231593
 pw_charge                               3.417989       71839
 fordep                                  3.353683           1
 brmix                                   3.335534         126
 strnlr                                  2.978364           1
 potlok                                  2.510418         128
 acc_init_cublas                         2.424793           1
 broyd                                   2.204034         126
 vhamil                                  2.163164      463186
 rpro_isp                                2.119004          78
 apply_precond                           1.945806      357106
 depsum                                  1.805558         127
 fft_gq                                  1.107611         127
 fornlr                                  0.997613           1
 rspher_all                              0.933787          14
 acc_init_cusolver                       0.793844           1
 setg0                                   0.457680         128
 brget                                   0.448704       25067
 orthch                                  0.329290           1
 sphpro_fast                             0.259535           2
 proall                                  0.241204           1
 acc_cufft_makeplans                     0.149229           3
 acc_cufft_makeplan                      0.149221          19
 brsav                                   0.124086        7034
 lincom                                  0.070532        1572
 stufak                                  0.058807           1
 truncate_high_frequency_w1              0.046594      569266
 pothar                                  0.021329         129
 choleski                                0.011730          12
 brpre                                   0.011101         252
 forhar                                  0.010449           2
 strelo                                  0.006003           1
 forloc                                  0.005911           1
 inisym                                  0.004844           1
 strehar                                 0.004764           1
 fewald                                  0.002820           1
 rsp                                     0.002315           1
 strkin                                  0.001783           1
 chggra                                  0.001251           1
 brgrid                                  0.000627           1
 set_dd_magatom                          0.000594         128
 vectorpot                               0.000514         127
 posmap                                  0.000068           2
 rcp                                     0.000060           1
 crpa_reader                             0.000028           1
 potlok_metagga                          0.000011         127
 rotate_active_occupied_orbital          0.000001           1
 redis_pw_over_bands                     0.000000           1

Profiling took   2.921827  1.430870  0.003259  0.003136 seconds
Profiling took   1.909603 seconds