 vasp.6.4.3 19Mar24 (build Feb 19 2025 12:53:47) complex
 executed on              LinuxNV date 2025.04.25  10:20:06
 OpenACC runtime initialized ...    8 GPUs detected

 INCAR:
   ALGO = Fast
   EDIFF = 0.0004
   ENCUT = 520.0
   IBRION = 2
   ISIF = 3
   ISMEAR = -5
   ISPIN = 2
   LASPH = True
   LMAXMIX = 4
   LORBIT = 11
   LREAL = Auto
   LWAVE = False
   MAGMOM = 6*0.6 1*5 1*0.6
   NELM = 100
   NSW = 99
   PREC = Accurate
   SIGMA = 0.05

 POTCAR:    PAW_PBE Mg_pv 13Apr2007
 POTCAR:    PAW_PBE Cr_pv 02Aug2007
 POTCAR:    PAW_PBE C 08Apr2002
 POTCAR:    PAW_PBE Mg_pv 13Apr2007
   VRHFIN =Mg: p6s2

   TITEL  = PAW_PBE Mg_pv 13Apr2007
   POMASS =   24.305; ZVAL   =    8.000    mass and valenz
   ENMAX  =  403.929; ENMIN  =  302.947 eV

   TITEL  = PAW_PBE Cr_pv 02Aug2007
   POMASS =   51.996; ZVAL   =   12.000    mass and valenz
   ENMAX  =  265.681; ENMIN  =  199.261 eV

   TITEL  = PAW_PBE C 08Apr2002
   POMASS =   12.011; ZVAL   =    4.000    mass and valenz
   ENMAX  =  400.000; ENMIN  =  300.000 eV

 Optimization of the real space projectors (new method)

 maximal supplied QI-value         = 18.90
 optimisation between [QCUT,QGAM] = [ 11.53, 23.24] = [ 37.21,151.29] Ry
 Optimized for a Real-space Cutoff    1.28 Angstroem

   l    n(q)    QCUT    max X(q) W(low)/X(q) W(high)/X(q)  e(spline)
   1      8    11.527     2.974    0.44E-04    0.56E-04    0.12E-06
   1      8    11.527     4.279    0.12E-03    0.12E-03    0.26E-06
   0      9    11.527    16.381    0.46E-04    0.64E-04    0.78E-07
   0      9    11.527     5.611    0.26E-04    0.43E-04    0.55E-07
   2      8    11.527     4.652    0.22E-03    0.72E-04    0.47E-07
 Optimization of the real space projectors (new method)

[...]

   l    n(q)    QCUT    max X(q) W(low)/X(q) W(high)/X(q)  e(spline)
   1      9    11.539     3.262    0.69E-04    0.25E-03    0.10E-06
   1      9    11.539     5.741    0.20E-03    0.59E-03    0.25E-06
   2      8    11.539    60.438    0.24E-03    0.41E-03    0.22E-06
   2      8    11.539    55.380    0.24E-03    0.42E-03    0.23E-06
   0      9    11.539    80.273    0.11E-03    0.13E-03    0.76E-07
   0      9    11.539    36.654    0.95E-04    0.12E-03    0.68E-07
 Optimization of the real space projectors (new method)

 maximal supplied QI-value         = 25.13
 optimisation between [QCUT,QGAM] = [ 11.56, 23.12] = [ 37.43,149.72] Ry
 Optimized for a Real-space Cutoff    1.04 Angstroem

   l    n(q)    QCUT    max X(q) W(low)/X(q) W(high)/X(q)  e(spline)
   0      7    11.561   115.676    0.20E-03    0.60E-03    0.21E-06
   0      7    11.561    87.132    0.20E-03    0.59E-03    0.21E-06
   1      7    11.561     4.429    0.23E-03    0.35E-03    0.15E-06
   1      7    11.561     2.733    0.18E-03    0.25E-03    0.12E-06
  PAW_PBE Mg_pv 13Apr2007               :
  PAW_PBE Cr_pv 02Aug2007               :
  PAW_PBE C 08Apr2002                   :

 POSCAR: Mg6 Cr1 C1
  positions in direct lattice

 exchange-correlation table for PE
   RHO(1)=    0.500       N(1)  =     2000
   RHO(2)=  100.500       N(2)  =     4000

 ion  position               nearest neighbor table
   1  0.664  0.836  0.000-
   2  0.164  0.336  0.000-
   3  0.849  0.670  0.500-
   4  0.330  0.151  0.500-
   5  0.829  0.171  0.500-
   6  0.323  0.677  0.500-
   7  0.666  0.334  0.000-
   8  0.174  0.826  0.000-

  LATTYP: Found a base centered orthorhombic cell.
 ALAT       =     6.1741680000
 B/A-ratio  =     1.6959972583
 C/A-ratio  =     0.7499829937

  Lattice vectors:

 A1 = (   3.0870840000,  -5.2356860000,   0.0000000000)
 A2 = (   3.0870840000,   5.2356860000,   0.0000000000)
 A3 = (   0.0000000000,   0.0000000000,   4.6305210000)

Analysis of symmetry for initial positions (statically):
 Subroutine PRICEL returns:
 Original cell was already a primitive cell.

 Routine SETGRP: Setting up the symmetry group for a
 base centered orthorhombic supercell.

 Subroutine GETGRP returns: Found  4 space group operations
 (whereof  4 operations were pure point group operations)
 out of a pool of  8 trial point group operations.

The static configuration has the point symmetry C_2v.

Analysis of symmetry for dynamics (positions and initial velocities):
 Subroutine PRICEL returns:
 Original cell was already a primitive cell.

[...]

The dynamic configuration has the point symmetry C_2v.

Analysis of structural, dynamic, and magnetic symmetry:
 Subroutine PRICEL returns:
 Original cell was already a primitive cell.

 Routine SETGRP: Setting up the symmetry group for a
 base centered orthorhombic supercell.

 Subroutine GETGRP returns: Found  4 space group operations
 (whereof  4 operations were pure point group operations)
 out of a pool of  8 trial point group operations.

The overall configuration has the point symmetry C_2v.

 Subroutine INISYM returns: Found  4 space group operations
 (whereof  4 operations are pure point group operations),
 and found     1 'primitive' translations

                                     Primitive cell

  volume of cell :     149.6862

  direct lattice vectors                    reciprocal lattice vectors
     3.087084000 -5.235686000  0.000000000     0.161965143 -0.095498470  0.000000000
     3.087084000  5.235686000  0.000000000     0.161965143  0.095498470 -0.000000000
     0.000000000  0.000000000  4.630521000    -0.000000000  0.000000000  0.215958420

  length of vectors
     6.078033853  6.078033853  4.630521000     0.188023044  0.188023044  0.215958420

  position of ions in fractional coordinates (direct lattice)
     0.663962000  0.835851000  0.000000000
     0.164149000  0.336038000  0.000000000
     0.849043000  0.669581000  0.500000000
     0.330419000  0.150957000  0.500000000
     0.828875000  0.171125000  0.500000000
     0.323049000  0.676951000  0.500000000
     0.666445000  0.333555000  0.000000000
     0.174062000  0.825938000  0.000000000

  ion indices of the primitive-cell ions
   primitive index   ion index
                 1           1
                 2           2
                 3           3
                 4           4
                 5           5
                 6           6
                 7           7
                 8           8

 KPOINTS: pymatgen with grid density = 848 / numbe

Automatic generation of k-mesh.
 Grid dimensions read from file:
 generate k-points for:    4    4    5

 Generating k-lattice:

  Cartesian coordinates                     Fractional coordinates (reciprocal lattice)
     0.040491286 -0.023874617  0.000000000     0.250000000 -0.000000000  0.000000000
     0.040491286  0.023874617 -0.000000000    -0.000000000  0.250000000  0.000000000
    -0.000000000  0.000000000  0.043191684     0.000000000  0.000000000  0.200000000

  Length of vectors
     0.047005761  0.047005761  0.043191684

  Shift w.r.t. Gamma in fractional coordinates (k-lattice)
     0.000000000  0.000000000  0.000000000

 TETIRR: Found    122 inequivalent tetrahedra from      480

 Subroutine IBZKPT returns following result:

 Found     21 irreducible k-points:

 Following reciprocal coordinates:
            Coordinates               Weight
  0.000000  0.000000  0.000000      1.000000
  0.250000  0.000000  0.000000      4.000000
  0.500000  0.000000  0.000000      2.000000
  0.250000  0.250000  0.000000      2.000000
  0.500000  0.250000  0.000000      4.000000
 -0.250000  0.250000  0.000000      2.000000
  0.500000  0.500000  0.000000      1.000000
  0.000000  0.000000  0.200000      2.000000
  0.250000  0.000000  0.200000      8.000000
  0.500000  0.000000  0.200000      4.000000
  0.250000  0.250000  0.200000      4.000000
  0.500000  0.250000  0.200000      8.000000
 -0.250000  0.250000  0.200000      4.000000
  0.500000  0.500000  0.200000      2.000000
  0.000000  0.000000  0.400000      2.000000
  0.250000  0.000000  0.400000      8.000000
  0.500000  0.000000  0.400000      4.000000
  0.250000  0.250000  0.400000      4.000000
  0.500000  0.250000  0.400000      8.000000
 -0.250000  0.250000  0.400000      4.000000
  0.500000  0.500000  0.400000      2.000000

 Following cartesian coordinates:
            Coordinates               Weight
  0.000000  0.000000  0.000000      1.000000
  0.040491 -0.023875  0.000000      4.000000
  0.080983 -0.047749  0.000000      2.000000
  0.080983  0.000000  0.000000      2.000000
  0.121474 -0.023875  0.000000      4.000000
  0.000000  0.047749  0.000000      2.000000
  0.161965  0.000000  0.000000      1.000000
  0.000000  0.000000  0.043192      2.000000
  0.040491 -0.023875  0.043192      8.000000
  0.080983 -0.047749  0.043192      4.000000
  0.080983  0.000000  0.043192      4.000000
  0.121474 -0.023875  0.043192      8.000000
  0.000000  0.047749  0.043192      4.000000
  0.161965  0.000000  0.043192      2.000000
  0.000000  0.000000  0.086383      2.000000
  0.040491 -0.023875  0.086383      8.000000
  0.080983 -0.047749  0.086383      4.000000
  0.080983  0.000000  0.086383      4.000000
  0.121474 -0.023875  0.086383      8.000000
  0.000000  0.047749  0.086383      4.000000
  0.161965  0.000000  0.086383      2.000000

 SYSTEM =  unknown system
 POSCAR =  Mg6 Cr1 C1

 Startparameter for this run:
   NWRITE =      2    write-flag & timer
   PREC   = accura    normal or accurate (medium, high low for compatibility)
   ISTART =      0    job   : 0-new  1-cont  2-samecut
   ICHARG =      2    charge: 1-file 2-atom 10-const
   ISPIN  =      2    spin polarized calculation?
   LNONCOLLINEAR =      F non collinear calculations
   LSORBIT =      F    spin-orbit coupling
   INIWAV =      1    electr: 0-lowe 1-rand  2-diag
   LASPH  =      T    aspherical Exc in radial PAW
 Electronic Relaxation 1
   ENCUT  =  520.0 eV  38.22 Ry    6.18 a.u.  11.30 11.30  8.61*2*pi/ulx,y,z
   ENINI  =  520.0     initial cutoff
   ENAUG  =  758.8 eV  augmentation charge cutoff
   NELM   =    100;   NELMIN=  2; NELMDL= -5     # of ELM steps
   EDIFF  = 0.4E-03   stopping-criterion for ELM
   LREAL  =      T    real-space projection
   NLSPLINE    = F    spline interpolate recip. space projectors
   LCOMPAT=      F    compatible to vasp.4.4
   GGA_COMPAT  = T    GGA compatible to vasp.4.4-vasp.4.6
   LMAXPAW     = -100 max onsite density
   LMAXMIX     =    4 max onsite mixed and CHGCAR
   VOSKOWN=      0    Vosko Wilk Nusair interpolation
   ROPT   =   -0.00025  -0.00025  -0.00025
 Ionic relaxation
   EDIFFG = 0.4E-02   stopping-criterion for IOM
   NSW    =     99    number of steps for IOM
   NBLOCK =      1;   KBLOCK =     99    inner block; outer block
   IBRION =      2    ionic relax: 0-MD 1-quasi-New 2-CG
   NFREE  =      1    steps in history (QN), initial steepest desc. (CG)
   ISIF   =      3    stress and relaxation
   IWAVPR =     11    prediction:  0-non 1-charg 2-wave 3-comb
   ISYM   =      2    0-nonsym 1-usesym 2-fastsym
   LCORR  =      T    Harris-Foulkes like correction to forces

   POTIM  = 0.5000    time-step for ionic-motion
   TEIN   =    0.0    initial temperature
   TEBEG  =    0.0;   TEEND  =   0.0 temperature during run
   SMASS  =  -3.00    Nose mass-parameter (am)
   estimated Nose-frequenzy (Omega)   =  0.10E-29 period in steps = 0.13E+47 mass=  -0.844E-27a.u.
[...]
    electron-ion (+dipol)            ewald-force                    non-local-force                 convergence-correction
   0.445E+01 0.164E+02 0.858E-06   -.448E+01 -.160E+02 -.215E-15   -.159E-01 -.407E+00 0.000E+00   -.380E-02 0.777E-02 0.226E-12
   -.445E+01 0.164E+02 -.858E-06   0.448E+01 -.160E+02 -.594E-15   0.159E-01 -.407E+00 0.000E+00   0.380E-02 0.777E-02 0.849E-13
   -.511E+02 -.288E+02 -.288E-05   0.492E+02 0.289E+02 0.527E-14   0.190E+01 -.692E-01 0.000E+00   0.694E-02 0.634E-02 -.116E-12
   0.511E+02 -.288E+02 0.288E-05   -.492E+02 0.289E+02 0.529E-14   -.190E+01 -.692E-01 0.000E+00   -.694E-02 0.634E-02 -.118E-12
   0.230E-11 0.607E+02 0.139E-10   -.565E-13 -.593E+02 -.563E-14   0.139E-16 -.141E+01 0.000E+00   -.460E-13 -.150E-01 -.158E-12
   0.164E-11 0.475E+01 0.668E-11   -.165E-13 -.499E+01 -.149E-14   -.694E-17 0.256E+00 0.000E+00   0.360E-13 0.177E-03 -.235E-12
   0.263E-11 -.276E+02 0.177E-10   -.489E-14 0.274E+02 -.467E-14   -.347E-17 0.352E+00 0.000E+00   0.303E-13 -.363E-02 -.111E-12
   0.109E-12 -.110E+02 -.293E-12   -.563E-14 0.111E+02 0.166E-15   0.520E-17 -.310E+00 0.000E+00   0.122E-13 -.156E-02 0.437E-13
   0.978E-11 0.206E+01 0.339E-10   0.886E-14 0.533E-14 -.187E-14   0.231E-15 -.206E+01 0.000E+00   0.608E-13 0.823E-02 -.383E-12

 POSITION                                       TOTAL-FORCE (eV/Angst)
      4.63005      0.89996      0.00000        -0.042315      0.060934      0.000000
      1.54412      0.89996      0.00000         0.042315      0.060934      0.000000
      4.68812     -0.93961      2.31526        -0.002076     -0.012882      0.000000
      1.48605     -0.93961      2.31526         0.002076     -0.012882      0.000000
      3.08708     -3.44377      2.31526         0.000000      0.003039      0.000000
      3.08708      1.85292      2.31526         0.000000      0.021557      0.000000
      3.08708     -1.74291      0.00000         0.000000      0.066369      0.000000
      3.08708      3.41302      0.00000         0.000000     -0.187072      0.000000
    total drift:                                0.000000      0.007094      0.000000

  FREE ENERGIE OF THE ION-ELECTRON SYSTEM (eV)
  free  energy   TOTEN  =       -22.50227593 eV

  energy  without entropy=      -22.50227593  energy(sigma->0) =      -22.50227593

|           W    W    AA    RRRRR   N    N  II  N    N   GGGG   !!!           |
|           W    W   A  A   R    R  NN   N  II  NN   N  G    G  !!!           |
|           W    W  A    A  R    R  N N  N  II  N N  N  G       !!!           |
|           W WW W  AAAAAA  RRRRR   N  N N  II  N  N N  G  GGG   !            |
|           WW  WW  A    A  R   R   N   NN  II  N   NN  G    G                |
|           W    W  A    A  R    R  N    N  II  N    N   GGGG   !!!           |
|     Tetrahedron method does not include variations of the Fermi             |
|     occupations, so forces and stress will be inaccurate. We suggest        |
|     using a different smearing scheme ISMEAR = 1 or 2 for metals in         |
|     relaxations.                                                            |

[...]

 d Force = 0.2250808E-02[ 0.203E-02, 0.247E-02]  d Energy = 0.2405044E-02-0.154E-03
 d Force =-0.1576611E+00[-0.167E+00,-0.148E+00]  d Ewald  =-0.6571231E+00 0.499E+00

 Steepest descent step on ions:
 trial-energy change:   -0.002405  1 .order   -0.002305   -0.002531   -0.002080
  (g-gl).g = 0.253E-02      g.g   = 0.253E-02  gl.gl    = 0.000E+00
 g(Force)  = 0.247E-02   g(Stress)= 0.598E-04 ortho     = 0.000E+00
 gamma     =   0.00000
 trial     =   1.00000
 opt step  =   4.00000  (harmonic =   5.60738) maximal distance =0.01280733
 next E    =   -22.509372   (d E  =  -0.00710)

[...]

 d Force = 0.5193971E-02[ 0.430E-02, 0.609E-02]  d Energy = 0.7687497E-02-0.249E-02
 d Force =-0.5890229E+00[-0.676E+00,-0.502E+00]  d Ewald  =-0.2086001E+01 0.150E+01

[...]

 d Force = 0.2133800E-02[ 0.123E-02, 0.303E-02]  d Energy = 0.2807135E-02-0.673E-03
 d Force =-0.1275398E+00[-0.137E+00,-0.118E+00]  d Ewald  = 0.4430136E+01-0.456E+01

 Steepest descent step on ions:
 trial-energy change:   -0.002807  1 .order   -0.002866   -0.004049   -0.001683
  (g-gl).g = 0.235E-02      g.g   = 0.384E-02  gl.gl    = 0.253E-02
 g(Force)  = 0.288E-02   g(Stress)= 0.956E-03 ortho     = 0.149E-02
 gamma     =   0.00000
 trial     =   1.05523
 opt step  =   1.80597  (harmonic =   1.80597) maximal distance =0.00718535
 next E    =   -22.515834   (d E  =  -0.00347)

|           W    W    AA    RRRRR   N    N  II  N    N   GGGG   !!!           |
|           W    W   A  A   R    R  NN   N  II  NN   N  G    G  !!!           |
|           W    W  A    A  R    R  N N  N  II  N N  N  G       !!!           |
|           W WW W  AAAAAA  RRRRR   N  N N  II  N  N N  G  GGG   !            |
|           WW  WW  A    A  R   R   N   NN  II  N   NN  G    G                |
|           W    W  A    A  R    R  N    N  II  N    N   GGGG   !!!           |
|     Tetrahedron method does not include variations of the Fermi             |
|     occupations, so forces and stress will be inaccurate. We suggest        |
|     using a different smearing scheme ISMEAR = 1 or 2 for metals in         |
|     relaxations.                                                            |

--------------------------------------- Ionic step        5  -------------------------------------------

[...]

 eigenvalue-minimisations  :  4032
 total energy-change (2. order) :-0.4155544E-02  (-0.2710490E-02)
 number of electron      63.9999981 magnetization       4.1346161
 augmentation part       31.1226167 magnetization       2.2338516

[...]

 Broyden mixing:
  rms(total) = 0.17933E-01    rms(broyden)= 0.17930E-01
  rms(prec ) = 0.26391E-01
  weight for this iteration     100.00

 eigenvalues of (default mixing * dielectric matrix)
  average eigenvalue GAMMA=   0.7449
  1.1166  0.3732

[...]

--------------------------------------- Iteration      5(   4)  ---------------------------------------

[...]

 eigenvalue-minimisations  :  2727
 total energy-change (2. order) : 0.1524392E-03  (-0.6754663E-04)
 number of electron      63.9999981 magnetization       4.1363401
 augmentation part       31.0772194 magnetization       2.2270496

 Free energy of the ion-electron system (eV)
  alpha Z        PSCENC =       225.56113473
  Ewald energy   TEWEN  =     -4118.13466991
  -Hartree energ DENC   =     -2094.40069967
  -exchange      EXHF   =         0.00000000
  -V(xc)+E(xc)   XCENC  =       225.92805419
  PAW double counting   =      5179.42201055    -5936.57649663
  entropy T*S    EENTRO =         0.00000000
  eigenvalues    EBANDS =     -1639.57879524
  atomic energy  EATOM  =      8135.26314379
  Solvation  Ediel_sol  =         0.00000000
  free energy    TOTEN  =       -22.51631819 eV

  energy without entropy =      -22.51631819  energy(sigma->0) =      -22.51631819

 average (electrostatic) potential at core
  the test charge radii are     0.8294  1.0025  0.6991
  (the norm of the test charge is              1.0000)
       1 -44.3172       2 -44.3172       3 -44.3657       4 -44.3657       5 -43.9236
       6 -44.5299       7 -72.5583       8 -52.1148

 E-fermi :   3.2509     XC(G=0):  -9.5626     alpha+bet : -8.7980

 val. band max:        3.3389194542   @ k =   0.5000   0.0000   0.2000
 cond. band min:       3.1228512168   @ k =   0.0000   0.0000   0.4000
 fundamental gap:     -0.2160682374
 Fermi energy:         3.2509077025

[...]

 k-point    21 :       0.5000    0.5000    0.4000
  band No.  band energies     occupation
      1     -40.7480      1.00000
      2     -40.7271      1.00000
      3     -40.7196      1.00000
      4     -39.4552      1.00000
      5     -39.4509      1.00000
      6     -39.4390      1.00000
      7     -39.2977      1.00000
      8     -39.2908      1.00000
      9     -39.2875      1.00000
     10     -39.2807      1.00000
     11     -39.2778      1.00000
     12     -39.2656      1.00000
     13     -39.2448      1.00000
     14     -39.2425      1.00000
     15     -39.2401      1.00000
     16     -39.2279      1.00000
     17     -39.2079      1.00000
     18     -39.1936      1.00000
     19     -38.8342      1.00000
     20     -38.8319      1.00000
     21     -38.8276      1.00000
     22      -5.5864      1.00000
     23      -1.8106      1.00000
     24      -1.3913      1.00000
     25      -0.5475      1.00000
     26       0.1057      1.00000
     27       0.2937      1.00000
     28       1.1112      1.00000
     29       1.2772      1.00000
     30       1.6864      1.00000
     31       2.0140      1.00000
     32       2.0628      1.00000
     33       2.3365      1.00000
     34       2.7559      1.00000
     35       3.4659      0.12157
     36       4.3059      0.00000
     37       5.3406      0.00000
     38       5.4703      0.00000
     39       6.2536      0.00000
     40       7.2016      0.00000
     41       7.4590      0.00000
     42       7.8182      0.00000
     43       8.3075      0.00000
     44       8.4081      0.00000
     45       8.8472      0.00000
     46       9.4278      0.00000
     47       9.9924      0.00000
     48      10.0316      0.00000
 Fermi energy:         3.2509077025

 spin component 2

[...]

 k-point    21 :       0.5000    0.5000    0.4000
  band No.  band energies     occupation
      1     -39.4513      1.00000
      2     -39.4450      1.00000
      3     -39.4332      1.00000
      4     -39.2978      1.00000
      5     -39.2911      1.00000
      6     -39.2856      1.00000
      7     -39.2731      1.00000
      8     -39.2703      1.00000
      9     -39.2628      1.00000
     10     -39.2504      1.00000
     11     -39.2481      1.00000
     12     -39.2471      1.00000
     13     -39.2320      1.00000
     14     -39.2127      1.00000
     15     -39.2010      1.00000
     16     -38.8341      1.00000
     17     -38.8318      1.00000
     18     -38.8303      1.00000
     19     -37.1416      1.00000
     20     -37.1309      1.00000
     21     -37.0368      1.00000
     22      -5.7324      1.00000
     23      -1.7460      1.00000
     24      -1.2888      1.00000
     25      -0.4311      1.00000
     26       0.4962      1.00000
     27       0.6161      1.00000
     28       1.5920      1.00000
     29       1.7553      1.00000
     30       3.4972      0.40175
     31       3.9135     -0.00023
     32       4.2659      0.00000
     33       4.7129      0.00000
     34       4.7211      0.00000
     35       5.0839      0.00000
     36       5.3178      0.00000
     37       5.4940      0.00000
     38       5.7861      0.00000
     39       6.5081      0.00000
     40       7.2827      0.00000
     41       8.2154      0.00000
     42       8.3452      0.00000
     43       8.7354      0.00000
     44       8.9235      0.00000
     45       8.9323      0.00000
     46      10.0388      0.00000
     47      10.7259      0.00000
     48      10.9233      0.00000

[...]

 soft charge-density along one line, spin component            2
         0         1         2         3         4         5         6         7         8         9
 total charge-density along one line

------------------------ aborting loop because EDIFF is reached ----------------------------------------

[...]

  FORCE on cell =-STRESS in cart. coord.  units (eV):
  Direction    XX          YY          ZZ          XY          YZ          ZX
  Alpha Z   225.56113   225.56113   225.56113
  Ewald   -1466.03342 -1375.82954 -1276.27178    -0.00000    -0.00000     0.00000
  Hartree   633.83519   698.09245   761.78731    -0.00000     0.00000    -0.00000
  E(xc)    -354.60398  -354.54533  -354.46961    -0.00000     0.00000    -0.00000
  Local     359.93139   203.79461    44.25993     0.00000    -0.00000    -0.00000
  n-local  -407.56672  -406.67707  -406.14949     0.04936    -0.08213    -0.20978
  augment   246.62217   246.06389   245.94100    -0.00000     0.00000     0.00000
  Kinetic   762.43695   763.58015   759.43927     3.13342     0.50213     1.35083
  Fock        0.00000     0.00000     0.00000     0.00000     0.00000     0.00000
  Total       0.18270     0.04029     0.09775     0.00000     0.00000     0.00000
  in kB       1.96347     0.43299     1.05054     0.00000     0.00000     0.00000

 VOLUME and BASIS-vectors are now :
  energy-cutoff  :      520.00
  volume of cell :      149.08
      direct lattice vectors                 reciprocal lattice vectors
     3.084488813 -5.209340736  0.000000000     0.162101415 -0.095981435  0.000000000
     3.084488813  5.209340736  0.000000000     0.162101415  0.095981435 -0.000000000
     0.000000000  0.000000000  4.639140262    -0.000000000  0.000000000  0.215557182

  length of vectors
     6.054031891  6.054031891  4.639140262     0.188386052  0.188386052  0.215557182

 FORCES acting on ions
    electron-ion (+dipol)            ewald-force                    non-local-force                 convergence-correction
   0.940E+00 0.201E+02 0.953E-06   -.108E+01 -.194E+02 0.184E-14   0.744E-01 -.565E+00 0.000E+00   -.344E-01 -.275E-03 0.597E-11
   -.940E+00 0.201E+02 -.953E-06   0.108E+01 -.194E+02 0.178E-14   -.744E-01 -.565E+00 0.000E+00   0.344E-01 -.275E-03 -.462E-12
   -.524E+02 -.294E+02 -.275E-05   0.504E+02 0.296E+02 0.554E-14   0.197E+01 -.180E+00 0.000E+00   0.478E-01 -.652E-01 0.836E-11
   0.524E+02 -.294E+02 0.275E-05   -.504E+02 0.296E+02 -.747E-14   -.197E+01 -.180E+00 0.000E+00   -.478E-01 -.652E-01 0.320E-12
   -.104E-11 0.616E+02 0.289E-10   -.118E-12 -.602E+02 0.574E-14   0.000E+00 -.141E+01 0.000E+00   0.184E-11 0.246E-03 -.132E-10
   -.278E-12 0.554E+01 0.234E-11   0.313E-13 -.567E+01 -.188E-14   0.000E+00 0.560E-01 0.000E+00   -.652E-12 0.477E-01 0.185E-11
   -.527E-11 -.289E+02 -.165E-10   -.143E-12 0.287E+02 -.473E-14   0.347E-17 0.316E+00 0.000E+00   0.417E-11 -.147E-01 -.197E-11
   0.421E-12 -.165E+02 0.990E-12   -.210E-13 0.167E+02 -.933E-15   0.243E-16 -.547E+00 0.000E+00   -.375E-12 0.183E-01 -.806E-12
   0.550E-12 0.310E+01 -.350E-11   0.202E-13 0.355E-14 -.117E-15   0.250E-15 -.308E+01 0.000E+00   0.267E-11 -.793E-01 0.964E-13

 POSITION                                       TOTAL-FORCE (eV/Angst)
      4.62234      0.90861      0.00000        -0.100892      0.107286      0.000000
      1.54664      0.90861      0.00000         0.100892      0.107286      0.000000
      4.68290     -0.93019      2.31957        -0.016725     -0.035248      0.000000
      1.48608     -0.93019      2.31957         0.016725     -0.035248      0.000000
      3.08449     -3.42365      2.31957         0.000000     -0.017286      0.000000
      3.08449      1.84876      2.31957         0.000000     -0.011631      0.000000
      3.08449     -1.72503      0.00000         0.000000      0.118540      0.000000
      3.08449      3.34303      0.00000         0.000000     -0.233701      0.000000
    total drift:                                0.000000     -0.058662     -0.000000

  FREE ENERGIE OF THE ION-ELECTRON SYSTEM (eV)
  free  energy   TOTEN  =       -22.51631819 eV

  energy  without entropy=      -22.51631819  energy(sigma->0) =      -22.51631819

 d Force = 0.9460186E-03[ 0.101E-02, 0.879E-03]  d Energy = 0.1142585E-02-0.197E-03
 d Force =-0.1022884E+00[-0.107E+00,-0.975E-01]  d Ewald  = 0.3146172E+01-0.325E+01

 reached required accuracy - stopping structural energy minimisation
|           W    W    AA    RRRRR   N    N  II  N    N   GGGG   !!!           |
|           W    W   A  A   R    R  NN   N  II  NN   N  G    G  !!!           |
|           W    W  A    A  R    R  N N  N  II  N N  N  G       !!!           |
|           W WW W  AAAAAA  RRRRR   N  N N  II  N  N N  G  GGG   !            |
|           WW  WW  A    A  R   R   N   NN  II  N   NN  G    G                |
|           W    W  A    A  R    R  N    N  II  N    N   GGGG   !!!           |
|     Tetrahedron method does not include variations of the Fermi             |
|     occupations, so forces and stress will be inaccurate. We suggest        |
|     using a different smearing scheme ISMEAR = 1 or 2 for metals in         |
|     relaxations.                                                            |

 total charge

[...]

 magnetization (x)

# of ion       s       p       d       tot
    1       -0.008  -0.002   0.002  -0.008
    2       -0.008  -0.002   0.002  -0.008
    3       -0.003   0.007   0.002   0.006
    4       -0.003   0.007   0.002   0.006
    5       -0.006   0.003   0.003   0.000
    6        0.008   0.000  -0.000   0.009
    7        0.066   0.045   3.595   3.705
    8        0.007  -0.083   0.000  -0.076
tot          0.054  -0.025   3.604   3.633

 BZINTS: Fermi energy:    3.250908;   64.000000 electrons
         Band energy:-0.163958E+04;  BLOECHL correction:   -0.075994