 vasp.6.3.2 27Jun22 (build Jul  3 2023 11:46:21) complex
 executed on    LinuxNV_CrayMPICH date 2024.04.22  03:09:21

 INCAR:
   ADDGRID = True
   ALGO = Normal
   EDIFF = 0.0034
   ENCUT = 520.0
   IBRION = -1
   ICHARG = 0
   ISIF = 3
   ISMEAR = -5
   ISPIN = 2
   KPOINT_BSE = -1 0 0 0
   LAECHG = True
   LASPH = True
   LCHARG = True
   LELF = True
   LORBIT = 11
   LREAL = Auto
   LVHAR = True
   LWAVE = False
   MAGMOM = 8*7.0 56*5.0 4*0.6
   NELM = 1000
   NSW = 0
   PREC = accurate
   SIGMA = 0.05

 POTCAR:    PAW_PBE Gd 23Dec2003
 POTCAR:    PAW_PBE Fe_pv 02Aug2007
 POTCAR:    PAW_PBE B 06Sep2000
 POTCAR:    PAW_PBE Gd 23Dec2003
   VRHFIN =Gd : [core=Xe4]

   TITEL  = PAW_PBE Gd 23Dec2003
   POMASS =  157.250; ZVAL   =   18.000    mass and valenz
   ENMAX  =  256.472; ENMIN  =  192.354 eV

   TITEL  = PAW_PBE Fe_pv 02Aug2007
   POMASS =   55.847; ZVAL   =   14.000    mass and valenz
   ENMAX  =  293.238; ENMIN  =  219.928 eV

   TITEL  = PAW_PBE B 06Sep2000
   POMASS =   10.811; ZVAL   =    3.000    mass and valenz
   ENMAX  =  318.614; ENMIN  =  238.960 eV

 Optimization of the real space projectors (new method)

 maximal supplied QI-value         = 13.42
 optimisation between [QCUT,QGAM] = [ 11.67, 23.35] = [ 38.16,152.62] Ry
 Optimized for a Real-space Cutoff    1.63 Angstroem

   l    n(q)    QCUT    max X(q) W(low)/X(q) W(high)/X(q)  e(spline)
   0     11    11.673    10.501    0.14E-04    0.17E-05    0.21E-07
   0     11    11.673     9.148    0.21E-04    0.32E-05    0.45E-07
   1     11    11.673     4.035    0.33E-05    0.11E-04    0.84E-07
   1     11    11.673     4.388    0.11E-04    0.47E-04    0.34E-06
   2     10    11.673    20.656    0.12E-04    0.28E-04    0.54E-06
   2     10    11.673    12.651    0.11E-04    0.26E-04    0.51E-06
   3     10    11.673    61.921    0.19E-03    0.22E-03    0.23E-06
   3     10    11.673    48.328    0.20E-03    0.23E-03    0.23E-06
 Optimization of the real space projectors (new method)

[...]

   l    n(q)    QCUT    max X(q) W(low)/X(q) W(high)/X(q)  e(spline)
   1     10    11.565     4.267    0.91E-04    0.15E-03    0.13E-06
   1     10    11.565     5.750    0.14E-03    0.22E-03    0.20E-06
   2      9    11.565    53.656    0.13E-03    0.57E-04    0.16E-06
   2      9    11.565    49.521    0.13E-03    0.59E-04    0.16E-06
   0     10    11.565    31.246    0.61E-04    0.74E-05    0.89E-07
   0     10    11.565    12.201    0.44E-04    0.68E-05    0.74E-07
 Optimization of the real space projectors (new method)

 maximal supplied QI-value         = 22.11
 optimisation between [QCUT,QGAM] = [ 11.50, 23.22] = [ 37.02,150.92] Ry
 Optimized for a Real-space Cutoff    1.21 Angstroem

   l    n(q)    QCUT    max X(q) W(low)/X(q) W(high)/X(q)  e(spline)
   0      8    11.497    53.033    0.18E-03    0.30E-03    0.10E-06
   0      8    11.497    34.740    0.17E-03    0.29E-03    0.10E-06
   1      8    11.497    30.949    0.20E-03    0.12E-03    0.21E-06
   1      8    11.497    19.518    0.18E-03    0.11E-03    0.19E-06
  PAW_PBE Gd 23Dec2003                  :
  PAW_PBE Fe_pv 02Aug2007               :
  PAW_PBE B 06Sep2000                   :

 POSCAR: Gd8 Fe56 B4
  positions in direct lattice
 exchange correlation table for  LEXCH =        8
   RHO(1)=    0.500       N(1)  =     2000
   RHO(2)=  100.500       N(2)  =     4000

 VTST: version 4.2, (08/11/21)

 CHAIN: initializing optimizer

 OPT: Using VASP Dynamics algorithm
 CHAIN: Read ICHAIN             0

 POSCAR: Gd8 Fe56 B4
  positions in direct lattice

 ion  position               nearest neighbor table
   1  0.235  0.765  0.500-  33 3.01  38 3.01  42 3.01  45 3.01  17 3.01  22 3.01  49 3.05  54 3.05
                            58 3.05  61 3.05   9 3.09  11 3.09
   2  0.765  0.235  0.500-  34 3.01  37 3.01  41 3.01  46 3.01  18 3.01  21 3.01  50 3.05  53 3.05
                            57 3.05  62 3.05   9 3.09  11 3.09
   3  0.265  0.265  0.000-  35 3.01  40 3.01  43 3.01  48 3.01  19 3.01  24 3.01  51 3.05  56 3.05
                            59 3.05  64 3.05  10 3.09  12 3.09
   4  0.735  0.735  0.000-  36 3.01  39 3.01  44 3.01  47 3.01  20 3.01  23 3.01  52 3.05  55 3.05
                            60 3.05  63 3.05  10 3.09  12 3.09
   5  0.643  0.643  0.500-  65 2.86  54 3.05  57 3.05  62 3.05  49 3.05  23 3.08  20 3.08   6 3.54

   6  0.357  0.357  0.500-  66 2.86  53 3.05  58 3.05  61 3.05  50 3.05  24 3.08  19 3.08   5 3.54

[...]

   8  0.143  0.857  0.000-  68 2.86  55 3.05  59 3.05  64 3.05  52 3.05  22 3.08  17 3.08   7 3.54

   9  0.000  0.500  0.500-  33 2.45  34 2.45  37 2.45  38 2.45  49 2.55  50 2.55  53 2.55  54 2.55
                             1 3.09   2 3.09
  10  0.500  0.000  0.000-  35 2.45  36 2.45  39 2.45  40 2.45  51 2.55  52 2.55  55 2.55  56 2.55
                             3 3.09   4 3.09
  11  0.500  0.000  0.500-  41 2.45  42 2.45  45 2.45  46 2.45  57 2.55  58 2.55  61 2.55  62 2.55
                             1 3.09   2 3.09
  12  0.000  0.500  0.000-  43 2.45  44 2.45  47 2.45  48 2.45  59 2.55  60 2.55  63 2.55  64 2.55
                             3 3.09   4 3.09
  13  0.500  0.500  0.115-  67 2.07  68 2.07  63 2.47  64 2.47  55 2.47  56 2.47  25 2.50  26 2.50
                            15 2.75  23 2.76  24 2.76
  14  0.000  0.000  0.615-  65 2.07  66 2.07  61 2.47  62 2.47  53 2.47  54 2.47  27 2.50  28 2.50
                            16 2.75  21 2.76  22 2.76
  15  0.500  0.500  0.885-  67 2.07  68 2.07  59 2.47  60 2.47  51 2.47  52 2.47  29 2.50  30 2.50
                            13 2.75  19 2.76  20 2.76
  16  0.000  0.000  0.385-  65 2.07  66 2.07  57 2.47  58 2.47  49 2.47  50 2.47  31 2.50  32 2.50
                            14 2.75  17 2.76  18 2.76
  17  0.184  0.816  0.254-  33 2.62  42 2.62  40 2.63  47 2.63  31 2.64  32 2.64  55 2.69  64 2.69
                            58 2.72  49 2.72  25 2.76  16 2.76   1 3.01   8 3.08
  18  0.816  0.184  0.254-  34 2.62  41 2.62  39 2.63  48 2.63  31 2.64  32 2.64  56 2.69  63 2.69
                            57 2.72  50 2.72  26 2.76  16 2.76   2 3.01   7 3.08
  19  0.316  0.316  0.754-  35 2.62  43 2.62  38 2.63  46 2.63  29 2.64  30 2.64  53 2.69  61 2.69
                            59 2.72  51 2.72  27 2.76  15 2.76   3 3.01   6 3.08
  20  0.684  0.684  0.754-  36 2.62  44 2.62  37 2.63  45 2.63  29 2.64  30 2.64  54 2.69  62 2.69
                            60 2.72  52 2.72  28 2.76  15 2.76   4 3.01   5 3.08
  21  0.816  0.184  0.746-  37 2.62  46 2.62  43 2.63  36 2.63  27 2.64  28 2.64  51 2.69  60 2.69
                            53 2.72  62 2.72  29 2.76  14 2.76   2 3.01   7 3.08
  22  0.184  0.816  0.746-  38 2.62  45 2.62  44 2.63  35 2.63  27 2.64  28 2.64  52 2.69  59 2.69
                            54 2.72  61 2.72  30 2.76  14 2.76   1 3.01   8 3.08
  23  0.684  0.684  0.246-  39 2.62  47 2.62  42 2.63  34 2.63  25 2.64  26 2.64  49 2.69  57 2.69
                            55 2.72  63 2.72  31 2.76  13 2.76   4 3.01   5 3.08
  24  0.316  0.316  0.246-  40 2.62  48 2.62  41 2.63  33 2.63  25 2.64  26 2.64  50 2.69  58 2.69
                            56 2.72  64 2.72  32 2.76  13 2.76   3 3.01   6 3.08
  25  0.403  0.597  0.298-  33 2.37  42 2.37  26 2.40  13 2.50  55 2.59  64 2.59  24 2.64  23 2.64
                            17 2.76
  26  0.597  0.403  0.298-  34 2.37  41 2.37  25 2.40  13 2.50  56 2.59  63 2.59  24 2.64  23 2.64
                            18 2.76
  27  0.097  0.097  0.798-  35 2.37  43 2.37  28 2.40  14 2.50  53 2.59  61 2.59  22 2.64  21 2.64
                            19 2.76
  28  0.903  0.903  0.798-  36 2.37  44 2.37  27 2.40  14 2.50  54 2.59  62 2.59  22 2.64  21 2.64
                            20 2.76
  29  0.597  0.403  0.702-  37 2.37  46 2.37  30 2.40  15 2.50  51 2.59  60 2.59  20 2.64  19 2.64
                            21 2.76
  30  0.403  0.597  0.702-  38 2.37  45 2.37  29 2.40  15 2.50  52 2.59  59 2.59  20 2.64  19 2.64
                            22 2.76
  31  0.903  0.903  0.202-  39 2.37  47 2.37  32 2.40  16 2.50  49 2.59  57 2.59  18 2.64  17 2.64
                            23 2.76
  32  0.097  0.097  0.202-  40 2.37  48 2.37  31 2.40  16 2.50  50 2.59  58 2.59  18 2.64  17 2.64
                            24 2.76
  33  0.141  0.536  0.325-  25 2.37  50 2.45   9 2.45  64 2.50  49 2.52  47 2.54  48 2.54  34 2.55
                            17 2.62  24 2.63   1 3.01
  34  0.859  0.464  0.325-  26 2.37  49 2.45   9 2.45  63 2.50  50 2.52  48 2.54  47 2.54  33 2.55
                            18 2.62  23 2.63   2 3.01
  35  0.359  0.036  0.825-  27 2.37  52 2.45  10 2.45  61 2.50  51 2.52  46 2.54  45 2.54  36 2.55
                            19 2.62  22 2.63   3 3.01
  36  0.641  0.964  0.825-  28 2.37  51 2.45  10 2.45  62 2.50  52 2.52  45 2.54  46 2.54  35 2.55
                            20 2.62  21 2.63   4 3.01
  37  0.859  0.464  0.675-  29 2.37  54 2.45   9 2.45  60 2.50  53 2.52  43 2.54  44 2.54  38 2.55
                            21 2.62  20 2.63   2 3.01
  38  0.141  0.536  0.675-  30 2.37  53 2.45   9 2.45  59 2.50  54 2.52  44 2.54  43 2.54  37 2.55
                            22 2.62  19 2.63   1 3.01
  39  0.641  0.964  0.175-  31 2.37  56 2.45  10 2.45  57 2.50  55 2.52  42 2.54  41 2.54  40 2.55
                            23 2.62  18 2.63   4 3.01
  40  0.359  0.036  0.175-  32 2.37  55 2.45  10 2.45  58 2.50  56 2.52  41 2.54  42 2.54  39 2.55
                            24 2.62  17 2.63   3 3.01
  41  0.536  0.141  0.325-  26 2.37  58 2.45  11 2.45  56 2.50  57 2.52  40 2.54  39 2.54  42 2.55
                            18 2.62  24 2.63   2 3.01
  42  0.464  0.859  0.325-  25 2.37  57 2.45  11 2.45  55 2.50  58 2.52  39 2.54  40 2.54  41 2.55
                            17 2.62  23 2.63   1 3.01
  43  0.036  0.359  0.825-  27 2.37  60 2.45  12 2.45  53 2.50  59 2.52  37 2.54  38 2.54  44 2.55
                            19 2.62  21 2.63   3 3.01
  44  0.964  0.641  0.825-  28 2.37  59 2.45  12 2.45  54 2.50  60 2.52  38 2.54  37 2.54  43 2.55
                            20 2.62  22 2.63   4 3.01
  45  0.464  0.859  0.675-  30 2.37  62 2.45  11 2.45  52 2.50  61 2.52  36 2.54  35 2.54  46 2.55
                            22 2.62  20 2.63   1 3.01
  46  0.536  0.141  0.675-  29 2.37  61 2.45  11 2.45  51 2.50  62 2.52  35 2.54  36 2.54  45 2.55
                            21 2.62  19 2.63   2 3.01
  47  0.964  0.641  0.175-  31 2.37  64 2.45  12 2.45  49 2.50  63 2.52  33 2.54  34 2.54  48 2.55
                            23 2.62  17 2.63   4 3.01
  48  0.036  0.359  0.175-  32 2.37  63 2.45  12 2.45  50 2.50  64 2.52  34 2.54  33 2.54  47 2.55
                            24 2.62  18 2.63   3 3.01
  49  0.934  0.725  0.374-  65 2.06  34 2.45  16 2.47  47 2.50  33 2.52   9 2.55  57 2.58  31 2.59
                            23 2.69  17 2.72   5 3.05   1 3.05
  50  0.066  0.275  0.374-  66 2.06  33 2.45  16 2.47  48 2.50  34 2.52   9 2.55  58 2.58  32 2.59
                            24 2.69  18 2.72   6 3.05   2 3.05
  51  0.566  0.225  0.874-  67 2.06  36 2.45  15 2.47  46 2.50  35 2.52  10 2.55  60 2.58  29 2.59
                            21 2.69  19 2.72   7 3.05   3 3.05
[...]
  318                map_forward                           0.000359                    4   7
  319                  map_gather                            0.000068                  2   8
  320                  m_alltoallv_z                         0.000031                  2   8
  321                  map_scatter                           0.000220                  2   8
  322                map_backward                          0.000178                    2   7
  323                  map_gather                            0.000035                  1   8
  324                  m_alltoallv_z                         0.000013                  1   8
  325                  map_scatter                           0.000105                  1   8
  326          m_sumb_d                              0.000009                          2   4
  327          pothar                                0.000093                          1   4
  328            m_sumb_d                              0.000004                        1   5
  329        brmix                                 0.029603                            1   3
  330          m_sumb_d                              0.000238                          6   4
  331          brpre                                 0.000074                          2   4
  332          setg0                                 0.003247                          1   4
  333          broyd                                 0.022308                          1   4
  334            brget                                 0.005788                      326   5
  335            brsav                                 0.002779                      163   5
  336            m_sumb_d                              0.000213                       47   5
  337        m_bcast_d                             0.000115                            2   3
  338      potlok                                0.099183                              2   2
  339        fft3d_mpi                             0.062870                           36   3
  340          fftbrc_mpi                            0.053512                         36   4
  341            fftbas_plan_mpi                       0.053484                       36   5
  342              map_forward                           0.015203                     40   6
  343                map_gather                            0.003863                   24   7
  344                m_alltoallv_z                         0.006940                   24   7
  345                map_scatter                           0.004138                   24   7
  346              map_backward                          0.012009                     32   6
  347                map_gather                            0.002774                   16   7
  348                m_alltoallv_z                         0.005179                   16   7
  349                map_scatter                           0.003738                   16   7
  350              dfftw_execute                         0.024404                     30   6
  351        m_sumb_d                              0.000030                            5   3
  352        pothar                                0.004410                            2   3
  353          m_sumb_d                              0.000460                          2   4
  354        m_bcast_d                             0.006703                            4   3
  355      potlok_metagga                        0.000000                              1   2
  356      set_dd_magatom                        0.000004                              1   2
  357      set_dd_paw                            8.978013                              1   2
  358        m_sumb_d                              0.078219                            7   3
  359      augmentation_charge                   0.476628                              1   2
  360        fft3d_mpi                             0.189134                            2   3
  361          fftbrc_mpi                            0.164751                          2   4
  362            fftbas_plan_mpi                       0.164748                        2   5
  363              dfftw_execute                         0.106215                      6   6
  364              map_backward                          0.058208                      4   6
  365                map_gather                            0.021171                    2   7
  366                m_alltoallv_z                         0.014190                    2   7
  367                map_scatter                           0.022832                    2   7
  368      fftwav_mpi                           18.814330                           6624   2
  369        fftwav                               18.805712                         6624   3
  370          fft3d                                17.320927                       6624   4
  371      densta                               14.951494                              1   2

 Flat profile

 set_dd_paw                           2446.909631         273
 eddav                                 834.070796         275
 raccmu_                               589.617592     1136365
 lapack                                528.883001     1136365
 m_sumb_d                              407.823665     3435749
 redis_pw                              284.928192     6217614
 m_alltoall_d                          121.020736    16527350
 setdij_                                80.779125         299
 augmentation_charge                    78.691086         273
 eccp                                   76.512653      607200
 fft3d                                  70.288996     6632280
 dfftw_execute                          67.157504        6996
 orth1                                  58.878036     3409371
 redis_proj                             52.854155     7883156
 densta                                 52.711755         276
 hamiltmu                               51.158151     1136365
 phaser                                 47.453051        3378
 fftwav                                 42.850652     4359550
 total_time                             38.986254           1
 racc0mu_acc                            33.836210     1136365
 w1_copy                                32.784529     6818190
 overl                                  32.590789     3938272
 rpromu_acc                             28.012788      839941
 m_bcast_z                              26.282687     1145197
 ggemm                                  24.426734     1439965
 soft_charge                            22.825297         272
 setup_precond                          22.307265      607200
 m_bcast_d                              18.855422     2273281
 overl_mu                               17.691878     1136365
 pw_charge                              16.980858      385962
 fft3d_mpi                              15.639596     2282159
 map_scatter                            12.747884       10539
 map_gather                             11.771148       10539
 m_alltoallv_z                          10.813623       10539
 init_acc                               10.705647           1
 vhamil                                 10.374634     2272730
 kinhamil                               10.210934     2272730
 depsum                                 10.007779         272
 fftext_mpi                              9.553004     2272730
 newband                                 9.099747     1139665
 apply_precond                           9.084346     1665530
 set_charge                              8.379879         272
 fftwav_mpi                              5.799836     4359550
 acc_init_cublas                         3.381770           1
 broyd                                   3.241708         271
 potlok                                  2.653566         273
 rpro_isp                                1.624170          78
 brmix                                   1.286939         271
 sphpro_fast                             1.188972           2
 brget                                   1.087536       60215
 acc_init_cusolver                       1.022612           1
 rspher_all                              0.957048          14
 setg0                                   0.844893         273
 elmin                                   0.825824           1
 w1_projall                              0.819960      832765
 fftbas_plan_mpi                         0.536278        9429
 brsav                                   0.306615       17271
 acc_cufft_makeplan                      0.266445          19
 lincom                                  0.247670        3312
 truncate_high_frequency_w1              0.245574     2879930
 proall                                  0.204112           1
 orthch                                  0.142250           1
 map_backward                            0.093372        9962
 stufak                                  0.089165           1
 force_and_stress                        0.080651           1
 map_forward                             0.073810        8896
 fft_gq                                  0.068151         272
 choleski                                0.039388          12
 pothar                                  0.032264         274
 brpre                                   0.021626         542
 strnlr                                  0.014046           1
 strelo                                  0.007409           1
 strkin                                  0.006540           1
 fftbrc_mpi                              0.006048        9429
 inisym                                  0.005760           1
 fornlr                                  0.004649           1
 forhar                                  0.004546           2
 rsp                                     0.004428           1
 strehar                                 0.004101           1
 forloc                                  0.002265           1
 set_dd_magatom                          0.001230         273
 vectorpot                               0.001111         272
 brgrid                                  0.000521           1
 fordep                                  0.000365           1
 fewald                                  0.000358           1
 chggra                                  0.000325           1
 posmap                                  0.000262           2
 rcp                                     0.000109           1
 crpa_reader                             0.000027           1
 potlok_metagga                          0.000026         272
 acc_cufft_makeplans                     0.000013           3
 rotate_active_occupied_orbital          0.000001           1
 redis_pw_over_bands                     0.000000           1
  summed up times     6363.804052114487

 Accumulative profile

 total_time                           6363.804052           1
 elmin                                6220.984215           1
 eddav                                3398.492865         275
 set_dd_paw                           2455.734942         273
 hamiltmu                              739.286425     1136365
 raccmu_                               641.145680     1136365
 lapack                                528.883001     1136365
 m_sumb_d                              407.823665     3435749
 redis_pw                              347.462252     6217614
 set_charge                            211.775831         272
 newband                               156.863400     1139665
 setdij_                               141.906403         299
 fft3d_mpi                             135.016699     2282159
 augmentation_charge                   131.536310         273
 m_alltoall_d                          121.020736    16527350
 redis_proj                            111.340830     7883156
 fftbrc_mpi                            103.199667        9429
 fftbas_plan_mpi                       103.193619        9429
 fftwav_mpi                            102.762048     4359550
 fftwav                                 96.962212     4359550
 eccp                                   76.512653      607200
 fft3d                                  70.288996     6632280
 dfftw_execute                          67.157504        6996
 soft_charge                            60.885324         272
 orth1                                  58.878036     3409371
 densta                                 52.711755         276
 phaser                                 47.453051        3378
 kinhamil                               36.607960     2272730
 racc0mu_acc                            33.836210     1136365
 w1_copy                                32.784529     6818190
 overl                                  32.590789     3938272
 force_and_stress                       30.136215           1
 rpromu_acc                             28.012788      839941
 fftext_mpi                             26.397025     2272730
 m_bcast_z                              26.282687     1145197
 w1_projall                             25.128659      832765
 ggemm                                  24.426734     1439965
 setup_precond                          22.307265      607200
 map_backward                           19.864199        9962
 m_bcast_d                              18.855422     2273281
 overl_mu                               17.691878     1136365
 pw_charge                              16.980858      385962
 map_forward                            15.635638        8896
 map_scatter                            12.747884       10539
 map_gather                             11.771148       10539
 m_alltoallv_z                          10.813623       10539
 init_acc                               10.705647           1
 vhamil                                 10.374634     2272730
 depsum                                 10.206091         272
 apply_precond                           9.084346     1665530
 brmix                                   6.884125         271
 rpro_isp                                6.419045          78
 strnlr                                  5.996439           1
 potlok                                  4.708294         273
 broyd                                   4.698290         271
 acc_init_cublas                         3.381770           1
 fordep                                  2.843702           1
 fornlr                                  1.995277           1
 fft_gq                                  1.732362         272
 sphpro_fast                             1.239087           2
 brget                                   1.087536       60215
 acc_init_cusolver                       1.022612           1
 rspher_all                              0.957048          14
 orthch                                  0.850289           1
 setg0                                   0.844893         273
 proall                                  0.629788           1
 brsav                                   0.306615       17271
 acc_cufft_makeplans                     0.266458           3
 acc_cufft_makeplan                      0.266445          19
 lincom                                  0.247670        3312
 truncate_high_frequency_w1              0.245574     2879930
 stufak                                  0.089165           1
 choleski                                0.039388          12
 pothar                                  0.035653         274
 brpre                                   0.021626         542
 strelo                                  0.007418           1
 strkin                                  0.006552           1
 inisym                                  0.006022           1
 forloc                                  0.005188           1
 fewald                                  0.005105           1
 forhar                                  0.004588           2
 rsp                                     0.004428           1
 strehar                                 0.004109           1
 set_dd_magatom                          0.001230         273
 chggra                                  0.001216           1
 vectorpot                               0.001111         272
 brgrid                                  0.000521           1
 posmap                                  0.000262           2
 rcp                                     0.000109           1
 crpa_reader                             0.000027           1
 potlok_metagga                          0.000026         272
 rotate_active_occupied_orbital          0.000001           1
 redis_pw_over_bands                     0.000000           1

Profiling took  14.261289  6.757951  0.003403  0.003292 seconds
Profiling took   8.793149 seconds