 vasp.6.3.2 27Jun22 (build Jul  3 2023 11:46:21) complex
 executed on    LinuxNV_CrayMPICH date 2024.04.22  00:11:43

 INCAR:
   ADDGRID = True
   ALGO = Normal
   EDIFF = 0.00025
   ENCUT = 520.0
   IBRION = -1
   ICHARG = 0
   ISIF = 3
   ISMEAR = -5
   ISPIN = 2
   KPOINT_BSE = -1 0 0 0
   LAECHG = True
   LASPH = True
   LCHARG = True
   LELF = True
   LORBIT = 11
   LREAL = Auto
   LVHAR = True
   LWAVE = False
   MAGMOM = 1*7.0 4*0.6
   NELM = 1000
   NSW = 0
   PREC = accurate
   SIGMA = 0.05

 POTCAR:    PAW_PBE Gd 23Dec2003
 POTCAR:    PAW_PBE Si 05Jan2001
 POTCAR:    PAW_PBE Ir 06Sep2000
 POTCAR:    PAW_PBE Gd 23Dec2003
   VRHFIN =Gd : [core=Xe4]

   TITEL  = PAW_PBE Gd 23Dec2003
   POMASS =  157.250; ZVAL   =   18.000    mass and valenz
   ENMAX  =  256.472; ENMIN  =  192.354 eV

   TITEL  = PAW_PBE Si 05Jan2001
   POMASS =   28.085; ZVAL   =    4.000    mass and valenz
   ENMAX  =  245.345; ENMIN  =  184.009 eV

   TITEL  = PAW_PBE Ir 06Sep2000
   POMASS =  192.220; ZVAL   =    9.000    mass and valenz
   ENMAX  =  210.864; ENMIN  =  158.148 eV

 Optimization of the real space projectors (new method)

 maximal supplied QI-value         = 13.42
 optimisation between [QCUT,QGAM] = [ 11.67, 23.35] = [ 38.16,152.62] Ry
 Optimized for a Real-space Cutoff    1.63 Angstroem

   l    n(q)    QCUT    max X(q) W(low)/X(q) W(high)/X(q)  e(spline)
   0     11    11.673    10.501    0.14E-04    0.17E-05    0.21E-07
   0     11    11.673     9.148    0.21E-04    0.32E-05    0.45E-07
   1     11    11.673     4.035    0.33E-05    0.11E-04    0.84E-07
   1     11    11.673     4.388    0.11E-04    0.47E-04    0.34E-06
   2     10    11.673    20.656    0.12E-04    0.28E-04    0.54E-06
   2     10    11.673    12.651    0.11E-04    0.26E-04    0.51E-06
   3     10    11.673    61.921    0.19E-03    0.22E-03    0.23E-06
   3     10    11.673    48.328    0.20E-03    0.23E-03    0.23E-06
 Optimization of the real space projectors (new method)

[...]

   l    n(q)    QCUT    max X(q) W(low)/X(q) W(high)/X(q)  e(spline)
   0      8    11.508   159.560    0.71E-04    0.15E-03    0.51E-07
   0      8    11.508   115.863    0.70E-04    0.15E-03    0.51E-07
   1      8    11.508    88.339    0.16E-03    0.38E-04    0.82E-07
   1      8    11.508    48.592    0.15E-03    0.36E-04    0.79E-07
 Optimization of the real space projectors (new method)

 maximal supplied QI-value         = 14.36
 optimisation between [QCUT,QGAM] = [ 11.63, 23.27] = [ 37.90,151.59] Ry
 Optimized for a Real-space Cutoff    1.63 Angstroem

   l    n(q)    QCUT    max X(q) W(low)/X(q) W(high)/X(q)  e(spline)
   2     10    11.633   134.116    0.23E-03    0.25E-04    0.92E-06
   2     10    11.633   130.192    0.23E-03    0.25E-04    0.92E-06
   0     11    11.633    60.310    0.44E-04    0.29E-04    0.76E-06
   0     11    11.633    39.218    0.38E-04    0.27E-04    0.71E-06
   1     11    11.633    18.439    0.37E-04    0.62E-04    0.19E-06
   1     11    11.633    12.760    0.29E-04    0.50E-04    0.16E-06
  PAW_PBE Gd 23Dec2003                  :
  PAW_PBE Si 05Jan2001                  :
  PAW_PBE Ir 06Sep2000                  :

 POSCAR: Gd1 Si2 Ir2
  positions in direct lattice
 exchange correlation table for  LEXCH =        8
   RHO(1)=    0.500       N(1)  =     2000
   RHO(2)=  100.500       N(2)  =     4000

 VTST: version 4.2, (08/11/21)

 CHAIN: initializing optimizer

 OPT: Using VASP Dynamics algorithm
 CHAIN: Read ICHAIN             0

 POSCAR: Gd1 Si2 Ir2
  positions in direct lattice

 ion  position               nearest neighbor table
   1  0.000  0.000  0.000-   2 3.15   2 3.15   2 3.15   3 3.15   2 3.15   3 3.15   3 3.15   3 3.15
                             4 3.25   4 3.25   5 3.25   5 3.25   5 3.25   4 3.25   4 3.25   5 3.25
   2  0.622  0.622  0.000-   4 2.42   5 2.42   4 2.42   5 2.42   3 2.46   1 3.15   1 3.15   1 3.15
                             1 3.15
   3  0.378  0.378  0.000-   4 2.42   5 2.42   4 2.42   5 2.42   2 2.46   1 3.15   1 3.15   1 3.15
                             1 3.15
   4  0.250  0.750  0.500-   3 2.42   2 2.42   3 2.42   2 2.42   5 2.90   5 2.90   5 2.90   5 2.90
                             1 3.25   1 3.25   1 3.25   1 3.25
   5  0.750  0.250  0.500-   3 2.42   2 2.42   3 2.42   2 2.42   4 2.90   4 2.90   4 2.90   4 2.90
                             1 3.25   1 3.25   1 3.25   1 3.25

  LATTYP: Found a body centered tetragonal cell.
 ALAT       =     4.0947820000
 C/A-ratio  =     2.4599399919

  Lattice vectors:

 A1 = (  -2.0473910000,   2.0473910000,   5.0364590000)
 A2 = (   2.0473910000,  -2.0473910000,   5.0364590000)
 A3 = (   2.0473910000,   2.0473910000,  -5.0364590000)

Analysis of symmetry for initial positions (statically):
 Subroutine PRICEL returns:
 Original cell was already a primitive cell.

 Routine SETGRP: Setting up the symmetry group for a
 body centered tetragonal supercell.

 Subroutine GETGRP returns: Found 16 space group operations
 (whereof 16 operations were pure point group operations)
 out of a pool of 16 trial point group operations.

The static configuration has the point symmetry D_4h.

Analysis of symmetry for dynamics (positions and initial velocities):
 Subroutine PRICEL returns:
 Original cell was already a primitive cell.

[...]

The dynamic configuration has the point symmetry D_4h.

Analysis of structural, dynamic, and magnetic symmetry:
 Subroutine PRICEL returns:
 Original cell was already a primitive cell.

 Routine SETGRP: Setting up the symmetry group for a
 body centered tetragonal supercell.

 Subroutine GETGRP returns: Found 16 space group operations
 (whereof 16 operations were pure point group operations)
 out of a pool of 16 trial point group operations.

The overall configuration has the point symmetry D_4h.

 Subroutine INISYM returns: Found 16 space group operations
 (whereof 16 operations are pure point group operations),
 and found     1 'primitive' translations

                                     Primitive cell

  volume of cell :      84.4475

  direct lattice vectors                    reciprocal lattice vectors
    -2.047391000  2.047391000  5.036459000     0.000000000  0.244213245  0.099276099
     2.047391000 -2.047391000  5.036459000     0.244213245  0.000000000  0.099276099
     2.047391000  2.047391000 -5.036459000     0.244213245  0.244213245  0.000000000

  length of vectors
     5.809435349  5.809435349  5.809435349     0.263620661  0.263620661  0.345369683

  position of ions in fractional coordinates (direct lattice)
     0.000000000  0.000000000  0.000000000
     0.622078000  0.622078000  0.000000000
     0.377922000  0.377922000  0.000000000
     0.250000000  0.750000000  0.500000000
     0.750000000  0.250000000  0.500000000

  ion indices of the primitive-cell ions
   primitive index   ion index
                 1           1
                 2           2
                 3           3
                 4           4
                 5           5

 KPOINTS: Kpoints from vasprun.xml

Automatic generation of k-mesh.
 Grid dimensions read from file:
 generate k-points for:    6    6    6

 Generating k-lattice:

  Cartesian coordinates                     Fractional coordinates (reciprocal lattice)
     0.000000000  0.040702208  0.016546016     0.166666667  0.000000000  0.000000000
     0.040702208  0.000000000  0.016546016    -0.000000000  0.166666667  0.000000000
     0.040702208  0.040702208  0.000000000    -0.000000000  0.000000000  0.166666667

  Length of vectors
     0.043936777  0.043936777  0.057561614

  Shift w.r.t. Gamma in fractional coordinates (k-lattice)
     0.000000000  0.000000000  0.000000000

 TETIRR: Found    277 inequivalent tetrahedra from     1296

 Subroutine IBZKPT returns following result:

 Found     30 irreducible k-points:

 Following reciprocal coordinates:
            Coordinates               Weight
  0.000000  0.000000  0.000000      1.000000
  0.166667  0.000000  0.000000      8.000000
  0.333333  0.000000  0.000000      8.000000
  0.500000  0.000000  0.000000      4.000000
  0.166667  0.166667  0.000000      8.000000
  0.333333  0.166667  0.000000     16.000000
  0.500000  0.166667  0.000000     16.000000
 -0.333333  0.166667  0.000000     16.000000
 -0.166667  0.166667  0.000000      4.000000
  0.333333  0.333333  0.000000      8.000000
  0.500000  0.333333  0.000000     16.000000
 -0.333333  0.333333  0.000000      4.000000
  0.500000  0.500000  0.000000      2.000000
  0.166667  0.166667  0.166667      8.000000
  0.333333  0.166667  0.166667      8.000000
 -0.166667  0.166667  0.166667      4.000000
  0.333333  0.333333  0.166667      4.000000
 -0.333333  0.333333  0.166667      8.000000
 -0.166667  0.333333  0.166667      8.000000
  0.500000  0.500000  0.166667      4.000000
 -0.333333  0.500000  0.166667     16.000000
 -0.166667  0.500000  0.166667      8.000000
 -0.333333 -0.333333  0.166667      8.000000
 -0.166667 -0.333333  0.166667      8.000000
 -0.166667 -0.166667  0.166667      2.000000
 -0.333333  0.333333  0.333333      4.000000
  0.500000  0.500000  0.333333      4.000000
 -0.333333  0.500000  0.333333      8.000000
 -0.333333 -0.333333  0.333333      2.000000
  0.500000  0.500000  0.500000      1.000000

 Following cartesian coordinates:
            Coordinates               Weight
  0.000000  0.000000  0.000000      1.000000
  0.000000  0.040702  0.016546      8.000000
  0.000000  0.081404  0.033092      8.000000
  0.000000  0.122107  0.049638      4.000000
  0.040702  0.040702  0.033092      8.000000
  0.040702  0.081404  0.049638     16.000000
  0.040702  0.122107  0.066184     16.000000
  0.040702 -0.081404 -0.016546     16.000000
  0.040702 -0.040702  0.000000      4.000000
  0.081404  0.081404  0.066184      8.000000
  0.081404  0.122107  0.082730     16.000000
  0.081404 -0.081404  0.000000      4.000000
  0.122107  0.122107  0.099276      2.000000
  0.081404  0.081404  0.033092      8.000000
  0.081404  0.122107  0.049638      8.000000
  0.081404  0.000000  0.000000      4.000000
  0.122107  0.122107  0.066184      4.000000
  0.122107 -0.040702  0.000000      8.000000
  0.122107  0.000000  0.016546      8.000000
  0.162809  0.162809  0.099276      4.000000
  0.162809 -0.040702  0.016546     16.000000
  0.162809  0.000000  0.033092      8.000000
 -0.040702 -0.040702 -0.066184      8.000000
 -0.040702  0.000000 -0.049638      8.000000
  0.000000  0.000000 -0.033092      2.000000
  0.162809  0.000000  0.000000      4.000000
  0.203511  0.203511  0.099276      4.000000
  0.203511  0.000000  0.016546      8.000000
  0.000000  0.000000 -0.066184      2.000000
  0.244213  0.244213  0.099276      1.000000

 SYSTEM =  unknown system
 POSCAR =  Gd1 Si2 Ir2

 Startparameter for this run:
   NWRITE =      2    write-flag & timer
   PREC   = accura    normal or accurate (medium, high low for compatibility)
   ISTART =      0    job   : 0-new  1-cont  2-samecut
   ICHARG =      0    charge: 1-file 2-atom 10-const
   ISPIN  =      2    spin polarized calculation?
   LNONCOLLINEAR =      F non collinear calculations
   LSORBIT =      F    spin-orbit coupling
   INIWAV =      1    electr: 0-lowe 1-rand  2-diag
   LASPH  =      T    aspherical Exc in radial PAW
[...]
  318                map_forward                           0.000186                    4   7
  319                  map_gather                            0.000044                  2   8
  320                  m_alltoallv_z                         0.000027                  2   8
  321                  map_scatter                           0.000088                  2   8
  322                map_backward                          0.000087                    2   7
  323                  map_gather                            0.000020                  1   8
  324                  m_alltoallv_z                         0.000012                  1   8
  325                  map_scatter                           0.000040                  1   8
  326          m_sumb_d                              0.000009                          2   4
  327          pothar                                0.000081                          1   4
  328            m_sumb_d                              0.000009                        1   5
  329        brmix                                 0.005990                            1   3
  330          m_sumb_d                              0.000032                          6   4
  331          brpre                                 0.000017                          2   4
  332          setg0                                 0.000778                          1   4
  333          broyd                                 0.004169                          1   4
  334            brget                                 0.000974                      326   5
  335            brsav                                 0.000479                      163   5
  336            m_sumb_d                              0.000396                       47   5
  337        m_bcast_d                             0.000021                            2   3
  338      potlok                                0.027100                              2   2
  339        fft3d_mpi                             0.018238                           36   3
  340          fftbrc_mpi                            0.015481                         36   4
  341            fftbas_plan_mpi                       0.015461                       36   5
  342              map_forward                           0.004614                     40   6
  343                map_gather                            0.001541                   24   7
  344                m_alltoallv_z                         0.001529                   24   7
  345                map_scatter                           0.001362                   24   7
  346              map_backward                          0.003764                     32   6
  347                map_gather                            0.001273                   16   7
  348                m_alltoallv_z                         0.001123                   16   7
  349                map_scatter                           0.001177                   16   7
  350              dfftw_execute                         0.005340                     30   6
  351        m_sumb_d                              0.000025                            5   3
  352        pothar                                0.001123                            2   3
  353          m_sumb_d                              0.000076                          2   4
  354        m_bcast_d                             0.001910                            4   3
  355      potlok_metagga                        0.000001                              1   2
  356      set_dd_magatom                        0.000005                              1   2
  357      set_dd_paw                            1.396248                              1   2
  358        m_sumb_d                              0.934306                            7   3
  359      augmentation_charge                   0.153036                              1   2
  360        fft3d_mpi                             0.032784                            2   3
  361          fftbrc_mpi                            0.028297                          2   4
  362            fftbas_plan_mpi                       0.028293                        2   5
  363              dfftw_execute                         0.018760                      6   6
  364              map_backward                          0.009272                      4   6
  365                map_gather                            0.002441                    2   7
  366                m_alltoallv_z                         0.004219                    2   7
  367                map_scatter                           0.002603                    2   7
  368      fftwav_mpi                            1.130271                           1440   2
  369        fftwav                                1.128446                         1440   3
  370          fft3d                                 1.084272                       1440   4
  371      densta                                0.621564                              1   2

 Flat profile

 m_sumb_d                              106.527303      282821
 raccmu_                                83.081656       89793
 set_dd_paw                             42.772930          93
 lapack                                 41.405729       89793
 eddav                                  41.385990          95
 phaser                                 21.397702        6090
 redis_pw                               16.474296      504678
 setdij_                                13.711284         119
 augmentation_charge                    11.144987          93
 total_time                             10.810861           1
 init_acc                               10.677261           1
 m_alltoall_d                            9.273003     1305102
 densta                                  7.910318          96
 fft3d                                   5.306703      533985
 dfftw_execute                           4.996675        2676
 redis_proj                              4.290069      638724
 eccp                                    4.203964       45600
 fftwav                                  3.386180      354399
 orth1                                   2.917994      269439
 soft_charge                             2.737158          92
 w1_copy                                 2.647276      538758
 racc0mu_acc                             2.627697       89793
 overl                                   2.560849      313632
 acc_init_cublas                         2.421940           1
 hamiltmu                                2.266362       89793
 rpromu_acc                              2.233780       68553
 m_bcast_z                               1.902226       91713
 setup_precond                           1.657443       45600
 m_bcast_d                               1.500940      179777
 overl_mu                                1.367683       89793
 m_alltoallv_z                           1.360651        3699
 ggemm                                   1.159239      112593
 fft3d_mpi                               1.040394      182895
 pw_charge                               0.929628       33147
 vhamil                                  0.840354      179586
 map_scatter                             0.823788        3699
 kinhamil                                0.820786      179586
 acc_init_cusolver                       0.789704           1
 fftext_mpi                              0.755166      179586
 set_charge                              0.742998          92
 apply_precond                           0.742600      133986
 newband                                 0.725375       95493
 depsum                                  0.714926          92
 map_gather                              0.693025        3699
 fftwav_mpi                              0.461109      354399
 rpro_isp                                0.427600         390
 potlok                                  0.321339          93
 rspher_all                              0.226524          14
 broyd                                   0.220867          91
 fftbas_plan_mpi                         0.194208        3309
 elmin                                   0.174866           1
 lincom                                  0.171891        5760
 acc_cufft_makeplan                      0.118534          19
 brmix                                   0.085974          91
 w1_projall                              0.072786       66993
 setg0                                   0.072358          93
 brget                                   0.050466       16583
 proall                                  0.044208           1
 sphpro_fast                             0.034364           2
 map_backward                            0.019411        3482
 truncate_high_frequency_w1              0.018093      225186
 map_forward                             0.017637        3136
 brsav                                   0.013575        4563
 orthch                                  0.012718           1
 choleski                                0.009760          60
 force_and_stress                        0.009691           1
 strnlr                                  0.008066           1
 pothar                                  0.007999          94
 inisym                                  0.004481           1
 fft_gq                                  0.003314          92
 stufak                                  0.003042           1
 fornlr                                  0.002783           1
 fftbrc_mpi                              0.002029        3309
 forhar                                  0.001963           2
 brpre                                   0.001851         182
 strelo                                  0.001620           1
 strehar                                 0.001247           1
 forloc                                  0.001029           1
 set_dd_magatom                          0.000442          93
 vectorpot                               0.000396          92
 fewald                                  0.000346           1
 chggra                                  0.000237           1
 strkin                                  0.000214           1
 brgrid                                  0.000142           1
 rsp                                     0.000093           1
 fordep                                  0.000049           1
 crpa_reader                             0.000027           1
 posmap                                  0.000023           2
 rcp                                     0.000012           1
 acc_cufft_makeplans                     0.000012           3
 potlok_metagga                          0.000008          92
 rotate_active_occupied_orbital          0.000000           1
 redis_pw_over_bands                     0.000000           1
  summed up times     480.5562911033630

 Accumulative profile

 total_time                            480.556291           1
 elmin                                 442.648106           1
 eddav                                 273.058586          95
 set_dd_paw                            128.788506          93
 m_sumb_d                              106.527303      282821
 hamiltmu                               93.087225       89793
 raccmu_                                87.077036       89793
 lapack                                 41.405729       89793
 phaser                                 21.397702        6090
 redis_pw                               20.985570      504678
 set_charge                             20.977769          92
 setdij_                                18.905166         119
 augmentation_charge                    14.246355          93
 init_acc                               10.677261           1
 fft3d_mpi                              10.422232      182895
 newband                                 9.886152       95493
 m_alltoall_d                            9.273003     1305102
 redis_proj                              9.051797      638724
 force_and_stress                        8.146601           1
 fftbrc_mpi                              8.107424        3309
 fftbas_plan_mpi                         8.105395        3309
 densta                                  7.910318          96
 fftwav_mpi                              7.879578      354399
 fftwav                                  7.418469      354399
 soft_charge                             5.308281          92
 fft3d                                   5.306703      533985
 dfftw_execute                           4.996675        2676
 eccp                                    4.203964       45600
 orth1                                   2.917994      269439
 kinhamil                                2.903474      179586
 w1_copy                                 2.647276      538758
 racc0mu_acc                             2.627697       89793
 overl                                   2.560849      313632
 acc_init_cublas                         2.421940           1
 rpromu_acc                              2.233780       68553
 fftext_mpi                              2.082688      179586
 w1_projall                              2.003422       66993
 m_bcast_z                               1.902226       91713
 strnlr                                  1.797407           1
 setup_precond                           1.657443       45600
 map_forward                             1.576167        3136
 m_bcast_d                               1.500940      179777
 overl_mu                                1.367683       89793
 m_alltoallv_z                           1.360651        3699
 map_backward                            1.338346        3482
 ggemm                                   1.159239      112593
 fordep                                  0.942923           1
 pw_charge                               0.929628       33147
 potlok                                  0.920336          93
 rpro_isp                                0.919920         390
 vhamil                                  0.840354      179586
 map_scatter                             0.823788        3699
 acc_init_cusolver                       0.789704           1
 apply_precond                           0.742600      133986
 depsum                                  0.721858          92
 map_gather                              0.693025        3699
 fornlr                                  0.598617           1
 brmix                                   0.476037          91
 broyd                                   0.311129          91
 orthch                                  0.295585           1
 rspher_all                              0.226524          14
 proall                                  0.181191           1
 lincom                                  0.171891        5760
 fft_gq                                  0.158248          92
 acc_cufft_makeplans                     0.118546           3
 acc_cufft_makeplan                      0.118534          19
 setg0                                   0.072358          93
 brget                                   0.050466       16583
 sphpro_fast                             0.035244           2
 truncate_high_frequency_w1              0.018093      225186
 brsav                                   0.013575        4563
 choleski                                0.009760          60
 pothar                                  0.008906          94
 inisym                                  0.004504           1
 stufak                                  0.003042           1
 forhar                                  0.001970           2
 brpre                                   0.001851         182
 strelo                                  0.001735           1
 strehar                                 0.001255           1
 forloc                                  0.001043           1
 chggra                                  0.000788           1
 fewald                                  0.000520           1
 set_dd_magatom                          0.000442          93
 vectorpot                               0.000396          92
 strkin                                  0.000229           1
 brgrid                                  0.000142           1
 rsp                                     0.000093           1
 crpa_reader                             0.000027           1
 posmap                                  0.000023           2
 rcp                                     0.000012           1
 potlok_metagga                          0.000008          92
 rotate_active_occupied_orbital          0.000000           1
 redis_pw_over_bands                     0.000000           1

Profiling took   1.115664  0.552726  0.003210  0.003119 seconds
Profiling took   0.705875 seconds