 vasp.6.3.2 27Jun22 (build Jul  3 2023 11:46:21) complex
 executed on    LinuxNV_CrayMPICH date 2024.04.21  20:20:18

 INCAR:
   ALGO = Fast
   EDIFF = 0.00085
   ENCUT = 520.0
   IBRION = 2
   ICHARG = 1
   ISIF = 3
   ISMEAR = 0
   ISPIN = 2
   ISTART = 1
   KPOINT_BSE = -1 0 0 0
   LORBIT = 11
   LREAL = Auto
   LWAVE = False
   MAGMOM = 1*7.0 16*0.6
   NELM = 1000
   NSW = 99
   PREC = accurate
   SIGMA = 0.05

 POTCAR:    PAW_PBE Eu 23Dec2003
 POTCAR:    PAW_PBE Ge_d 03Jul2007
 POTCAR:    PAW_PBE Pt 04Feb2005
 POTCAR:    PAW_PBE Eu 23Dec2003
   VRHFIN =Eu : [core=Kr4d]

   TITEL  = PAW_PBE Eu 23Dec2003
   POMASS =  151.965; ZVAL   =   17.000    mass and valenz
   ENMAX  =  249.668; ENMIN  =  187.251 eV

   TITEL  = PAW_PBE Ge_d 03Jul2007
   POMASS =   72.610; ZVAL   =   14.000    mass and valenz
   ENMAX  =  310.294; ENMIN  =  232.720 eV

   TITEL  = PAW_PBE Pt 04Feb2005
   POMASS =  195.080; ZVAL   =   10.000    mass and valenz
   ENMAX  =  230.283; ENMIN  =  172.712 eV

 Optimization of the real space projectors (new method)

 maximal supplied QI-value         = 13.42
 optimisation between [QCUT,QGAM] = [ 11.67, 23.35] = [ 38.16,152.62] Ry
 Optimized for a Real-space Cutoff    1.63 Angstroem

   l    n(q)    QCUT    max X(q) W(low)/X(q) W(high)/X(q)  e(spline)
   0     11    11.673    10.400    0.14E-04    0.18E-05    0.24E-07
   0     11    11.673    10.768    0.21E-04    0.32E-05    0.49E-07
   1     11    11.673     4.094    0.40E-05    0.13E-04    0.93E-07
   1     11    11.673     4.009    0.11E-04    0.46E-04    0.33E-06
   2     10    11.673    29.030    0.79E-04    0.60E-04    0.70E-06
   2     10    11.673    19.941    0.80E-04    0.60E-04    0.71E-06
   3     10    11.673    88.889    0.23E-03    0.29E-03    0.30E-06
   3     10    11.673    76.102    0.23E-03    0.30E-03    0.30E-06
 Optimization of the real space projectors (new method)

[...]

   l    n(q)    QCUT    max X(q) W(low)/X(q) W(high)/X(q)  e(spline)
   2     10    11.539     8.936    0.13E-03    0.18E-03    0.23E-06
   2     10    11.539     8.183    0.16E-03    0.22E-03    0.28E-06
   0     11    11.539    62.777    0.61E-04    0.20E-04    0.15E-06
   0     11    11.539    50.556    0.58E-04    0.19E-04    0.14E-06
   1     10    11.539    38.422    0.20E-04    0.75E-05    0.16E-06
   1     10    11.539    22.623    0.19E-04    0.69E-05    0.15E-06
 Optimization of the real space projectors (new method)

 maximal supplied QI-value         = 14.36
 optimisation between [QCUT,QGAM] = [ 11.63, 23.27] = [ 37.90,151.59] Ry
 Optimized for a Real-space Cutoff    1.49 Angstroem

   l    n(q)    QCUT    max X(q) W(low)/X(q) W(high)/X(q)  e(spline)
   2      9    11.633    66.195    0.24E-03    0.97E-04    0.19E-06
   2      9    11.633    64.643    0.25E-03    0.98E-04    0.20E-06
   0     10    11.633    95.520    0.71E-04    0.29E-04    0.12E-06
   0     10    11.633    63.403    0.69E-04    0.28E-04    0.12E-06
   1     10    11.633    19.961    0.61E-04    0.16E-03    0.11E-06
   1     10    11.633    13.289    0.50E-04    0.13E-03    0.90E-07
  PAW_PBE Eu 23Dec2003                  :
  PAW_PBE Ge_d 03Jul2007                :
  PAW_PBE Pt 04Feb2005                  :

 POSCAR: Eu1 Ge12 Pt4
  positions in direct lattice
 exchange correlation table for  LEXCH =        8
   RHO(1)=    0.500       N(1)  =     2000
   RHO(2)=  100.500       N(2)  =     4000

 VTST: version 4.2, (08/11/21)

 CHAIN: initializing optimizer

 OPT: Using VASP Conjugate-Gradient optimizer
 CHAIN: Read ICHAIN             0

 POSCAR: Eu1 Ge12 Pt4
  positions in direct lattice

 ion  position               nearest neighbor table
   1  0.000  0.000  0.000-
   2  0.354  0.504  0.150-  15 2.57  17 2.57   3 2.61  12 2.68
   3  0.646  0.797  0.150-  16 2.57  14 2.57   2 2.61  13 2.68
   4  0.850  0.354  0.203-  15 2.57  14 2.57   7 2.61   8 2.68
   5  0.504  0.150  0.354-  14 2.57  17 2.57   9 2.61   6 2.68
   6  0.203  0.850  0.354-  16 2.57  15 2.57  10 2.61   5 2.68
   7  0.850  0.646  0.496-  16 2.57  17 2.57   4 2.61  11 2.68
   8  0.150  0.354  0.504-  16 2.57  17 2.57  11 2.61   4 2.68
   9  0.797  0.150  0.646-  15 2.57  16 2.57   5 2.61  10 2.68
  10  0.496  0.850  0.646-  14 2.57  17 2.57   6 2.61   9 2.68
  11  0.150  0.646  0.797-  14 2.57  15 2.57   8 2.61   7 2.68
  12  0.354  0.203  0.850-  14 2.57  16 2.57  13 2.61   2 2.68
  13  0.646  0.496  0.850-  15 2.57  17 2.57  12 2.61   3 2.68
  14  0.500  0.000  0.000-   5 2.57  11 2.57  12 2.57  10 2.57   3 2.57   4 2.57
  15  0.000  0.500  0.000-   2 2.57   9 2.57   4 2.57  13 2.57  11 2.57   6 2.57
  16  0.000  0.000  0.500-   3 2.57   8 2.57   6 2.57   7 2.57   9 2.57  12 2.57
  17  0.500  0.500  0.500-   5 2.57   2 2.57   8 2.57   7 2.57  10 2.57  13 2.57

  LATTYP: Found a body centered cubic cell.
 ALAT       =     8.9240722000

  Lattice vectors:

 A1 = (   4.4620361000,   4.4620361000,   4.4620361000)
 A2 = (   4.4620361000,  -4.4620361000,  -4.4620361000)
 A3 = (  -4.4620361000,   4.4620361000,  -4.4620361000)

Analysis of symmetry for initial positions (statically):
 Subroutine PRICEL returns:
 Original cell was already a primitive cell.

 Routine SETGRP: Setting up the symmetry group for a
 body centered cubic supercell.

 Subroutine GETGRP returns: Found 24 space group operations
 (whereof 24 operations were pure point group operations)
 out of a pool of 48 trial point group operations.

The static configuration has the point symmetry T_h .

Analysis of symmetry for dynamics (positions and initial velocities):
 Subroutine PRICEL returns:
 Original cell was already a primitive cell.

[...]

The dynamic configuration has the point symmetry T_h .

Analysis of structural, dynamic, and magnetic symmetry:
 Subroutine PRICEL returns:
 Original cell was already a primitive cell.

 Routine SETGRP: Setting up the symmetry group for a
 body centered cubic supercell.

 Subroutine GETGRP returns: Found 24 space group operations
 (whereof 24 operations were pure point group operations)
 out of a pool of 48 trial point group operations.

The overall configuration has the point symmetry T_h .

 Subroutine INISYM returns: Found 24 space group operations
 (whereof 24 operations are pure point group operations),
 and found     1 'primitive' translations

                                     Primitive cell

  volume of cell :     355.3524

  direct lattice vectors                    reciprocal lattice vectors
     4.462036100  4.462036100  4.462036100     0.112056467  0.112056467  0.000000000
     4.462036100 -4.462036100 -4.462036100     0.112056467 -0.000000000 -0.112056467
    -4.462036100  4.462036100 -4.462036100    -0.000000000  0.112056467 -0.112056467

  length of vectors
     7.728473230  7.728473230  7.728473230     0.158471775  0.158471775  0.158471775

  position of ions in fractional coordinates (direct lattice)
     0.000000000  0.000000000  0.000000000
     0.353598350  0.503928470  0.150330120
     0.646401650  0.796731770  0.150330120
     0.849668880  0.353599350  0.203268230
     0.503928470  0.150330120  0.353598350
     0.203268230  0.849668880  0.353599350
     0.849668880  0.646401650  0.496070530
     0.150330120  0.353598350  0.503928470
     0.796731770  0.150330120  0.646401650
     0.496070530  0.849668880  0.646401650
     0.150330120  0.646401650  0.796731770
     0.353599350  0.203268230  0.849668880
     0.646401650  0.496070530  0.849668880
     0.499999000  1.000000000  1.000000000
     1.000000000  0.499999000  0.000000000
     1.000000000  0.000000000  0.499999000
     0.499999000  0.499999000  0.499999000

  ion indices of the primitive-cell ions
   primitive index   ion index
                 1           1
                 2           2
                 3           3
                 4           4
                 5           5
                 6           6
                 7           7
                 8           8
                 9           9
                10          10
                11          11
                12          12
                13          13
                14          14
                15          15
                16          16
                17          17

 KPOINTS: Kpoints from vasprun.xml

Automatic generation of k-mesh.
 Grid dimensions read from file:
 generate k-points for:    3    3    3

 Generating k-lattice:

  Cartesian coordinates                     Fractional coordinates (reciprocal lattice)
     0.037352156  0.037352156  0.000000000     0.333333333  0.000000000 -0.000000000
     0.037352156 -0.000000000 -0.037352156     0.000000000  0.333333333 -0.000000000
    -0.000000000  0.037352156 -0.037352156     0.000000000 -0.000000000  0.333333333

  Length of vectors
     0.052823925  0.052823925  0.052823925

  Shift w.r.t. Gamma in fractional coordinates (k-lattice)
     0.000000000  0.000000000  0.000000000

 Subroutine IBZKPT returns following result:

 Found      4 irreducible k-points:

 Following reciprocal coordinates:
            Coordinates               Weight
  0.000000  0.000000  0.000000      1.000000
  0.333333  0.000000  0.000000     12.000000
  0.333333  0.333333  0.000000      8.000000
 -0.333333  0.333333  0.333333      6.000000

 Following cartesian coordinates:
            Coordinates               Weight
  0.000000  0.000000 -0.000000      1.000000
  0.037352  0.037352 -0.000000     12.000000
  0.074704  0.037352 -0.037352      8.000000
  0.000000  0.000000 -0.074704      6.000000

 SYSTEM =  unknown system
 POSCAR =  Eu1 Ge12 Pt4

 Startparameter for this run:
   NWRITE =      2    write-flag & timer
   PREC   = accura    normal or accurate (medium, high low for compatibility)
   ISTART =      0    job   : 0-new  1-cont  2-samecut
   ICHARG =      1    charge: 1-file 2-atom 10-const
   ISPIN  =      2    spin polarized calculation?
   LNONCOLLINEAR =      F non collinear calculations
   LSORBIT =      F    spin-orbit coupling
   INIWAV =      1    electr: 0-lowe 1-rand  2-diag
   LASPH  =      F    aspherical Exc in radial PAW
 Electronic Relaxation 1
   ENCUT  =  520.0 eV  38.22 Ry    6.18 a.u.  14.37 14.37 14.37*2*pi/ulx,y,z
   ENINI  =  520.0     initial cutoff
   ENAUG  =  549.6 eV  augmentation charge cutoff
   NELM   =   1000;   NELMIN=  2; NELMDL=  0     # of ELM steps
   EDIFF  = 0.8E-03   stopping-criterion for ELM
   LREAL  =      T    real-space projection
   NLSPLINE    = F    spline interpolate recip. space projectors
   LCOMPAT=      F    compatible to vasp.4.4
   GGA_COMPAT  = T    GGA compatible to vasp.4.4-vasp.4.6
   LMAXPAW     = -100 max onsite density
   LMAXMIX     =    2 max onsite mixed and CHGCAR
   VOSKOWN=      0    Vosko Wilk Nusair interpolation
   ROPT   =   -0.00025  -0.00025  -0.00025
 Ionic relaxation
   EDIFFG = 0.8E-02   stopping-criterion for IOM
   NSW    =     99    number of steps for IOM
   NBLOCK =      1;   KBLOCK =     99    inner block; outer block
   IBRION =      2    ionic relax: 0-MD 1-quasi-New 2-CG
   NFREE  =      1    steps in history (QN), initial steepest desc. (CG)
   ISIF   =      3    stress and relaxation
   IWAVPR =     11    prediction:  0-non 1-charg 2-wave 3-comb
   ISYM   =      2    0-nonsym 1-usesym 2-fastsym
[...]
  325          m_sumb_d                              0.000230                         24   4
  326          brpre                                 0.000154                          8   4
  327          setg0                                 0.006073                          4   4
  328          broyd                                 0.034142                          4   4
  329            m_sumb_d                              0.002609                      183   5
  330            brget                                 0.007198                      928   5
  331            brsav                                 0.002182                      294   5
  332        m_bcast_d                             0.000113                            8   3
  333      potlok                                0.030501                              4   2
  334        fft3d_mpi                             0.019307                          104   3
  335          fftbrc_mpi                            0.015328                        104   4
  336            fftbas_plan_mpi                       0.015270                      104   5
  337              map_forward                           0.006800                    112   6
  338                map_gather                            0.001512                   64   7
  339                m_alltoallv_z                         0.000778                   64   7
  340                map_scatter                           0.003648                   64   7
  341              map_backward                          0.005356                     96   6
  342                map_gather                            0.001316                   48   7
  343                m_alltoallv_z                         0.000570                   48   7
  344                map_scatter                           0.002647                   48   7
  345        m_sumb_d                              0.000113                           20   3
  346        pothar                                0.000368                            4   3
  347          m_sumb_d                              0.000029                          4   4
  348        m_bcast_d                             0.000095                            8   3
  349      potlok_metagga                        0.000001                              4   2
  350      set_dd_magatom                        0.000016                              4   2
  351      set_dd_paw                            0.075544                              4   2
  352        m_sumb_d                              0.015525                           28   3
  353      wavpre_noio                           0.070214                              3   2
  354        stufak                                0.036861                            3   3
  355      densta                                0.001600                              1   2
  356        m_sumb_d                              0.001091                           40   3

 Flat profile

 eccp                                   81.158215      950831
 raccmu_                                81.005955      139255
 phaser                                 45.184519        8272
 eccp_nl                                36.335720      660527
 i2                                     35.154527      135445
 redis_pw                               31.588429      124748
 w1_gemv                                29.583839     1248176
 eddiag                                 26.734967        1000
 eddrmm                                 26.178871        1000
 m_sumb_d                               24.475426      148188
 m_alltoall_d                           18.289906     3229404
 cnorma                                 17.449397      660527
 augmentation_charge                    16.162156        1004
 set_charge                             15.250258        1004
 set_dd_paw                             15.221021        1012
 hamilt_local                           14.900008      288000
 setdij_                                14.423316        1113
 fft3d                                  14.303743     2096180
 fftwav                                 13.557862     1281268
 soft_charge                            13.318197        1004
 init_acc                               11.488018           1
 overl1                                 10.401595      624088
 setup_precond                          10.179636      290304
 w1_copy                                 8.101559     1580733
 pw_charge                               7.900307      231448
 newband                                 7.553269      147319
 total_time                              7.089685           1
 w1_dscal                                6.873324     1139775
 w1_dot                                  6.070446      214619
 rpromu_acc                              5.485332      141847
 potlok                                  5.461616        1008
 apply_precond                           5.183703     1136921
 broyd                                   5.113600        1004
 w1_daxpy                                5.081652      891816
 racc0mu_acc                             4.969482      139255
 depsum                                  4.769033        1004
 w1_gaxpy                                4.622217      916986
 hamiltmu                                4.551775      139255
 redis_proj                              4.430009       74096
 kinhamil                                3.466084      814912
 acc_init_cublas                         3.421102           1
 vhamil                                  3.409346      814912
 fftext_mpi                              3.220002      814912
 fft3d_mpi                               3.180300      845244
 dfftw_execute                           3.042816       12072
 map_scatter                             2.798693       34356
 choleski                                2.429657        8032
 overl_mu                                2.129067      139255
 m_alltoallv_z                           2.031540       34356
 map_gather                              2.028302       34356
 eddav                                   1.962230           8
 zhegv                                   1.939096      231289
 elmin                                   1.917045           4
 brmix                                   1.832997        1004
 orth1                                   1.810412       91590
 brget                                   1.684365      221915
 fftwav_mpi                              1.672044     1281268
 lapack                                  1.598800        3810
 setg0                                   1.551933        1012
 orthch                                  1.380739        1004
 rspher_all                              1.333885          53
 fftbas_plan_mpi                         1.186311       30332
 i3                                      1.169647      135445
 acc_init_cusolver                       1.046041           1
 rpro_isp                                0.816814         208
 brsav                                   0.459441       63618
 lincom                                  0.449538       16096
 acc_cufft_makeplan                      0.316275          19
 overl                                   0.274361       28968
 map_forward                             0.224894       28336
 map_backward                            0.216129       32328
 densta                                  0.213371        1009
 m_bcast_z                               0.178920        4962
 i1                                      0.158384      135445
 fft_gq                                  0.127152        1004
 w1_projall                              0.118479      138103
 proall                                  0.097875           4
 m_bcast_d                               0.087250        9653
 pothar                                  0.086680        1012
 sphpro_fast                             0.064820           5
 truncate_high_frequency_w1              0.061681      817216
 ggemm                                   0.060576        4962
 force_and_stress                        0.053197           4
 stufak                                  0.049229           4
 brpre                                   0.040373        2008
 wavpre_noio                             0.033353           3
 fftbrc_mpi                              0.015205       30332
 strelo                                  0.013315           4
 forhar                                  0.011891           8
 strehar                                 0.008544           4
 strnlr                                  0.007102           4
 forloc                                  0.006041           4
 inisym                                  0.005396           1
 set_dd_magatom                          0.004086        1012
 vectorpot                               0.004063        1005
 fornlr                                  0.002395           4
 strkin                                  0.002170           4
 rsp                                     0.001955           4
 shift_bands_between_low_high            0.001117        8000
 chggra                                  0.000988           4
 fewald                                  0.000360           4
 brgrid                                  0.000273           1
 fordep                                  0.000225           4
 rcp                                     0.000100           4
 posmap                                  0.000099           2
 potlok_metagga                          0.000088        1008
 crpa_reader                             0.000025           1
 acc_cufft_makeplans                     0.000009           3
 redis_pw_over_bands                     0.000001           4
 rotate_active_occupied_orbital          0.000000           4
  summed up times     753.1192839145660

 Accumulative profile

 total_time                            753.119284           1
 elmin                                 722.124356           4
 eddrmm                                456.843487        1000
 i3                                    122.754084      135445
 hamiltmu                              102.947167      139255
 i2                                    102.622684      135445
 raccmu_                                88.104504      139255
 eddiag                                 84.463577        1000
 eccp                                   81.158215      950831
 set_charge                             80.288300        1004
 cnorma                                 53.785117      660527
 newband                                51.296282      147319
 phaser                                 45.184519        8272
 w1_gemv                                39.985434     1248176
 redis_pw                               39.910751      124748
 eccp_nl                                36.335720      660527
 soft_charge                            35.476531        1004
 orthch                                 33.060227        1004
 m_sumb_d                               24.475426      148188
 fftwav_mpi                             24.317300     1281268
 fftwav                                 22.645257     1281268
 augmentation_charge                    22.032861        1004
 hamilt_local                           20.159534      288000
 fft3d_mpi                              19.940540      845244
 set_dd_paw                             19.168082        1012
 m_alltoall_d                           18.289906     3229404
 setdij_                                14.704227        1113
 redis_proj                             14.397594       74096
 fft3d                                  14.303743     2096180
 kinhamil                               12.141069      814912
 brmix                                  11.678171        1004
 fftbrc_mpi                             11.543891       30332
 fftbas_plan_mpi                        11.528686       30332
 init_acc                               11.488018           1
 potlok                                 11.083925        1008
 eddav                                  10.759165           8
 overl1                                 10.401595      624088
 setup_precond                          10.179636      290304
 fftext_mpi                              8.674985      814912
 broyd                                   8.201854        1004
 w1_copy                                 8.101559     1580733
 pw_charge                               7.900307      231448
 w1_dscal                                6.873324     1139775
 force_and_stress                        6.445886           4
 w1_dot                                  6.070446      214619
 rpromu_acc                              5.485332      141847
 apply_precond                           5.183703     1136921
 depsum                                  5.098764        1004
 w1_daxpy                                5.081652      891816
 map_backward                            4.987211       32328
 racc0mu_acc                             4.969482      139255
 w1_gaxpy                                4.622217      916986
 w1_projall                              4.608704      138103
 acc_init_cublas                         3.421102           1
 vhamil                                  3.409346      814912
 strnlr                                  3.403396           4
 fft_gq                                  3.219898        1004
 dfftw_execute                           3.042816       12072
 map_scatter                             2.798693       34356
 i1                                      2.453351      135445
 choleski                                2.429657        8032
 map_forward                             2.312348       28336
 rpro_isp                                2.270426         208
 overl_mu                                2.129067      139255
 m_alltoallv_z                           2.031540       34356
 map_gather                              2.028302       34356
 zhegv                                   1.939096      231289
 orth1                                   1.810412       91590
 brget                                   1.684365      221915
 lapack                                  1.598800        3810
 setg0                                   1.551933        1012
 rspher_all                              1.333885          53
 fornlr                                  1.136563           4
 acc_init_cusolver                       1.046041           1
 brsav                                   0.459441       63618
 lincom                                  0.449538       16096
 densta                                  0.419284        1009
 acc_cufft_makeplans                     0.316284           3
 acc_cufft_makeplan                      0.316275          19
 fordep                                  0.314906           4
 overl                                   0.274361       28968
 proall                                  0.244204           4
 m_bcast_z                               0.178920        4962
 pothar                                  0.095841        1012
 m_bcast_d                               0.087250        9653
 wavpre_noio                             0.070214           3
 sphpro_fast                             0.066951           5
 truncate_high_frequency_w1              0.061681      817216
 ggemm                                   0.060576        4962
 stufak                                  0.049229           4
 brpre                                   0.040373        2008
 strelo                                  0.013483           4
 forhar                                  0.012081           8
 strehar                                 0.008564           4
 forloc                                  0.006386           4
 inisym                                  0.005495           1
 set_dd_magatom                          0.004086        1012
 vectorpot                               0.004063        1005
 chggra                                  0.003492           4
 fewald                                  0.002706           4
 strkin                                  0.002214           4
 rsp                                     0.001955           4
 shift_bands_between_low_high            0.001117        8000
 brgrid                                  0.000273           1
 rcp                                     0.000100           4
 posmap                                  0.000099           2
 potlok_metagga                          0.000088        1008
 crpa_reader                             0.000025           1
 redis_pw_over_bands                     0.000001           4
 rotate_active_occupied_orbital          0.000000           4

Profiling took   2.535811  1.913779  0.003382  0.003308 seconds
Profiling took   2.205589 seconds