 vasp.6.3.2 27Jun22 (build Jul  3 2023 11:46:21) complex
 executed on    LinuxNV_CrayMPICH date 2024.04.20  21:45:55

 INCAR:
   ADDGRID = True
   ALGO = Normal
   EDIFF = 0.0011
   ENCUT = 520.0
   IBRION = -1
   ICHARG = 0
   ISIF = 3
   ISMEAR = -5
   ISPIN = 2
   ISTART = 1
   KPOINT_BSE = -1 0 0 0
   LAECHG = True
   LASPH = True
   LCHARG = True
   LELF = True
   LORBIT = 11
   LREAL = Auto
   LVHAR = True
   LWAVE = False
   MAGMOM = 2*7.0 17*5.0 3*0.6
   NELM = 1000
   NSW = 0
   PREC = accurate
   SIGMA = 0.05

 POTCAR:    PAW_PBE Gd 23Dec2003
 POTCAR:    PAW_PBE Mn_pv 02Aug2007
 POTCAR:    PAW_PBE C 08Apr2002
 POTCAR:    PAW_PBE Gd 23Dec2003
   VRHFIN =Gd : [core=Xe4]

   TITEL  = PAW_PBE Gd 23Dec2003
   POMASS =  157.250; ZVAL   =   18.000    mass and valenz
   ENMAX  =  256.472; ENMIN  =  192.354 eV

   TITEL  = PAW_PBE Mn_pv 02Aug2007
   POMASS =   54.938; ZVAL   =   13.000    mass and valenz
   ENMAX  =  269.864; ENMIN  =  202.398 eV

   TITEL  = PAW_PBE C 08Apr2002
   POMASS =   12.011; ZVAL   =    4.000    mass and valenz
   ENMAX  =  400.000; ENMIN  =  300.000 eV

 Optimization of the real space projectors (new method)

 maximal supplied QI-value         = 13.42
 optimisation between [QCUT,QGAM] = [ 11.67, 23.35] = [ 38.16,152.62] Ry
 Optimized for a Real-space Cutoff    1.63 Angstroem

   l    n(q)    QCUT    max X(q) W(low)/X(q) W(high)/X(q)  e(spline)
   0     11    11.673    10.501    0.14E-04    0.17E-05    0.21E-07
   0     11    11.673     9.148    0.21E-04    0.32E-05    0.45E-07
   1     11    11.673     4.035    0.33E-05    0.11E-04    0.84E-07
   1     11    11.673     4.388    0.11E-04    0.47E-04    0.34E-06
   2     10    11.673    20.656    0.12E-04    0.28E-04    0.54E-06
   2     10    11.673    12.651    0.11E-04    0.26E-04    0.51E-06
   3     10    11.673    61.921    0.19E-03    0.22E-03    0.23E-06
   3     10    11.673    48.328    0.20E-03    0.23E-03    0.23E-06
 Optimization of the real space projectors (new method)

[...]

   l    n(q)    QCUT    max X(q) W(low)/X(q) W(high)/X(q)  e(spline)
   1     10    11.539     3.658    0.56E-04    0.12E-03    0.13E-06
   1     10    11.539     5.612    0.11E-03    0.23E-03    0.24E-06
   2      9    11.539    55.373    0.45E-04    0.92E-04    0.22E-06
   2      9    11.539    50.863    0.47E-04    0.95E-04    0.22E-06
   0     10    11.539    79.536    0.46E-04    0.27E-04    0.11E-06
   0     10    11.539    38.668    0.38E-04    0.25E-04    0.10E-06
 Optimization of the real space projectors (new method)

 maximal supplied QI-value         = 25.13
 optimisation between [QCUT,QGAM] = [ 11.56, 23.12] = [ 37.43,149.72] Ry
 Optimized for a Real-space Cutoff    1.04 Angstroem

   l    n(q)    QCUT    max X(q) W(low)/X(q) W(high)/X(q)  e(spline)
   0      7    11.561   115.676    0.20E-03    0.60E-03    0.21E-06
   0      7    11.561    87.132    0.20E-03    0.59E-03    0.21E-06
   1      7    11.561     4.429    0.23E-03    0.35E-03    0.15E-06
   1      7    11.561     2.733    0.18E-03    0.25E-03    0.12E-06
  PAW_PBE Gd 23Dec2003                  :
  PAW_PBE Mn_pv 02Aug2007               :
  PAW_PBE C 08Apr2002                   :

 POSCAR: Gd2 Mn17 C3
  positions in direct lattice
 exchange correlation table for  LEXCH =        8
   RHO(1)=    0.500       N(1)  =     2000
   RHO(2)=  100.500       N(2)  =     4000

 VTST: version 4.2, (08/11/21)

 CHAIN: initializing optimizer

 OPT: Using VASP Dynamics algorithm
 CHAIN: Read ICHAIN             0

 POSCAR: Gd2 Mn17 C3
  positions in direct lattice

 ion  position               nearest neighbor table
   1  0.650  0.650  0.650-  20 2.49  21 2.49  22 2.49  14 3.12  13 3.12  12 3.12   7 3.13  10 3.13
                             6 3.13  11 3.13   8 3.13   9 3.13  15 3.15  17 3.15  16 3.15  18 3.20
   2  0.350  0.350  0.350-  20 2.49  21 2.49  22 2.49  17 3.12  16 3.12  15 3.12   8 3.13   9 3.13
                             6 3.13  11 3.13  10 3.13   7 3.13  12 3.15  13 3.15  14 3.15  19 3.20
   3  0.000  0.000  0.500-  13 2.42  14 2.42  16 2.42  17 2.42   7 2.44   8 2.44   9 2.44  10 2.44
                            18 2.65  19 2.65
   4  0.500  0.000  0.000-  14 2.42  17 2.42  15 2.42  12 2.42   8 2.44  10 2.44   6 2.44  11 2.44
                            18 2.65  19 2.65
   5  0.000  0.500  0.000-  13 2.42  16 2.42  15 2.42  12 2.42   7 2.44   9 2.44   6 2.44  11 2.44
                            18 2.65  19 2.65
   6  0.721  0.279  0.000-  20 1.90  10 2.40   9 2.40   5 2.44   4 2.44  17 2.58  13 2.58  19 2.67
                            18 2.67  12 2.69  15 2.69   2 3.13   1 3.13
   7  0.000  0.721  0.279-  21 1.90  11 2.40  10 2.40   5 2.44   3 2.44  15 2.58  14 2.58  18 2.67
                            19 2.67  16 2.69  13 2.69   1 3.13   2 3.13
   8  0.279  0.000  0.721-  22 1.90  11 2.40   9 2.40   4 2.44   3 2.44  12 2.58  16 2.58  19 2.67
                            18 2.67  14 2.69  17 2.69   2 3.13   1 3.13
   9  0.000  0.279  0.721-  21 1.90   6 2.40   8 2.40   5 2.44   3 2.44  12 2.58  17 2.58  19 2.67
                            18 2.67  13 2.69  16 2.69   2 3.13   1 3.13
  10  0.721  0.000  0.279-  22 1.90   6 2.40   7 2.40   4 2.44   3 2.44  15 2.58  13 2.58  18 2.67
                            19 2.67  17 2.69  14 2.69   1 3.13   2 3.13
  11  0.279  0.721  0.000-  20 1.90   8 2.40   7 2.40   5 2.44   4 2.44  16 2.58  14 2.58  19 2.67
                            18 2.67  12 2.69  15 2.69   2 3.13   1 3.13
  12  0.338  0.338  0.867-  20 1.90   5 2.42   4 2.42   9 2.58   8 2.58  19 2.58  16 2.65  17 2.65
                             6 2.69  11 2.69   1 3.12   2 3.15   2 3.34
  13  0.867  0.338  0.338-  21 1.90   5 2.42   3 2.42   6 2.58  10 2.58  19 2.58  17 2.65  15 2.65
                             9 2.69   7 2.69   1 3.12   2 3.15   2 3.34
  14  0.338  0.867  0.338-  22 1.90   4 2.42   3 2.42  11 2.58   7 2.58  19 2.58  16 2.65  15 2.65
                             8 2.69  10 2.69   1 3.12   2 3.15   2 3.34
  15  0.662  0.662  0.133-  20 1.90   5 2.42   4 2.42  10 2.58   7 2.58  18 2.58  13 2.65  14 2.65
                             6 2.69  11 2.69   2 3.12   1 3.15   1 3.34
  16  0.133  0.662  0.662-  21 1.90   5 2.42   3 2.42  11 2.58   8 2.58  18 2.58  14 2.65  12 2.65
                             7 2.69   9 2.69   2 3.12   1 3.15   1 3.34
  17  0.662  0.133  0.662-  22 1.90   4 2.42   3 2.42   6 2.58   9 2.58  18 2.58  13 2.65  12 2.65
                            10 2.69   8 2.69   2 3.12   1 3.15   1 3.34
  18  0.906  0.906  0.906-  19 2.34  17 2.58  16 2.58  15 2.58   3 2.65   4 2.65   5 2.65   7 2.67
                            10 2.67   9 2.67   8 2.67   6 2.67  11 2.67   1 3.20
  19  0.094  0.094  0.094-  18 2.34  14 2.58  13 2.58  12 2.58   3 2.65   4 2.65   5 2.65   8 2.67
                             9 2.67   7 2.67  10 2.67   6 2.67  11 2.67   2 3.20
  20  0.500  0.500  0.000-   6 1.90  11 1.90  12 1.90  15 1.90   1 2.49   2 2.49
  21  0.000  0.500  0.500-   7 1.90   9 1.90  13 1.90  16 1.90   1 2.49   2 2.49
  22  0.500  0.000  0.500-   8 1.90  10 1.90  14 1.90  17 1.90   1 2.49   2 2.49

  LATTYP: Found a trigonal (rhomboedric) cell.
 ALAT       =     6.4821188680
 COS(alpha) =     0.1192873118

  Lattice vectors:

 A1 = (   4.8492300000,  -4.3014920000,   0.0000000000)
 A2 = (   4.8492300000,   4.3014920000,   0.0000000000)
 A3 = (   1.0336070000,   0.0000000000,   6.3991810000)

Analysis of symmetry for initial positions (statically):
 Subroutine PRICEL returns:
 Original cell was already a primitive cell.

 Routine SETGRP: Setting up the symmetry group for a
 trigonal (rhombohedral) supercell.

 Subroutine GETGRP returns: Found 12 space group operations
 (whereof 12 operations were pure point group operations)
 out of a pool of 12 trial point group operations.

The static configuration has the point symmetry D_3d.

Analysis of symmetry for dynamics (positions and initial velocities):
 Subroutine PRICEL returns:
 Original cell was already a primitive cell.

[...]

The dynamic configuration has the point symmetry D_3d.

Analysis of structural, dynamic, and magnetic symmetry:
 Subroutine PRICEL returns:
 Original cell was already a primitive cell.

 Routine SETGRP: Setting up the symmetry group for a
 trigonal (rhombohedral) supercell.

 Subroutine GETGRP returns: Found 12 space group operations
 (whereof 12 operations were pure point group operations)
 out of a pool of 12 trial point group operations.

The overall configuration has the point symmetry D_3d.

 Subroutine INISYM returns: Found 12 space group operations
 (whereof 12 operations are pure point group operations),
 and found     1 'primitive' translations

                                     Primitive cell

  volume of cell :     266.9601

  direct lattice vectors                    reciprocal lattice vectors
     4.849230000 -4.301492000  0.000000000     0.103109153 -0.116238738 -0.016654372
     4.849230000  4.301492000  0.000000000     0.103109153  0.116238738 -0.016654372
     1.033607000  0.000000000  6.399181000    -0.000000000  0.000000000  0.156269998

  length of vectors
     6.482118868  6.482118868  6.482118550     0.156269990  0.156269990  0.156269998

  position of ions in fractional coordinates (direct lattice)
     0.650163000  0.650163000  0.650163000
     0.349837000  0.349837000  0.349837000
     1.000000000  1.000000000  0.500000000
     0.500000000  0.000000000  0.000000000
     0.000000000  0.500000000  0.000000000
     0.721045000  0.278955000  0.000000000
     0.000000000  0.721045000  0.278955000
     0.278955000  1.000000000  0.721045000
     1.000000000  0.278955000  0.721045000
     0.721045000  0.000000000  0.278955000
     0.278955000  0.721045000  0.000000000
     0.338437000  0.338437000  0.867223000
     0.867223000  0.338437000  0.338437000
     0.338437000  0.867223000  0.338437000
     0.661563000  0.661563000  0.132777000
     0.132777000  0.661563000  0.661563000
     0.661563000  0.132777000  0.661563000
     0.906384000  0.906384000  0.906384000
     0.093616000  0.093616000  0.093616000
     0.500000000  0.500000000  0.000000000
     1.000000000  0.500000000  0.500000000
     0.500000000  1.000000000  0.500000000

  ion indices of the primitive-cell ions
   primitive index   ion index
                 1           1
                 2           2
                 3           3
                 4           4
                 5           5
                 6           6
                 7           7
                 8           8
                 9           9
                10          10
                11          11
                12          12
                13          13
                14          14
                15          15
                16          16
                17          17
                18          18
                19          19
                20          20
                21          21
                22          22

 KPOINTS: Kpoints from vasprun.xml

Automatic generation of k-mesh.
 Grid dimensions read from file:
 generate k-points for:    4    4    4

 Generating k-lattice:

  Cartesian coordinates                     Fractional coordinates (reciprocal lattice)
[...]
  290                map_forward                           0.000191                    4   7
  291                  map_gather                            0.000043                  2   8
  292                  m_alltoallv_z                         0.000027                  2   8
  293                  map_scatter                           0.000094                  2   8
  294                map_backward                          0.000086                    2   7
  295                  map_gather                            0.000020                  1   8
  296                  m_alltoallv_z                         0.000012                  1   8
  297                  map_scatter                           0.000038                  1   8
  298          m_sumb_d                              0.000007                          2   4
  299          pothar                                0.000080                          1   4
  300            m_sumb_d                              0.000010                        1   5
  301        brmix                                 0.008761                            1   3
  302          m_sumb_d                              0.000030                          6   4
  303          brpre                                 0.000030                          2   4
  304          setg0                                 0.000771                          1   4
  305          broyd                                 0.007020                          1   4
  306            m_sumb_d                              0.000230                       50   5
  307            brget                                 0.001597                      267   5
  308            brsav                                 0.000291                       48   5
  309        m_bcast_d                             0.000028                            2   3
  310      potlok                                0.029278                              2   2
  311        fft3d_mpi                             0.018912                           36   3
  312          fftbrc_mpi                            0.015738                         36   4
  313            fftbas_plan_mpi                       0.015720                       36   5
  314              map_forward                           0.004587                     40   6
  315                map_gather                            0.001540                   24   7
  316                m_alltoallv_z                         0.001477                   24   7
  317                map_scatter                           0.001381                   24   7
  318              map_backward                          0.003958                     32   6
  319                map_gather                            0.001270                   16   7
  320                m_alltoallv_z                         0.001340                   16   7
  321                map_scatter                           0.001162                   16   7
  322              dfftw_execute                         0.005368                     30   6
  323        m_sumb_d                              0.000027                            5   3
  324        pothar                                0.001185                            2   3
  325          m_sumb_d                              0.000144                          2   4
  326        m_bcast_d                             0.001883                            4   3
  327      potlok_metagga                        0.000000                              1   2
  328      set_dd_magatom                        0.000004                              1   2
  329      set_dd_paw                            3.096118                              1   2
  330        m_sumb_d                              0.942375                            7   3
  331      augmentation_charge                   0.110017                              1   2
  332        fft3d_mpi                             0.032322                            2   3
  333          fftbrc_mpi                            0.029055                          2   4
  334            fftbas_plan_mpi                       0.029052                        2   5
  335              dfftw_execute                         0.018864                      6   6
  336              map_backward                          0.009917                      4   6
  337                map_gather                            0.002447                    2   7
  338                m_alltoallv_z                         0.004744                    2   7
  339                map_scatter                           0.002718                    2   7
  340      fftwav_mpi                            3.203907                           4134   2
  341        fftwav                                3.198666                         4134   3
  342          fft3d                                 3.061480                       4134   4
  343      densta                                2.651593                              1   2

 Flat profile

 set_dd_paw                            462.605838         216
 m_sumb_d                              382.614992     1576813
 eddav                                 250.561922         218
 lapack                                220.841987      517844
 raccmu_                               201.607188      517844
 redis_pw                              110.757960     2738734
 m_alltoall_d                           51.263926     7372044
 eccp                                   29.198117      300404
 fft3d                                  24.979104     2940209
 orth1                                  24.301956     1553714
 redis_proj                             23.088696     3447606
 phaser                                 21.517374        5837
 fftwav                                 18.264882     1930959
 setdij_                                17.439599         242
 augmentation_charge                    16.796621         215
 racc0mu_acc                            15.313082      517844
 w1_copy                                14.704877     3027750
 overl                                  14.219887     1718122
 hamiltmu                               13.587290      517844
 densta                                 12.948936         219
 soft_charge                            11.874947         214
 total_time                             11.674549           1
 init_acc                               11.557132           1
 rpromu_acc                             11.527722      369540
 m_bcast_z                              11.449451      523356
 setup_precond                          10.798397      300404
 dfftw_execute                          10.587728        5616
 ggemm                                  10.112957      670880
 m_bcast_d                               8.730836     1036125
 overl_mu                                8.013256      517844
 pw_charge                               5.346969      190815
 depsum                                  4.813798         214
 vhamil                                  4.586159     1009250
 kinhamil                                4.551654     1009250
 newband                                 4.343975      523512
 fftext_mpi                              4.248512     1009250
 apply_precond                           3.873429      708846
 m_alltoallv_z                           2.688445        8367
 fftwav_mpi                              2.587084     1930959
 acc_init_cublas                         2.419409           1
 fft3d_mpi                               2.310377     1016737
 map_scatter                             1.664901        8367
 set_charge                              1.440836         214
 map_gather                              1.398482        8367
 acc_init_cusolver                       0.996932           1
 broyd                                   0.938257         214
 rpro_isp                                0.857579         169
 potlok                                  0.757234         216
 elmin                                   0.413555           1
 fftbas_plan_mpi                         0.412836        7487
 w1_projall                              0.364510      364808
 brget                                   0.298396       49329
 sphpro_fast                             0.256650           2
 rspher_all                              0.239141          14
 acc_cufft_makeplan                      0.237332          19
 lincom                                  0.235245        5694
 brmix                                   0.225479         214
 setg0                                   0.170621         216
 truncate_high_frequency_w1              0.107023     1309654
 brsav                                   0.076976       13176
 proall                                  0.076210           1
 map_backward                            0.044644        7902
 map_forward                             0.040286        7072
 orthch                                  0.030715           1
 choleski                                0.024824          26
 force_and_stress                        0.019442           1
 pothar                                  0.017172         217
 fft_gq                                  0.009088         214
 stufak                                  0.008550           1
 brpre                                   0.006528         428
 strnlr                                  0.005783           1
 inisym                                  0.004564           1
 fftbrc_mpi                              0.004131        7487
 fornlr                                  0.001987           1
 forhar                                  0.001933           2
 strelo                                  0.001702           1
 strkin                                  0.001267           1
 strehar                                 0.001254           1
 forloc                                  0.001021           1
 set_dd_magatom                          0.000998         216
 vectorpot                               0.000923         215
 rsp                                     0.000737           1
 fewald                                  0.000345           1
 chggra                                  0.000230           1
 brgrid                                  0.000170           1
 fordep                                  0.000129           1
 posmap                                  0.000060           2
 rcp                                     0.000034           1
 crpa_reader                             0.000026           1
 potlok_metagga                          0.000014         215
 acc_cufft_makeplans                     0.000012           3
 rotate_active_occupied_orbital          0.000000           1
 redis_pw_over_bands                     0.000000           1
  summed up times     2086.107783079147

 Accumulative profile

 total_time                           2086.107783           1
 elmin                                2038.777538           1
 eddav                                1286.170463         218
 set_dd_paw                            665.832847         216
 m_sumb_d                              382.614992     1576813
 hamiltmu                              259.338014      517844
 raccmu_                               224.933526      517844
 lapack                                220.841987      517844
 redis_pw                              136.324846     2738734
 newband                                67.735633      523512
 set_charge                             54.403778         214
 m_alltoall_d                           51.263926     7372044
 redis_proj                             48.785735     3447606
 fftwav_mpi                             38.714154     1930959
 fftwav                                 36.127071     1930959
 eccp                                   29.198117      300404
 setdij_                                27.635508         242
 fft3d_mpi                              26.268744     1016737
 fft3d                                  24.979104     2940209
 orth1                                  24.301956     1553714
 augmentation_charge                    24.006147         215
 soft_charge                            23.900967         214
 phaser                                 21.517374        5837
 fftbrc_mpi                             16.841453        7487
 fftbas_plan_mpi                        16.837321        7487
 kinhamil                               16.231040     1009250
 racc0mu_acc                            15.313082      517844
 w1_copy                                14.704877     3027750
 overl                                  14.219887     1718122
 densta                                 12.948936         219
 fftext_mpi                             11.679386     1009250
 init_acc                               11.557132           1
 rpromu_acc                             11.527722      369540
 m_bcast_z                              11.449451      523356
 w1_projall                             10.862640      364808
 setup_precond                          10.798397      300404
 dfftw_execute                          10.587728        5616
 ggemm                                  10.112957      670880
 force_and_stress                        9.495467           1
 m_bcast_d                               8.730836     1036125
 overl_mu                                8.013256      517844
 pw_charge                               5.346969      190815
 depsum                                  4.866293         214
 vhamil                                  4.586159     1009250
 apply_precond                           3.873429      708846
 map_backward                            2.937060        7902
 map_forward                             2.899698        7072
 m_alltoallv_z                           2.688445        8367
 rpro_isp                                2.435966         169
 acc_init_cublas                         2.419409           1
 strnlr                                  2.367122           1
 potlok                                  1.892344         216
 brmix                                   1.778382         214
 map_scatter                             1.664901        8367
 map_gather                              1.398482        8367
 broyd                                   1.363901         214
 acc_init_cusolver                       0.996932           1
 fornlr                                  0.785782           1
 fordep                                  0.686673           1
 orthch                                  0.465229           1
 fft_gq                                  0.364729         214
 brget                                   0.298396       49329
 sphpro_fast                             0.266446           2
 rspher_all                              0.239141          14
 acc_cufft_makeplans                     0.237344           3
 acc_cufft_makeplan                      0.237332          19
 lincom                                  0.235245        5694
 proall                                  0.215126           1
 setg0                                   0.170621         216
 truncate_high_frequency_w1              0.107023     1309654
 brsav                                   0.076976       13176
 choleski                                0.024824          26
 pothar                                  0.019173         217
 stufak                                  0.008550           1
 brpre                                   0.006528         428
 inisym                                  0.004624           1
 forhar                                  0.001993           2
 strelo                                  0.001711           1
 strkin                                  0.001288           1
 strehar                                 0.001269           1
 fewald                                  0.001210           1
 forloc                                  0.001057           1
 set_dd_magatom                          0.000998         216
 vectorpot                               0.000923         215
 chggra                                  0.000777           1
 rsp                                     0.000737           1
 brgrid                                  0.000170           1
 posmap                                  0.000060           2
 rcp                                     0.000034           1
 crpa_reader                             0.000026           1
 potlok_metagga                          0.000014         215
 rotate_active_occupied_orbital          0.000000           1
 redis_pw_over_bands                     0.000000           1

Profiling took   6.323899  3.071320  0.003208  0.003115 seconds
Profiling took   4.023866 seconds