 vasp.6.3.2 27Jun22 (build Jul  3 2023 11:46:21) complex
 executed on    LinuxNV_CrayMPICH date 2024.04.22  01:50:18

 INCAR:
   ADDGRID = True
   ALGO = Fast
   EDIFF = 0.0001
   ENCUT = 520.0
   IBRION = -1
   ISIF = 3
   ISMEAR = -5
   ISPIN = 2
   LAECHG = True
   LASPH = True
   LCHARG = True
   LDAU = True
   LDAUJ = 0.0 0.0 0.0 0.0
   LDAUL = 0 2 0 0
   LDAUPRINT = 1
   LDAUTYPE = 2
   LDAUU = 0.0 5.3 0.0 0.0
   LMAXMIX = 6
   LORBIT = 11
   LREAL = Auto
   LVHAR = True
   LWAVE = False
   MAGMOM = 1*7.0 4*5.0 15*0.6
   NELM = 1000
   NSW = 0
   PREC = Accurate
   SIGMA = 0.05

 POTCAR:    PAW_PBE Gd 23Dec2003
 POTCAR:    PAW_PBE Fe_pv 02Aug2007
 POTCAR:    PAW_PBE Cu_pv 06Sep2000
 POTCAR:    PAW_PBE O 08Apr2002
 POTCAR:    PAW_PBE Gd 23Dec2003
   VRHFIN =Gd : [core=Xe4]

   TITEL  = PAW_PBE Gd 23Dec2003
   POMASS =  157.250; ZVAL   =   18.000    mass and valenz
   ENMAX  =  256.472; ENMIN  =  192.354 eV

   TITEL  = PAW_PBE Fe_pv 02Aug2007
   POMASS =   55.847; ZVAL   =   14.000    mass and valenz
   ENMAX  =  293.238; ENMIN  =  219.928 eV

   TITEL  = PAW_PBE Cu_pv 06Sep2000
   POMASS =   63.546; ZVAL   =   17.000    mass and valenz
   ENMAX  =  368.648; ENMIN  =  276.486 eV

   TITEL  = PAW_PBE O 08Apr2002
   POMASS =   16.000; ZVAL   =    6.000    mass and valenz
   ENMAX  =  400.000; ENMIN  =  300.000 eV

 Optimization of the real space projectors (new method)

 maximal supplied QI-value         = 13.42
 optimisation between [QCUT,QGAM] = [ 11.67, 23.35] = [ 38.16,152.62] Ry
 Optimized for a Real-space Cutoff    1.63 Angstroem

   l    n(q)    QCUT    max X(q) W(low)/X(q) W(high)/X(q)  e(spline)
   0     11    11.673    10.501    0.14E-04    0.17E-05    0.21E-07
   0     11    11.673     9.148    0.21E-04    0.32E-05    0.45E-07
   1     11    11.673     4.035    0.33E-05    0.11E-04    0.84E-07
   1     11    11.673     4.388    0.11E-04    0.47E-04    0.34E-06
   2     10    11.673    20.656    0.12E-04    0.28E-04    0.54E-06
   2     10    11.673    12.651    0.11E-04    0.26E-04    0.51E-06
   3     10    11.673    61.921    0.19E-03    0.22E-03    0.23E-06
   3     10    11.673    48.328    0.20E-03    0.23E-03    0.23E-06
 Optimization of the real space projectors (new method)

[...]

   l    n(q)    QCUT    max X(q) W(low)/X(q) W(high)/X(q)  e(spline)
   1      9    11.527     3.172    0.21E-04    0.38E-04    0.11E-06
   1      9    11.527     4.083    0.67E-04    0.79E-04    0.20E-06
   2      9    11.527    65.342    0.13E-03    0.28E-03    0.26E-06
   2      9    11.527    61.381    0.13E-03    0.29E-03    0.26E-06
   0      9    11.527    65.742    0.32E-04    0.21E-04    0.72E-07
   0      9    11.527    30.431    0.28E-04    0.19E-04    0.65E-07
 Optimization of the real space projectors (new method)

 maximal supplied QI-value         = 24.76
 optimisation between [QCUT,QGAM] = [ 11.64, 23.27] = [ 37.91,151.63] Ry
 Optimized for a Real-space Cutoff    1.14 Angstroem

   l    n(q)    QCUT    max X(q) W(low)/X(q) W(high)/X(q)  e(spline)
   0      8    11.635    20.381    0.10E-03    0.33E-03    0.24E-06
   0      8    11.635    15.268    0.11E-03    0.35E-03    0.26E-06
   1      7    11.635     5.964    0.24E-03    0.31E-03    0.30E-06
   1      7    11.635     5.382    0.22E-03    0.25E-03    0.26E-06
  PAW_PBE Gd 23Dec2003                  :
  PAW_PBE Fe_pv 02Aug2007               :
  PAW_PBE Cu_pv 06Sep2000               :
  PAW_PBE O 08Apr2002                   :

 POSCAR: Gd1 Fe4 Cu3 O12
  positions in direct lattice
 exchange correlation table for  LEXCH =        8
   RHO(1)=    0.500       N(1)  =     2000
   RHO(2)=  100.500       N(2)  =     4000

 VTST: version 4.2, (08/11/21)

 CHAIN: initializing optimizer

 OPT: Using VASP Dynamics algorithm
 CHAIN: Read ICHAIN             0

 POSCAR: Gd1 Fe4 Cu3 O12
  positions in direct lattice

 ion  position               nearest neighbor table
   1  0.000  0.000  0.000-   9 2.61  10 2.61  13 2.61  14 2.61  17 2.61  18 2.61  15 2.61  16 2.61
                            11 2.61  12 2.61  19 2.61  20 2.61
   2  0.000  0.000  0.500-   9 2.02  10 2.02  19 2.02  20 2.02  13 2.02  14 2.02
   3  0.500  0.000  0.000-  17 2.02  18 2.02  15 2.02  16 2.02   9 2.02  10 2.02
   4  0.000  0.500  0.000-  13 2.02  14 2.02  11 2.02  12 2.02  17 2.02  18 2.02
   5  0.500  0.500  0.500-  11 2.02  12 2.02  15 2.02  16 2.02  19 2.02  20 2.02
   6  0.500  0.000  0.500-  19 1.87  20 1.87  17 1.87  18 1.87
   7  0.000  0.500  0.500-  11 1.87  12 1.87   9 1.87  10 1.87
   8  0.500  0.500  0.000-  15 1.87  16 1.87  13 1.87  14 1.87
   9  0.164  0.855  0.691-   7 1.87   2 2.02   3 2.02   1 2.61
  10  0.836  0.145  0.309-   7 1.87   2 2.02   3 2.02   1 2.61
  11  0.836  0.526  0.691-   7 1.87   5 2.02   4 2.02   1 2.61
  12  0.164  0.474  0.309-   7 1.87   5 2.02   4 2.02   1 2.61
  13  0.855  0.691  0.164-   8 1.87   4 2.02   2 2.02   1 2.61
  14  0.145  0.309  0.836-   8 1.87   4 2.02   2 2.02   1 2.61
  15  0.526  0.691  0.836-   8 1.87   5 2.02   3 2.02   1 2.61
  16  0.474  0.309  0.164-   8 1.87   5 2.02   3 2.02   1 2.61
  17  0.691  0.164  0.855-   6 1.87   3 2.02   4 2.02   1 2.61
  18  0.309  0.836  0.145-   6 1.87   3 2.02   4 2.02   1 2.61
  19  0.691  0.836  0.526-   6 1.87   5 2.02   2 2.02   1 2.61
  20  0.309  0.164  0.474-   6 1.87   5 2.02   2 2.02   1 2.61

  LATTYP: Found a body centered cubic cell.
 ALAT       =     7.4484000000

  Lattice vectors:

 A1 = (  -3.7242000000,  -3.7242000000,   3.7242000000)
 A2 = (  -3.7242000000,   3.7242000000,  -3.7242000000)
 A3 = (   3.7242000000,  -3.7242000000,  -3.7242000000)

Analysis of symmetry for initial positions (statically):
 Subroutine PRICEL returns:
 Original cell was already a primitive cell.

 Routine SETGRP: Setting up the symmetry group for a
 body centered cubic supercell.

 Subroutine GETGRP returns: Found 24 space group operations
 (whereof 24 operations were pure point group operations)
 out of a pool of 48 trial point group operations.

The static configuration has the point symmetry T_h .

Analysis of symmetry for dynamics (positions and initial velocities):
 Subroutine PRICEL returns:
 Original cell was already a primitive cell.

[...]

The dynamic configuration has the point symmetry T_h .

Analysis of structural, dynamic, and magnetic symmetry:
 Subroutine PRICEL returns:
 Original cell was already a primitive cell.

 Routine SETGRP: Setting up the symmetry group for a
 body centered cubic supercell.

 Subroutine GETGRP returns: Found 24 space group operations
 (whereof 24 operations were pure point group operations)
 out of a pool of 48 trial point group operations.

The overall configuration has the point symmetry T_h .

 Subroutine INISYM returns: Found 24 space group operations
 (whereof 24 operations are pure point group operations),
 and found     1 'primitive' translations

                                     Primitive cell

  volume of cell :     206.6136

  direct lattice vectors                    reciprocal lattice vectors
    -3.724200000 -3.724200000  3.724200000    -0.134257022 -0.134257022  0.000000000
    -3.724200000  3.724200000 -3.724200000    -0.134257022  0.000000000 -0.134257022
     3.724200000 -3.724200000 -3.724200000     0.000000000 -0.134257022 -0.134257022

  length of vectors
     6.450503618  6.450503618  6.450503618     0.189868101  0.189868101  0.189868101

  position of ions in fractional coordinates (direct lattice)
     0.000000000  0.000000000  0.000000000
     1.000000000  0.000000000  0.500000000
     0.500000000  1.000000000  1.000000000
     1.000000000  0.500000000  0.000000000
     0.500000000  0.500000000  0.500000000
     0.500000000  0.000000000  0.500000000
     1.000000000  0.500000000  0.500000000
     0.500000000  0.500000000  0.000000000
     0.164319000  0.854837000  0.690518000
     0.835681000  0.145163000  0.309482000
     0.835681000  0.526199000  0.690518000
     0.164319000  0.473801000  0.309482000
     0.854837000  0.690518000  0.164319000
     0.145163000  0.309482000  0.835681000
     0.526199000  0.690518000  0.835681000
     0.473801000  0.309482000  0.164319000
     0.690518000  0.164319000  0.854837000
     0.309482000  0.835681000  0.145163000
     0.690518000  0.835681000  0.526199000
     0.309482000  0.164319000  0.473801000

  ion indices of the primitive-cell ions
   primitive index   ion index
                 1           1
                 2           2
                 3           3
                 4           4
                 5           5
                 6           6
                 7           7
                 8           8
                 9           9
                10          10
                11          11
                12          12
                13          13
                14          14
                15          15
                16          16
                17          17
                18          18
                19          19
                20          20

 KPOINTS: Kpoints from vasprun.xml

Automatic generation of k-mesh.
 Grid dimensions read from file:
 generate k-points for:    4    4    4

 Generating k-lattice:

  Cartesian coordinates                     Fractional coordinates (reciprocal lattice)
    -0.033564255 -0.033564255  0.000000000     0.250000000 -0.000000000 -0.000000000
    -0.033564255  0.000000000 -0.033564255    -0.000000000  0.250000000  0.000000000
     0.000000000 -0.033564255 -0.033564255    -0.000000000  0.000000000  0.250000000

  Length of vectors
     0.047467025  0.047467025  0.047467025

  Shift w.r.t. Gamma in fractional coordinates (k-lattice)
     0.500000000  0.500000000  0.500000000

 TETIRR: Found     77 inequivalent tetrahedra from      384

 Subroutine IBZKPT returns following result:

 Found      7 irreducible k-points:

 Following reciprocal coordinates:
            Coordinates               Weight
  0.125000  0.125000  0.125000      8.000000
  0.375000  0.125000  0.125000     12.000000
 -0.125000  0.125000  0.125000      6.000000
 -0.375000  0.375000  0.125000     12.000000
  0.125000 -0.125000  0.375000     12.000000
 -0.375000 -0.375000  0.125000      8.000000
 -0.375000  0.375000  0.375000      6.000000

 Following cartesian coordinates:
            Coordinates               Weight
 -0.033564 -0.033564 -0.033564      8.000000
 -0.067129 -0.067129 -0.033564     12.000000
 -0.000000 -0.000000 -0.033564      6.000000
 -0.000000  0.033564 -0.067129     12.000000
 -0.000000 -0.067129 -0.033564     12.000000
  0.100693  0.033564  0.033564      8.000000
 -0.000000 -0.000000 -0.100693      6.000000

 SYSTEM =  unknown system
 POSCAR =  Gd1 Fe4 Cu3 O12

 Startparameter for this run:
   NWRITE =      2    write-flag & timer
   PREC   = accura    normal or accurate (medium, high low for compatibility)
   ISTART =      0    job   : 0-new  1-cont  2-samecut
   ICHARG =      2    charge: 1-file 2-atom 10-const
   ISPIN  =      2    spin polarized calculation?
   LNONCOLLINEAR =      F non collinear calculations
   LSORBIT =      F    spin-orbit coupling
   INIWAV =      1    electr: 0-lowe 1-rand  2-diag
   LASPH  =      T    aspherical Exc in radial PAW
 Electronic Relaxation 1
[...]
  382            brsav                                 0.000152                       38   5
  383        m_bcast_d                             0.000023                            2   3
  384      potlok                                0.029772                              2   2
  385        fft3d_mpi                             0.018318                           36   3
  386          fftbrc_mpi                            0.015443                         36   4
  387            fftbas_plan_mpi                       0.015429                       36   5
  388              map_forward                           0.004499                     40   6
  389                map_gather                            0.001514                   24   7
  390                m_alltoallv_z                         0.001451                   24   7
  391                map_scatter                           0.001357                   24   7
  392              map_backward                          0.003677                     32   6
  393                map_gather                            0.001270                   16   7
  394                m_alltoallv_z                         0.001076                   16   7
  395                map_scatter                           0.001137                   16   7
  396              dfftw_execute                         0.005360                     30   6
  397        m_sumb_d                              0.000024                            5   3
  398        pothar                                0.001119                            2   3
  399          m_sumb_d                              0.000020                          2   4
  400        m_bcast_d                             0.001886                            4   3
  401      potlok_metagga                        0.000000                              1   2
  402      set_dd_magatom                        0.000004                              1   2
  403      set_dd_paw                            2.085128                              1   2
  404        m_sumb_d                              0.473709                            7   3
  405      augmentation_charge                   0.093121                              1   2
  406        fft3d_mpi                             0.032330                            2   3
  407          fftbrc_mpi                            0.028917                          2   4
  408            fftbas_plan_mpi                       0.028914                        2   5
  409              dfftw_execute                         0.018642                      6   6
  410              map_backward                          0.010000                      4   6
  411                map_gather                            0.002413                    2   7
  412                m_alltoallv_z                         0.005062                    2   7
  413                map_scatter                           0.002518                    2   7
  414      densta                                4.071778                              1   2

 Flat profile

 set_dd_paw                             57.872852          36
 m_sumb_d                               20.096763       16554
 init_acc                               10.932657           1
 total_time                              9.510121           1
 densta                                  7.307096          39
 raccmu_                                 7.002530       15209
 eccp                                    6.046269       75287
 setdij_                                 3.436400          62
 w1_gemv                                 3.361194      141892
 i2                                      3.208865       11097
 eccp_nl                                 3.115362       57199
 acc_init_cublas                         2.453699           1
 redis_pw                                2.380996       28466
 dfftw_execute                           2.364875        1236
 augmentation_charge                     2.158625          35
 phaser                                  2.145816         623
 eddav                                   1.953177           5
 lapack                                  1.780996        4112
 eddrmm                                  1.714520          33
 m_alltoall_d                            1.576344      235116
 cnorma                                  1.513542       57199
 eddiag                                  1.492566          33
 fft3d                                   1.202826      170738
 overl1                                  1.164532       70946
 fftwav                                  1.061259      105301
 acc_init_cusolver                       0.798629           1
 rpromu_acc                              0.778911       15657
 w1_copy                                 0.768779      149187
 w1_dscal                                0.707931      118889
 soft_charge                             0.702538          34
 m_alltoallv_z                           0.680280        1487
 hamilt_local                            0.654554       15708
 setup_precond                           0.637428       18088
 apply_precond                           0.579470      127607
 newband                                 0.556910       15741
 w1_gaxpy                                0.541009      106062
 racc0mu_acc                             0.508671       15209
 w1_daxpy                                0.453099       82996
 w1_dot                                  0.445822       15701
 fft3d_mpi                               0.422227       66784
 redis_proj                              0.420116       31090
 hamiltmu                                0.389407       15209
 map_scatter                             0.355365        1487
 pw_charge                               0.333385       12131
 map_gather                              0.305083        1487
 rpro_isp                                0.303217          91
 kinhamil                                0.283920       65437
 vhamil                                  0.274542       65437
 set_charge                              0.262311          34
 fftext_mpi                              0.261562       65437
 depsum                                  0.261046          34
 overl_mu                                0.232801       15209
 orth1                                   0.230747       17026
 zhegv                                   0.216334       25797
 rspher_all                              0.193900          14
 m_bcast_z                               0.183030        6016
 choleski                                0.144779         476
 fftwav_mpi                              0.142967      105301
 potlok                                  0.138886          36
 overl                                   0.123458       15006
 acc_cufft_makeplan                      0.120325          19
 i3                                      0.109411       11097
 elmin                                   0.090933           1
 fftbas_plan_mpi                         0.090589        1347
 orthch                                  0.082550          34
 sphpro_fast                             0.081173           2
 m_bcast_d                               0.067136        8301
 ggemm                                   0.057019        5302
 proall                                  0.048215           1
 brmix                                   0.032765          34
 broyd                                   0.031021          34
 lincom                                  0.027864        1008
 setg0                                   0.027508          36
 w1_projall                              0.013214       14019
 brget                                   0.012631        3105
 i1                                      0.012358       11097
 force_and_stress                        0.010819           1
 map_backward                            0.007539        1410
 stufak                                  0.007477           1
 map_forward                             0.006879        1284
 inisym                                  0.005325           1
 truncate_high_frequency_w1              0.005135       67817
 pothar                                  0.003700          37
 brsav                                   0.003016         737
 strnlr                                  0.002610           1
 forhar                                  0.002579           2
 fft_gq                                  0.001925          34
 strelo                                  0.001704           1
 forloc                                  0.001337           1
 strehar                                 0.001267           1
 fornlr                                  0.000897           1
 brpre                                   0.000833          68
 fftbrc_mpi                              0.000824        1347
 rsp                                     0.000608           1
 strkin                                  0.000411           1
 fewald                                  0.000357           1
 chggra                                  0.000233           1
 brgrid                                  0.000173           1
 set_dd_magatom                          0.000167          36
 vectorpot                               0.000148          35
 posmap                                  0.000095           2
 fordep                                  0.000085           1
 shift_bands_between_low_high            0.000056         462
 rcp                                     0.000035           1
 crpa_reader                             0.000028           1
 acc_cufft_makeplans                     0.000012           3
 potlok_metagga                          0.000004          35
 rotate_active_occupied_orbital          0.000000           1
 redis_pw_over_bands                     0.000000           1
  summed up times     172.1179859638214

 Accumulative profile

 total_time                            172.117986           1
 elmin                                 134.969753           1
 set_dd_paw                             74.818760          36
 eddrmm                                 35.410571          33
 m_sumb_d                               20.096763       16554
 init_acc                               10.932657           1
 i2                                     10.587829       11097
 eddav                                  10.390956           5
 i3                                     10.357536       11097
 hamiltmu                                9.112431       15209
 raccmu_                                 7.744002       15209
 densta                                  7.307096          39
 setdij_                                 6.047335          62
 eccp                                    6.046269       75287
 force_and_stress                        6.039941           1
 set_charge                              5.344942          34
 fft3d_mpi                               4.664751       66784
 cnorma                                  4.628904       57199
 w1_gemv                                 4.525726      141892
 eddiag                                  4.400867          33
 fftbrc_mpi                              3.811434        1347
 fftbas_plan_mpi                         3.810609        1347
 augmentation_charge                     3.332056          35
 newband                                 3.275632       15741
 eccp_nl                                 3.115362       57199
 redis_pw                                3.038358       28466
 acc_init_cublas                         2.453699           1
 dfftw_execute                           2.364875        1236
 phaser                                  2.145816         623
 orthch                                  2.048327          34
 fftwav_mpi                              1.975962      105301
 fftwav                                  1.832995      105301
 lapack                                  1.780996        4112
 m_alltoall_d                            1.576344      235116
 soft_charge                             1.535090          34
 redis_proj                              1.339098       31090
 fft3d                                   1.202826      170738
 overl1                                  1.164532       70946
 kinhamil                                0.995227       65437
 hamilt_local                            0.945301       15708
 strnlr                                  0.941244           1
 rpro_isp                                0.805881          91
 acc_init_cusolver                       0.798629           1
 map_forward                             0.789283        1284
 rpromu_acc                              0.778911       15657
 w1_copy                                 0.768779      149187
 fftext_mpi                              0.711308       65437
 w1_dscal                                0.707931      118889
 m_alltoallv_z                           0.680280        1487
 setup_precond                           0.637428       18088
 fordep                                  0.589052           1
 apply_precond                           0.579470      127607
 map_backward                            0.565863        1410
 w1_gaxpy                                0.541009      106062
 racc0mu_acc                             0.508671       15209
 w1_projall                              0.473815       14019
 w1_daxpy                                0.453099       82996
 w1_dot                                  0.445822       15701
 potlok                                  0.424327          36
 map_scatter                             0.355365        1487
 pw_charge                               0.333385       12131
 fornlr                                  0.314135           1
 map_gather                              0.305083        1487
 vhamil                                  0.274542       65437
 depsum                                  0.268779          34
 overl_mu                                0.232801       15209
 orth1                                   0.230747       17026
 zhegv                                   0.216334       25797
 i1                                      0.196210       11097
 rspher_all                              0.193900          14
 m_bcast_z                               0.183030        6016
 choleski                                0.144779         476
 overl                                   0.123458       15006
 acc_cufft_makeplans                     0.120338           3
 acc_cufft_makeplan                      0.120325          19
 brmix                                   0.119619          34
 proall                                  0.097854           1
 sphpro_fast                             0.084684           2
 m_bcast_d                               0.067136        8301
 fft_gq                                  0.058851          34
 ggemm                                   0.057019        5302
 broyd                                   0.056815          34
 lincom                                  0.027864        1008
 setg0                                   0.027508          36
 brget                                   0.012631        3105
 stufak                                  0.007477           1
 inisym                                  0.005420           1
 truncate_high_frequency_w1              0.005135       67817
 pothar                                  0.004033          37
 brsav                                   0.003016         737
 forhar                                  0.002630           2
 strelo                                  0.001715           1
 forloc                                  0.001602           1
 strehar                                 0.001270           1
 fewald                                  0.001050           1
 brpre                                   0.000833          68
 chggra                                  0.000781           1
 rsp                                     0.000608           1
 strkin                                  0.000416           1
 brgrid                                  0.000173           1
 set_dd_magatom                          0.000167          36
 vectorpot                               0.000148          35
 posmap                                  0.000095           2
 shift_bands_between_low_high            0.000056         462
 rcp                                     0.000035           1
 crpa_reader                             0.000028           1
 potlok_metagga                          0.000004          35
 rotate_active_occupied_orbital          0.000000           1
 redis_pw_over_bands                     0.000000           1

Profiling took   0.251832  0.174350  0.003233  0.003132 seconds
Profiling took   0.197853 seconds