 vasp.6.3.2 27Jun22 (build Jul  3 2023 11:46:21) complex
 executed on    LinuxNV_CrayMPICH date 2024.04.21  00:40:06

 INCAR:
   ADDGRID = True
   ALGO = Normal
   EDIFF = 0.0005
   ENCUT = 520.0
   IBRION = -1
   ICHARG = 0
   ISIF = 3
   ISMEAR = -5
   ISPIN = 2
   KPOINT_BSE = -1 0 0 0
   LAECHG = True
   LASPH = True
   LCHARG = True
   LELF = True
   LORBIT = 11
   LREAL = Auto
   LVHAR = True
   LWAVE = False
   MAGMOM = 2*0.6 1*7.0 7*0.6
   NELM = 1000
   NSW = 0
   PREC = accurate
   SIGMA = 0.05

 POTCAR:    PAW_PBE Sr_sv 07Sep2000
 POTCAR:    PAW_PBE Gd 23Dec2003
 POTCAR:    PAW_PBE Ru_pv 28Jan2005
 POTCAR:    PAW_PBE O 08Apr2002
 POTCAR:    PAW_PBE Sr_sv 07Sep2000
   VRHFIN =Sr: 4s4p5s

   TITEL  = PAW_PBE Sr_sv 07Sep2000
   POMASS =   87.620; ZVAL   =   10.000    mass and valenz
   ENMAX  =  229.353; ENMIN  =  172.014 eV

   TITEL  = PAW_PBE Gd 23Dec2003
   POMASS =  157.250; ZVAL   =   18.000    mass and valenz
   ENMAX  =  256.472; ENMIN  =  192.354 eV

   TITEL  = PAW_PBE Ru_pv 28Jan2005
   POMASS =  101.070; ZVAL   =   14.000    mass and valenz
   ENMAX  =  240.049; ENMIN  =  180.037 eV

   TITEL  = PAW_PBE O 08Apr2002
   POMASS =   16.000; ZVAL   =    6.000    mass and valenz
   ENMAX  =  400.000; ENMIN  =  300.000 eV

 Optimization of the real space projectors (new method)

 maximal supplied QI-value         = 15.12
 optimisation between [QCUT,QGAM] = [ 11.64, 23.28] = [ 37.95,151.78] Ry
 Optimized for a Real-space Cutoff    1.58 Angstroem

   l    n(q)    QCUT    max X(q) W(low)/X(q) W(high)/X(q)  e(spline)
   0     11    11.641    11.565    0.25E-04    0.45E-05    0.87E-07
   0     11    11.641    10.214    0.38E-04    0.85E-05    0.18E-06
   1     11    11.641   189.983    0.18E-03    0.75E-04    0.37E-06
   1     11    11.641   193.105    0.18E-03    0.75E-04    0.37E-06
   2     10    11.641   115.941    0.51E-04    0.22E-03    0.56E-06
   2     10    11.641    76.444    0.49E-04    0.21E-03    0.55E-06
 Optimization of the real space projectors (new method)

[...]

   l    n(q)    QCUT    max X(q) W(low)/X(q) W(high)/X(q)  e(spline)
   1     10    11.641     3.180    0.30E-04    0.36E-05    0.54E-07
   1     10    11.641     5.351    0.12E-03    0.51E-04    0.30E-06
   2      9    11.641    66.565    0.22E-03    0.78E-04    0.20E-06
   2      9    11.641    63.466    0.22E-03    0.79E-04    0.20E-06
   0     10    11.641    85.644    0.61E-04    0.23E-04    0.12E-06
   0     10    11.641    44.119    0.56E-04    0.21E-04    0.11E-06
 Optimization of the real space projectors (new method)

 maximal supplied QI-value         = 24.76
 optimisation between [QCUT,QGAM] = [ 11.64, 23.27] = [ 37.91,151.63] Ry
 Optimized for a Real-space Cutoff    1.14 Angstroem

   l    n(q)    QCUT    max X(q) W(low)/X(q) W(high)/X(q)  e(spline)
   0      8    11.635    20.381    0.10E-03    0.33E-03    0.24E-06
   0      8    11.635    15.268    0.11E-03    0.35E-03    0.26E-06
   1      7    11.635     5.964    0.24E-03    0.31E-03    0.30E-06
   1      7    11.635     5.382    0.22E-03    0.25E-03    0.26E-06
  PAW_PBE Sr_sv 07Sep2000               :
  PAW_PBE Gd 23Dec2003                  :
  PAW_PBE Ru_pv 28Jan2005               :
  PAW_PBE O 08Apr2002                   :

 POSCAR: Sr2 Gd1 Ru1 O6
  positions in direct lattice
 exchange correlation table for  LEXCH =        8
   RHO(1)=    0.500       N(1)  =     2000
   RHO(2)=  100.500       N(2)  =     4000

 VTST: version 4.2, (08/11/21)

 CHAIN: initializing optimizer

 OPT: Using VASP Dynamics algorithm
 CHAIN: Read ICHAIN             0

 POSCAR: Sr2 Gd1 Ru1 O6
  positions in direct lattice

 ion  position               nearest neighbor table
   1  0.250  0.750  0.500-   7 2.64   8 2.64   9 2.64  10 2.64   5 2.92   6 2.92   5 2.92   6 2.92
                             7 3.32  10 3.32   8 3.32   9 3.32   4 3.60   3 3.60   4 3.60   3 3.60
   2  0.750  0.250  0.500-   7 2.64   8 2.64   9 2.64  10 2.64   5 2.92   6 2.92   5 2.92   6 2.92
                             8 3.32   7 3.32  10 3.32   9 3.32   4 3.60   3 3.60   3 3.60   4 3.60
   3  0.000  0.000  0.000-   5 2.24   6 2.24   9 2.26  10 2.26   8 2.26   7 2.26   2 3.60   1 3.60
                             2 3.60   1 3.60   2 3.60   1 3.60   2 3.60   1 3.60
   4  0.500  0.500  0.000-   5 1.98   6 1.98   7 1.98   8 1.98   9 1.98  10 1.98   1 3.60   2 3.60
                             1 3.60   2 3.60   1 3.60   2 3.60   1 3.60   2 3.60
   5  0.266  0.266  0.000-   4 1.98   3 2.24   1 2.92   2 2.92   1 2.92   2 2.92
   6  0.734  0.734  0.000-   4 1.98   3 2.24   1 2.92   2 2.92   1 2.92   2 2.92
   7  0.792  0.673  0.465-   4 1.98   3 2.26   2 2.64   1 2.64   1 3.32   2 3.32
   8  0.208  0.327  0.535-   4 1.98   3 2.26   1 2.64   2 2.64   2 3.32   1 3.32
   9  0.673  0.208  0.881-   4 1.98   3 2.26   1 2.64   2 2.64   1 3.32   2 3.32
  10  0.327  0.792  0.119-   4 1.98   3 2.26   1 2.64   2 2.64   1 3.32   2 3.32

  LATTYP: Found a body centered tetragonal cell.
 ALAT       =     5.8349420000
 C/A-ratio  =     1.4472178130

  Lattice vectors:

 A1 = (  -2.9174710000,   2.9174710000,   4.2222160000)
 A2 = (   2.9174710000,  -2.9174710000,   4.2222160000)
 A3 = (   2.9174710000,   2.9174710000,  -4.2222160000)

Analysis of symmetry for initial positions (statically):
 Subroutine PRICEL returns:
 Original cell was already a primitive cell.

 Routine SETGRP: Setting up the symmetry group for a
 body centered tetragonal supercell.

 Subroutine GETGRP returns: Found  8 space group operations
 (whereof  8 operations were pure point group operations)
 out of a pool of 16 trial point group operations.

The static configuration has the point symmetry C_4h.

Analysis of symmetry for dynamics (positions and initial velocities):
 Subroutine PRICEL returns:
 Original cell was already a primitive cell.

[...]

The dynamic configuration has the point symmetry C_4h.

Analysis of structural, dynamic, and magnetic symmetry:
 Subroutine PRICEL returns:
 Original cell was already a primitive cell.

 Routine SETGRP: Setting up the symmetry group for a
 body centered tetragonal supercell.

 Subroutine GETGRP returns: Found  8 space group operations
 (whereof  8 operations were pure point group operations)
 out of a pool of 16 trial point group operations.

The overall configuration has the point symmetry C_4h.

 Subroutine INISYM returns: Found  8 space group operations
 (whereof  8 operations are pure point group operations),
 and found     1 'primitive' translations

                                     Primitive cell

  volume of cell :     143.7519

  direct lattice vectors                    reciprocal lattice vectors
    -2.917471000  2.917471000  4.222216000    -0.000000000  0.171381309  0.118421227
     2.917471000 -2.917471000  4.222216000     0.171381309 -0.000000000  0.118421227
     2.917471000  2.917471000 -4.222216000     0.171381309  0.171381309 -0.000000000

  length of vectors
     5.903421213  5.903421213  5.903421213     0.208315002  0.208315002  0.242369772

  position of ions in fractional coordinates (direct lattice)
     0.250000000  0.750000000  0.500000000
     0.750000000  0.250000000  0.500000000
     0.000000000  0.000000000  0.000000000
     0.500000000  0.500000000  1.000000000
     0.265556000  0.265556000  1.000000000
     0.734444000  0.734444000  1.000000000
     0.791840000  0.673283000  0.465123000
     0.208160000  0.326717000  0.534877000
     0.673283000  0.208160000  0.881443000
     0.326717000  0.791840000  0.118557000

  ion indices of the primitive-cell ions
   primitive index   ion index
                 1           1
                 2           2
                 3           3
                 4           4
                 5           5
                 6           6
                 7           7
                 8           8
                 9           9
                10          10

 KPOINTS: Kpoints from vasprun.xml

Automatic generation of k-mesh.
 Grid dimensions read from file:
 generate k-points for:    5    5    5

 Generating k-lattice:

  Cartesian coordinates                     Fractional coordinates (reciprocal lattice)
    -0.000000000  0.034276262  0.023684245     0.200000000 -0.000000000  0.000000000
     0.034276262 -0.000000000  0.023684245    -0.000000000  0.200000000  0.000000000
     0.034276262  0.034276262 -0.000000000    -0.000000000  0.000000000  0.200000000

  Length of vectors
     0.041663000  0.041663000  0.048473954

  Shift w.r.t. Gamma in fractional coordinates (k-lattice)
     0.000000000  0.000000000  0.000000000

 TETIRR: Found    270 inequivalent tetrahedra from      750

 Subroutine IBZKPT returns following result:

 Found     21 irreducible k-points:

 Following reciprocal coordinates:
            Coordinates               Weight
  0.000000  0.000000  0.000000      1.000000
  0.200000  0.000000  0.000000      8.000000
  0.400000  0.000000  0.000000      8.000000
  0.200000  0.200000  0.000000      8.000000
  0.400000  0.200000  0.000000      8.000000
 -0.200000 -0.400000  0.000000      8.000000
 -0.400000  0.200000  0.000000      8.000000
 -0.200000  0.400000  0.000000      8.000000
 -0.200000  0.200000  0.000000      4.000000
  0.400000  0.400000  0.000000      8.000000
 -0.400000  0.400000  0.000000      4.000000
  0.200000  0.200000  0.200000      8.000000
 -0.200000  0.200000  0.200000      4.000000
 -0.400000  0.400000  0.200000      4.000000
 -0.400000  0.400000 -0.200000      4.000000
 -0.200000  0.400000  0.200000      8.000000
 -0.400000 -0.400000  0.200000      8.000000
 -0.200000 -0.400000  0.200000      8.000000
 -0.200000 -0.200000  0.200000      2.000000
 -0.400000  0.400000  0.400000      4.000000
 -0.400000 -0.400000  0.400000      2.000000

 Following cartesian coordinates:
            Coordinates               Weight
  0.000000  0.000000  0.000000      1.000000
  0.000000  0.034276  0.023684      8.000000
  0.000000  0.068553  0.047368      8.000000
  0.034276  0.034276  0.047368      8.000000
  0.034276  0.068553  0.071053      8.000000
 -0.068553 -0.034276 -0.071053      8.000000
  0.034276 -0.068553 -0.023684      8.000000
  0.068553 -0.034276  0.023684      8.000000
  0.034276 -0.034276  0.000000      4.000000
  0.068553  0.068553  0.094737      8.000000
  0.068553 -0.068553  0.000000      4.000000
  0.068553  0.068553  0.047368      8.000000
  0.068553  0.000000  0.000000      4.000000
  0.102829 -0.034276  0.000000      4.000000
  0.034276 -0.102829  0.000000      4.000000
  0.102829  0.000000  0.023684      8.000000
 -0.034276 -0.034276 -0.094737      8.000000
 -0.034276  0.000000 -0.071053      8.000000
  0.000000  0.000000 -0.047368      2.000000
  0.137105  0.000000  0.000000      4.000000
  0.000000  0.000000 -0.094737      2.000000

 SYSTEM =  unknown system
 POSCAR =  Sr2 Gd1 Ru1 O6

 Startparameter for this run:
   NWRITE =      2    write-flag & timer
   PREC   = accura    normal or accurate (medium, high low for compatibility)
   ISTART =      0    job   : 0-new  1-cont  2-samecut
   ICHARG =      0    charge: 1-file 2-atom 10-const
   ISPIN  =      2    spin polarized calculation?
   LNONCOLLINEAR =      F non collinear calculations
   LSORBIT =      F    spin-orbit coupling
[...]
  318                map_forward                           0.000196                    4   7
  319                  map_gather                            0.000045                  2   8
  320                  m_alltoallv_z                         0.000028                  2   8
  321                  map_scatter                           0.000094                  2   8
  322                map_backward                          0.000079                    2   7
  323                  map_gather                            0.000019                  1   8
  324                  m_alltoallv_z                         0.000012                  1   8
  325                  map_scatter                           0.000033                  1   8
  326          m_sumb_d                              0.000011                          2   4
  327          pothar                                0.000085                          1   4
  328            m_sumb_d                              0.000016                        1   5
  329        brmix                                 0.004530                            1   3
  330          m_sumb_d                              0.000027                          6   4
  331          brpre                                 0.000021                          2   4
  332          setg0                                 0.000798                          1   4
  333          broyd                                 0.002720                          1   4
  334            m_sumb_d                              0.000327                       40   5
  335            brget                                 0.000565                      174   5
  336            brsav                                 0.000123                       38   5
  337        m_bcast_d                             0.000018                            2   3
  338      potlok                                0.030096                              2   2
  339        fft3d_mpi                             0.019063                           36   3
  340          fftbrc_mpi                            0.016041                         36   4
  341            fftbas_plan_mpi                       0.016022                       36   5
  342              map_forward                           0.004771                     40   6
  343                map_gather                            0.001520                   24   7
  344                m_alltoallv_z                         0.001677                   24   7
  345                map_scatter                           0.001393                   24   7
  346              map_backward                          0.003868                     32   6
  347                map_gather                            0.001240                   16   7
  348                m_alltoallv_z                         0.001270                   16   7
  349                map_scatter                           0.001167                   16   7
  350              dfftw_execute                         0.005677                     30   6
  351        m_sumb_d                              0.000025                            5   3
  352        pothar                                0.001141                            2   3
  353          m_sumb_d                              0.000106                          2   4
  354        m_bcast_d                             0.001859                            4   3
  355      potlok_metagga                        0.000000                              1   2
  356      set_dd_magatom                        0.000005                              1   2
  357      set_dd_paw                            1.150178                              1   2
  358        m_sumb_d                              0.461709                            7   3
  359      augmentation_charge                   0.105928                              1   2
  360        fft3d_mpi                             0.032741                            2   3
  361          fftbrc_mpi                            0.028868                          2   4
  362            fftbas_plan_mpi                       0.028865                        2   5
  363              dfftw_execute                         0.019004                      6   6
  364              map_backward                          0.009598                      4   6
  365                map_gather                            0.002511                    2   7
  366                m_alltoallv_z                         0.004622                    2   7
  367                map_scatter                           0.002455                    2   7
  368      fftwav_mpi                            1.467097                           1890   2
  369        fftwav                                1.464769                         1890   3
  370          fft3d                                 1.405693                       1890   4
  371      densta                                4.356142                              1   2

 Flat profile

 m_sumb_d                               30.647295      152961
 set_dd_paw                             24.881773          36
 raccmu_                                24.722763       49382
 eddav                                  22.535553          38
 lapack                                 21.413763       49382
 init_acc                               12.045954           1
 total_time                              9.947369           1
 redis_pw                                9.607523      252303
 densta                                  8.090227          39
 phaser                                  5.411884        1869
 m_alltoall_d                            4.799061      664013
 setdij_                                 4.291593          62
 fft3d                                   3.763957      276057
 augmentation_charge                     2.648493          36
 acc_init_cublas                         2.499996           1
 dfftw_execute                           2.371666        1308
 redis_proj                              2.141647      319394
 eccp                                    2.139096       23940
 fftwav                                  1.861119      185068
 orth1                                   1.555477      148230
 rpromu_acc                              1.427242       38798
 racc0mu_acc                             1.409436       49382
 w1_copy                                 1.325996      272967
 overl                                   1.319092      158080
 hamiltmu                                1.222165       49382
 m_bcast_z                               1.097333       51902
 soft_charge                             1.082692          35
 setup_precond                           0.864409       23940
 m_bcast_d                               0.846463       98841
 acc_init_cusolver                       0.793335           1
 overl_mu                                0.769489       49382
 m_alltoallv_z                           0.700407        1533
 ggemm                                   0.645823       62150
 pw_charge                               0.487676       16950
 rpro_isp                                0.466035         273
 fft3d_mpi                               0.443953       92360
 vhamil                                  0.425582       90989
 kinhamil                                0.414761       90989
 newband                                 0.413284       50978
 fftext_mpi                              0.387145       90989
 apply_precond                           0.371253       67049
 map_scatter                             0.369739        1533
 depsum                                  0.352798          35
 map_gather                              0.326852        1533
 set_charge                              0.281485          35
 fftwav_mpi                              0.247860      185068
 rspher_all                              0.175610          14
 potlok                                  0.142015          36
 acc_cufft_makeplan                      0.120155          19
 fftbas_plan_mpi                         0.091380        1371
 elmin                                   0.081585           1
 sphpro_fast                             0.064106           2
 lincom                                  0.063419        1638
 proall                                  0.049816           1
 w1_projall                              0.036734       36614
 brmix                                   0.032202          34
 setg0                                   0.027266          36
 broyd                                   0.025829          34
 orthch                                  0.013299           1
 force_and_stress                        0.010945           1
 truncate_high_frequency_w1              0.009723      114929
 brget                                   0.009423        3105
 choleski                                0.009316          42
 map_backward                            0.007618        1430
 map_forward                             0.006919        1312
 strnlr                                  0.005910           1
 inisym                                  0.004605           1
 stufak                                  0.004250           1
 pothar                                  0.003663          37
 forhar                                  0.002556           2
 brsav                                   0.002310         737
 fornlr                                  0.002040           1
 strelo                                  0.001627           1
 fft_gq                                  0.001375          35
 forloc                                  0.001325           1
 strehar                                 0.001286           1
 fftbrc_mpi                              0.000822        1371
 brpre                                   0.000689          68
 strkin                                  0.000483           1
 fewald                                  0.000336           1
 chggra                                  0.000240           1
 rsp                                     0.000200           1
 brgrid                                  0.000166           1
 set_dd_magatom                          0.000163          36
 vectorpot                               0.000144          35
 fordep                                  0.000057           1
 crpa_reader                             0.000028           1
 posmap                                  0.000023           2
 rcp                                     0.000022           1
 acc_cufft_makeplans                     0.000011           3
 potlok_metagga                          0.000004          35
 rotate_active_occupied_orbital          0.000001           1
 redis_pw_over_bands                     0.000000           1
  summed up times     216.8802118301392

 Accumulative profile

 total_time                            216.880212           1
 elmin                                 176.398218           1
 eddav                                 122.691218          38
 set_dd_paw                             41.612380          36
 m_sumb_d                               30.647295      152961
 hamiltmu                               30.018718       49382
 raccmu_                                26.901689       49382
 lapack                                 21.413763       49382
 init_acc                               12.045954           1
 redis_pw                               11.919479      252303
 densta                                  8.090227          39
 set_charge                              7.017035          35
 setdij_                                 6.900865          62
 force_and_stress                        6.263498           1
 phaser                                  5.411884        1869
 fftwav_mpi                              5.234291      185068
 newband                                 5.224160       50978
 fftwav                                  4.986431      185068
 fft3d_mpi                               4.958000       92360
 m_alltoall_d                            4.799061      664013
 redis_proj                              4.628752      319394
 fftbrc_mpi                              3.875403        1371
 fftbas_plan_mpi                         3.874581        1371
 augmentation_charge                     3.847418          36
 fft3d                                   3.763957      276057
 soft_charge                             2.594903          35
 acc_init_cublas                         2.499996           1
 dfftw_execute                           2.371666        1308
 eccp                                    2.139096       23940
 orth1                                   1.555477      148230
 strnlr                                  1.497344           1
 kinhamil                                1.469282       90989
 rpromu_acc                              1.427242       38798
 racc0mu_acc                             1.409436       49382
 w1_copy                                 1.325996      272967
 overl                                   1.319092      158080
 rpro_isp                                1.115079         273
 m_bcast_z                               1.097333       51902
 w1_projall                              1.063001       36614
 fftext_mpi                              1.054521       90989
 setup_precond                           0.864409       23940
 m_bcast_d                               0.846463       98841
 map_forward                             0.826406        1312
 acc_init_cusolver                       0.793335           1
 overl_mu                                0.769489       49382
 m_alltoallv_z                           0.700407        1533
 fordep                                  0.672243           1
 ggemm                                   0.645823       62150
 map_backward                            0.585129        1430
 fornlr                                  0.502942           1
 pw_charge                               0.487676       16950
 potlok                                  0.440150          36
 vhamil                                  0.425582       90989
 apply_precond                           0.371253       67049
 map_scatter                             0.369739        1533
 depsum                                  0.356993          35
 map_gather                              0.326852        1533
 orthch                                  0.290836           1
 rspher_all                              0.175610          14
 proall                                  0.147911           1
 acc_cufft_makeplans                     0.120167           3
 acc_cufft_makeplan                      0.120155          19
 brmix                                   0.104638          34
 sphpro_fast                             0.066203           2
 lincom                                  0.063419        1638
 fft_gq                                  0.059383          35
 broyd                                   0.043048          34
 setg0                                   0.027266          36
 truncate_high_frequency_w1              0.009723      114929
 brget                                   0.009423        3105
 choleski                                0.009316          42
 inisym                                  0.004628           1
 stufak                                  0.004250           1
 pothar                                  0.004062          37
 forhar                                  0.002584           2
 brsav                                   0.002310         737
 strelo                                  0.001719           1
 forloc                                  0.001424           1
 strehar                                 0.001289           1
 chggra                                  0.000803           1
 brpre                                   0.000689          68
 fewald                                  0.000630           1
 strkin                                  0.000490           1
 rsp                                     0.000200           1
 brgrid                                  0.000166           1
 set_dd_magatom                          0.000163          36
 vectorpot                               0.000144          35
 crpa_reader                             0.000028           1
 posmap                                  0.000023           2
 rcp                                     0.000022           1
 potlok_metagga                          0.000004          35
 rotate_active_occupied_orbital          0.000001           1
 redis_pw_over_bands                     0.000000           1

Profiling took   0.595488  0.294274  0.003234  0.003142 seconds
Profiling took   0.379290 seconds