 vasp.6.3.2 27Jun22 (build Jul  3 2023 11:46:21) complex
 executed on    LinuxNV_CrayMPICH date 2024.04.21  01:46:47

 INCAR:
   ADDGRID = True
   ALGO = Normal
   EDIFF = 0.0002
   ENCUT = 520.0
   IBRION = -1
   ICHARG = 0
   ISIF = 3
   ISMEAR = -5
   ISPIN = 2
   ISTART = 1
   KPOINT_BSE = -1 0 0 0
   LAECHG = True
   LASPH = True
   LCHARG = True
   LELF = True
   LORBIT = 11
   LREAL = Auto
   LVHAR = True
   LWAVE = False
   MAGMOM = 1*7.0 3*0.6
   NELM = 1000
   NSW = 0
   PREC = accurate
   SIGMA = 0.05

 POTCAR:    PAW_PBE Gd 23Dec2003
 POTCAR:    PAW_PBE In_d 06Sep2000
 POTCAR:    PAW_PBE Cu_pv 06Sep2000
 POTCAR:    PAW_PBE Gd 23Dec2003
   VRHFIN =Gd : [core=Xe4]

   TITEL  = PAW_PBE Gd 23Dec2003
   POMASS =  157.250; ZVAL   =   18.000    mass and valenz
   ENMAX  =  256.472; ENMIN  =  192.354 eV

   TITEL  = PAW_PBE In_d 06Sep2000
   POMASS =  114.820; ZVAL   =   13.000    mass and valenz
   ENMAX  =  239.211; ENMIN  =  179.409 eV

   TITEL  = PAW_PBE Cu_pv 06Sep2000
   POMASS =   63.546; ZVAL   =   17.000    mass and valenz
   ENMAX  =  368.648; ENMIN  =  276.486 eV

 Optimization of the real space projectors (new method)

 maximal supplied QI-value         = 13.42
 optimisation between [QCUT,QGAM] = [ 11.67, 23.35] = [ 38.16,152.62] Ry
 Optimized for a Real-space Cutoff    1.63 Angstroem

   l    n(q)    QCUT    max X(q) W(low)/X(q) W(high)/X(q)  e(spline)
   0     11    11.673    10.501    0.14E-04    0.17E-05    0.21E-07
   0     11    11.673     9.148    0.21E-04    0.32E-05    0.45E-07
   1     11    11.673     4.035    0.33E-05    0.11E-04    0.84E-07
   1     11    11.673     4.388    0.11E-04    0.47E-04    0.34E-06
   2     10    11.673    20.656    0.12E-04    0.28E-04    0.54E-06
   2     10    11.673    12.651    0.11E-04    0.26E-04    0.51E-06
   3     10    11.673    61.921    0.19E-03    0.22E-03    0.23E-06
   3     10    11.673    48.328    0.20E-03    0.23E-03    0.23E-06
 Optimization of the real space projectors (new method)

[...]

   l    n(q)    QCUT    max X(q) W(low)/X(q) W(high)/X(q)  e(spline)
   2      9    11.641     4.551    0.57E-04    0.17E-03    0.81E-07
   2      9    11.641     8.525    0.12E-03    0.33E-04    0.17E-06
   0      9    11.641   208.283    0.14E-03    0.45E-04    0.94E-07
   0      9    11.641   161.407    0.13E-03    0.44E-04    0.93E-07
   1      9    11.641   122.126    0.23E-03    0.20E-03    0.21E-06
   1      9    11.641    62.412    0.22E-03    0.19E-03    0.20E-06
 Optimization of the real space projectors (new method)

 maximal supplied QI-value         = 18.90
 optimisation between [QCUT,QGAM] = [ 11.53, 23.24] = [ 37.21,151.29] Ry
 Optimized for a Real-space Cutoff    1.36 Angstroem

   l    n(q)    QCUT    max X(q) W(low)/X(q) W(high)/X(q)  e(spline)
   1      9    11.527     3.172    0.21E-04    0.38E-04    0.11E-06
   1      9    11.527     4.083    0.67E-04    0.79E-04    0.20E-06
   2      9    11.527    65.342    0.13E-03    0.28E-03    0.26E-06
   2      9    11.527    61.381    0.13E-03    0.29E-03    0.26E-06
   0      9    11.527    65.742    0.32E-04    0.21E-04    0.72E-07
   0      9    11.527    30.431    0.28E-04    0.19E-04    0.65E-07
  PAW_PBE Gd 23Dec2003                  :
  PAW_PBE In_d 06Sep2000                :
  PAW_PBE Cu_pv 06Sep2000               :

 POSCAR: Gd1 In1 Cu2
  positions in direct lattice
 exchange correlation table for  LEXCH =        8
   RHO(1)=    0.500       N(1)  =     2000
   RHO(2)=  100.500       N(2)  =     4000

 VTST: version 4.2, (08/11/21)

 CHAIN: initializing optimizer

 OPT: Using VASP Dynamics algorithm
 CHAIN: Read ICHAIN             0

 POSCAR: Gd1 In1 Cu2
  positions in direct lattice

 ion  position               nearest neighbor table
   1  0.000  0.000  0.000-   4 2.89   4 2.89   4 2.89   3 2.89   4 2.89   3 2.89   3 2.89   3 2.89
                             2 3.34   2 3.34   2 3.34   2 3.34   2 3.34   2 3.34
   2  0.500  0.500  0.500-   3 2.89   3 2.89   3 2.89   3 2.89   4 2.89   4 2.89   4 2.89   4 2.89
                             1 3.34   1 3.34   1 3.34   1 3.34   1 3.34   1 3.34
   3  0.250  0.250  0.250-   1 2.89   1 2.89   1 2.89   1 2.89   2 2.89   2 2.89   2 2.89   2 2.89

   4  0.750  0.750  0.750-   2 2.89   2 2.89   2 2.89   1 2.89   2 2.89   1 2.89   1 2.89   1 2.89

  LATTYP: Found a face centered cubic cell.
 ALAT       =     6.6761540000

  Lattice vectors:

 A1 = (   0.0000000000,   3.3380770000,   3.3380770000)
 A2 = (   3.3380770000,   0.0000000000,   3.3380770000)
 A3 = (   3.3380770000,   3.3380770000,   0.0000000000)

Analysis of symmetry for initial positions (statically):
 Subroutine PRICEL returns:
 Original cell was already a primitive cell.

 Routine SETGRP: Setting up the symmetry group for a
 face centered cubic supercell.

 Subroutine GETGRP returns: Found 48 space group operations
 (whereof 48 operations were pure point group operations)
 out of a pool of 48 trial point group operations.

The static configuration has the point symmetry O_h .

Analysis of symmetry for dynamics (positions and initial velocities):
 Subroutine PRICEL returns:
 Original cell was already a primitive cell.

[...]

The dynamic configuration has the point symmetry O_h .

Analysis of structural, dynamic, and magnetic symmetry:
 Subroutine PRICEL returns:
 Original cell was already a primitive cell.

 Routine SETGRP: Setting up the symmetry group for a
 face centered cubic supercell.

 Subroutine GETGRP returns: Found 48 space group operations
 (whereof 48 operations were pure point group operations)
 out of a pool of 48 trial point group operations.

The overall configuration has the point symmetry O_h .

 Subroutine INISYM returns: Found 48 space group operations
 (whereof 48 operations are pure point group operations),
 and found     1 'primitive' translations

                                     Primitive cell

  volume of cell :      74.3908

  direct lattice vectors                    reciprocal lattice vectors
     0.000000000  3.338077000  3.338077000    -0.149786838  0.149786838  0.149786838
     3.338077000  0.000000000  3.338077000     0.149786838 -0.149786838  0.149786838
     3.338077000  3.338077000  0.000000000     0.149786838  0.149786838 -0.149786838

  length of vectors
     4.720753766  4.720753766  4.720753766     0.259438414  0.259438414  0.259438414

  position of ions in fractional coordinates (direct lattice)
     0.000000000  0.000000000  0.000000000
     0.500000000  0.500000000  0.500000000
     0.250000000  0.250000000  0.250000000
     0.750000000  0.750000000  0.750000000

  ion indices of the primitive-cell ions
   primitive index   ion index
                 1           1
                 2           2
                 3           3
                 4           4

 KPOINTS: Kpoints from vasprun.xml

Automatic generation of k-mesh.
 Grid dimensions read from file:
 generate k-points for:    6    6    6

 Generating k-lattice:

  Cartesian coordinates                     Fractional coordinates (reciprocal lattice)
    -0.024964473  0.024964473  0.024964473     0.166666667  0.000000000  0.000000000
     0.024964473 -0.024964473  0.024964473     0.000000000  0.166666667 -0.000000000
     0.024964473  0.024964473 -0.024964473    -0.000000000 -0.000000000  0.166666667

  Length of vectors
     0.043239736  0.043239736  0.043239736

  Shift w.r.t. Gamma in fractional coordinates (k-lattice)
     0.000000000  0.000000000  0.000000000

 TETIRR: Found     35 inequivalent tetrahedra from     1296

 Subroutine IBZKPT returns following result:

 Found     16 irreducible k-points:

 Following reciprocal coordinates:
            Coordinates               Weight
  0.000000  0.000000  0.000000      1.000000
  0.166667  0.000000  0.000000      8.000000
  0.333333  0.000000  0.000000      8.000000
  0.500000  0.000000  0.000000      4.000000
  0.166667  0.166667  0.000000      6.000000
  0.333333  0.166667  0.000000     24.000000
  0.500000  0.166667  0.000000     24.000000
 -0.333333  0.166667  0.000000     24.000000
 -0.166667  0.166667  0.000000     12.000000
  0.333333  0.333333  0.000000      6.000000
  0.500000  0.333333  0.000000     24.000000
 -0.333333  0.333333  0.000000     12.000000
  0.500000  0.500000  0.000000      3.000000
  0.500000  0.333333  0.166667     24.000000
 -0.333333  0.333333  0.166667     24.000000
 -0.333333  0.500000  0.166667     12.000000

 Following cartesian coordinates:
            Coordinates               Weight
  0.000000  0.000000  0.000000      1.000000
 -0.024964  0.024964  0.024964      8.000000
 -0.049929  0.049929  0.049929      8.000000
 -0.074893  0.074893  0.074893      4.000000
  0.000000  0.000000  0.049929      6.000000
 -0.024964  0.024964  0.074893     24.000000
 -0.049929  0.049929  0.099858     24.000000
  0.074893 -0.074893 -0.024964     24.000000
  0.049929 -0.049929  0.000000     12.000000
  0.000000  0.000000  0.099858      6.000000
 -0.024964  0.024964  0.124822     24.000000
  0.099858 -0.099858  0.000000     12.000000
  0.000000  0.000000  0.149787      3.000000
  0.000000  0.049929  0.099858     24.000000
  0.124822 -0.074893 -0.024964     24.000000
  0.149787 -0.099858  0.000000     12.000000

 SYSTEM =  unknown system
 POSCAR =  Gd1 In1 Cu2

 Startparameter for this run:
   NWRITE =      2    write-flag & timer
   PREC   = accura    normal or accurate (medium, high low for compatibility)
   ISTART =      0    job   : 0-new  1-cont  2-samecut
   ICHARG =      2    charge: 1-file 2-atom 10-const
   ISPIN  =      2    spin polarized calculation?
   LNONCOLLINEAR =      F non collinear calculations
   LSORBIT =      F    spin-orbit coupling
   INIWAV =      1    electr: 0-lowe 1-rand  2-diag
   LASPH  =      T    aspherical Exc in radial PAW
 Electronic Relaxation 1
   ENCUT  =  520.0 eV  38.22 Ry    6.18 a.u.   8.78  8.78  8.78*2*pi/ulx,y,z
   ENINI  =  520.0     initial cutoff
   ENAUG  =  758.2 eV  augmentation charge cutoff
   NELM   =   1000;   NELMIN=  2; NELMDL=  0     # of ELM steps
   EDIFF  = 0.2E-03   stopping-criterion for ELM
   LREAL  =      T    real-space projection
   NLSPLINE    = F    spline interpolate recip. space projectors
   LCOMPAT=      F    compatible to vasp.4.4
   GGA_COMPAT  = T    GGA compatible to vasp.4.4-vasp.4.6
   LMAXPAW     = -100 max onsite density
   LMAXMIX     =    2 max onsite mixed and CHGCAR
   VOSKOWN=      0    Vosko Wilk Nusair interpolation
   ROPT   =   -0.00025  -0.00025  -0.00025
 Ionic relaxation
   EDIFFG = 0.2E-02   stopping-criterion for IOM
   NSW    =      0    number of steps for IOM
   NBLOCK =      1;   KBLOCK =      1    inner block; outer block
   IBRION =     -1    ionic relax: 0-MD 1-quasi-New 2-CG
   NFREE  =      0    steps in history (QN), initial steepest desc. (CG)
   ISIF   =      3    stress and relaxation
   IWAVPR =     10    prediction:  0-non 1-charg 2-wave 3-comb
   ISYM   =      2    0-nonsym 1-usesym 2-fastsym
   LCORR  =      T    Harris-Foulkes like correction to forces

   POTIM  = 0.5000    time-step for ionic-motion
   TEIN   =    0.0    initial temperature
   TEBEG  =    0.0;   TEEND  =   0.0 temperature during run
   SMASS  =  -3.00    Nose mass-parameter (am)
[...]
  290                map_forward                           0.000154                    4   7
  291                  map_gather                            0.000040                  2   8
  292                  m_alltoallv_z                         0.000022                  2   8
  293                  map_scatter                           0.000066                  2   8
  294                map_backward                          0.000073                    2   7
  295                  map_gather                            0.000018                  1   8
  296                  m_alltoallv_z                         0.000010                  1   8
  297                  map_scatter                           0.000032                  1   8
  298          m_sumb_d                              0.000007                          2   4
  299          pothar                                0.000073                          1   4
  300            m_sumb_d                              0.000007                        1   5
  301        brmix                                 0.003564                            1   3
  302          m_sumb_d                              0.000025                          6   4
  303          brpre                                 0.000012                          2   4
  304          setg0                                 0.000330                          1   4
  305          broyd                                 0.002802                          1   4
  306            m_sumb_d                              0.000212                       49   5
  307            brget                                 0.000521                      219   5
  308            brsav                                 0.000112                       47   5
  309        m_bcast_d                             0.000018                            2   3
  310      potlok                                0.014983                              2   2
  311        fft3d_mpi                             0.009897                           36   3
  312          fftbrc_mpi                            0.008482                         36   4
  313            fftbas_plan_mpi                       0.008466                       36   5
  314              map_forward                           0.002460                     40   6
  315                map_gather                            0.000825                   24   7
  316                m_alltoallv_z                         0.000694                   24   7
  317                map_scatter                           0.000767                   24   7
  318              map_backward                          0.001984                     32   6
  319                map_gather                            0.000654                   16   7
  320                m_alltoallv_z                         0.000501                   16   7
  321                map_scatter                           0.000666                   16   7
  322              dfftw_execute                         0.002492                     30   6
  323        m_sumb_d                              0.000022                            5   3
  324        pothar                                0.000519                            2   3
  325          m_sumb_d                              0.000035                          2   4
  326        m_bcast_d                             0.000867                            4   3
  327      potlok_metagga                        0.000001                              1   2
  328      set_dd_magatom                        0.000004                              1   2
  329      set_dd_paw                            0.941495                              1   2
  330        m_sumb_d                              0.471919                            7   3
  331      augmentation_charge                   0.054511                              1   2
  332        fft3d_mpi                             0.015603                            2   3
  333          fftbrc_mpi                            0.013569                          2   4
  334            fftbas_plan_mpi                       0.013566                        2   5
  335              dfftw_execute                         0.008700                      6   6
  336              map_backward                          0.004640                      4   6
  337                map_gather                            0.001023                    2   7
  338                m_alltoallv_z                         0.002744                    2   7
  339                map_scatter                           0.000866                    2   7
  340      fftwav_mpi                            0.364424                           1056   2
  341        fftwav                                0.363145                         1056   3
  342          fft3d                                 0.347387                       1056   4
  343      densta                                0.303043                              1   2

 Flat profile

 m_sumb_d                               51.122278      169342
 set_dd_paw                             39.765166          85
 eddav                                  22.821727          87
 lapack                                 21.157384       53260
 raccmu_                                16.168798       53260
 init_acc                               11.023351           1
 redis_pw                                8.625906      263473
 total_time                              5.851464           1
 m_alltoall_d                            5.164790      705469
 setdij_                                 4.083482         111
 augmentation_charge                     3.359826          84
 phaser                                  3.263314        2992
 eccp                                    2.546361       30624
 fft3d                                   2.466036      286680
 acc_init_cublas                         2.434671           1
 redis_proj                              2.259149      329036
 dfftw_execute                           2.167670        2472
 fftwav                                  1.914469      190525
 orth1                                   1.701057      159844
 soft_charge                             1.619217          83
 racc0mu_acc                             1.501839       53260
 w1_copy                                 1.416846      288465
 overl                                   1.361160      161718
 densta                                  1.349557          88
 rpromu_acc                              1.216678       37804
 setup_precond                           1.109246       30624
 m_bcast_z                               1.061191       54668
 hamiltmu                                0.998508       53260
 m_bcast_d                               0.868648      106695
 overl_mu                                0.821599       53260
 acc_init_cusolver                       0.792826           1
 ggemm                                   0.723783       69964
 m_alltoallv_z                           0.721063        3389
 pw_charge                               0.566221       23207
 newband                                 0.487162       56044
 depsum                                  0.476767          83
 vhamil                                  0.448345       96155
 kinhamil                                0.441241       96155
 fft3d_mpi                               0.428133       99188
 fftext_mpi                              0.416987       96155
 apply_precond                           0.370234       65531
 set_charge                              0.323285          83
 map_scatter                             0.297244        3389
 map_gather                              0.295636        3389
 rpro_isp                                0.276311         208
 fftwav_mpi                              0.262153      190525
 potlok                                  0.203054          85
 fftbas_plan_mpi                         0.160769        3033
 elmin                                   0.135513           1
 acc_cufft_makeplan                      0.131258          19
 broyd                                   0.124545          83
 lincom                                  0.090290        2816
 rspher_all                              0.081443          14
 proall                                  0.038545           1
 brmix                                   0.036000          83
 w1_projall                              0.034644       36556
 brget                                   0.033444       14592
 setg0                                   0.028505          85
 sphpro_fast                             0.024801           2
 map_backward                            0.015709        3186
 map_forward                             0.015290        2880
 truncate_high_frequency_w1              0.009687      126779
 brsav                                   0.008817        3950
 choleski                                0.007561          32
 force_and_stress                        0.007526           1
 orthch                                  0.007237           1
 pothar                                  0.006396          86
 inisym                                  0.004748           1
 strnlr                                  0.004093           1
 fft_gq                                  0.001832          83
 fftbrc_mpi                              0.001792        3033
 stufak                                  0.001453           1
 fornlr                                  0.001423           1
 brpre                                   0.001208         166
 forhar                                  0.000910           2
 strelo                                  0.000817           1
 strehar                                 0.000737           1
 forloc                                  0.000519           1
 set_dd_magatom                          0.000381          85
 vectorpot                               0.000352          84
 fewald                                  0.000334           1
 chggra                                  0.000219           1
 strkin                                  0.000190           1
 brgrid                                  0.000088           1
 rsp                                     0.000049           1
 fordep                                  0.000042           1
 posmap                                  0.000035           2
 crpa_reader                             0.000027           1
 rcp                                     0.000011           1
 acc_cufft_makeplans                     0.000010           3
 potlok_metagga                          0.000010          84
 rotate_active_occupied_orbital          0.000000           1
 redis_pw_over_bands                     0.000000           1
  summed up times     229.7710938453674

 Accumulative profile

 total_time                            229.771094           1
 elmin                                 203.822790           1
 eddav                                 111.082024          87
 set_dd_paw                             79.443988          85
 m_sumb_d                               51.122278      169342
 hamiltmu                               21.504746       53260
 lapack                                 21.157384       53260
 raccmu_                                18.492236       53260
 redis_pw                               11.133883      263473
 init_acc                               11.023351           1
 set_charge                              8.468313          83
 newband                                 6.365895       56044
 setdij_                                 6.256896         111
 m_alltoall_d                            5.164790      705469
 redis_proj                              4.915962      329036
 fft3d_mpi                               4.781972       99188
 augmentation_charge                     4.628937          84
 fftwav_mpi                              3.963992      190525
 fftwav                                  3.701839      190525
 fftbrc_mpi                              3.675174        3033
 fftbas_plan_mpi                         3.673382        3033
 force_and_stress                        3.404192           1
 phaser                                  3.263314        2992
 soft_charge                             3.040524          83
 eccp                                    2.546361       30624
 fft3d                                   2.466036      286680
 acc_init_cublas                         2.434671           1
 dfftw_execute                           2.167670        2472
 orth1                                   1.701057      159844
 kinhamil                                1.565657       96155
 racc0mu_acc                             1.501839       53260
 w1_copy                                 1.416846      288465
 overl                                   1.361160      161718
 densta                                  1.349557          88
 rpromu_acc                              1.216678       37804
 fftext_mpi                              1.124416       96155
 setup_precond                           1.109246       30624
 m_bcast_z                               1.061191       54668
 w1_projall                              1.057312       36556
 m_bcast_d                               0.868648      106695
 overl_mu                                0.821599       53260
 acc_init_cusolver                       0.792826           1
 map_forward                             0.749758        2880
 ggemm                                   0.723783       69964
 potlok                                  0.721577          85
 m_alltoallv_z                           0.721063        3389
 strnlr                                  0.659421           1
 rpro_isp                                0.606383         208
 map_backward                            0.595185        3186
 pw_charge                               0.566221       23207
 depsum                                  0.481879          83
 vhamil                                  0.448345       96155
 apply_precond                           0.370234       65531
 fordep                                  0.338976           1
 map_scatter                             0.297244        3389
 map_gather                              0.295636        3389
 orthch                                  0.252190           1
 brmix                                   0.247897          83
 fornlr                                  0.220377           1
 broyd                                   0.179741          83
 acc_cufft_makeplans                     0.131268           3
 acc_cufft_makeplan                      0.131258          19
 lincom                                  0.090290        2816
 rspher_all                              0.081443          14
 proall                                  0.076649           1
 fft_gq                                  0.066820          83
 brget                                   0.033444       14592
 setg0                                   0.028505          85
 sphpro_fast                             0.025757           2
 truncate_high_frequency_w1              0.009687      126779
 brsav                                   0.008817        3950
 choleski                                0.007561          32
 pothar                                  0.007128          86
 inisym                                  0.004783           1
 stufak                                  0.001453           1
 brpre                                   0.001208         166
 forhar                                  0.000918           2
 strelo                                  0.000852           1
 strehar                                 0.000740           1
 chggra                                  0.000708           1
 forloc                                  0.000582           1
 fewald                                  0.000497           1
 set_dd_magatom                          0.000381          85
 vectorpot                               0.000352          84
 strkin                                  0.000202           1
 brgrid                                  0.000088           1
 rsp                                     0.000049           1
 posmap                                  0.000035           2
 crpa_reader                             0.000027           1
 rcp                                     0.000011           1
 potlok_metagga                          0.000010          84
 rotate_active_occupied_orbital          0.000000           1
 redis_pw_over_bands                     0.000000           1

Profiling took   0.618076  0.304209  0.003199  0.003127 seconds
Profiling took   0.383575 seconds