 vasp.6.3.2 27Jun22 (build Jul  3 2023 11:46:21) complex
 executed on    LinuxNV_CrayMPICH date 2024.04.20  17:29:46

 INCAR:
   ADDGRID = True
   ALGO = Normal
   EDIFF = 0.0007
   ENCUT = 520.0
   IBRION = -1
   ICHARG = 0
   ISIF = 3
   ISMEAR = -5
   ISPIN = 2
   ISTART = 1
   KPOINT_BSE = -1 0 0 0
   LAECHG = True
   LASPH = True
   LCHARG = True
   LELF = True
   LORBIT = 11
   LREAL = Auto
   LVHAR = True
   LWAVE = False
   MAGMOM = 1*7.0 12*5.0 1*0.6
   NELM = 1000
   NSW = 0
   PREC = accurate
   SIGMA = 0.05

 POTCAR:    PAW_PBE Gd 23Dec2003
 POTCAR:    PAW_PBE V_pv 07Sep2000
 POTCAR:    PAW_PBE Fe_pv 02Aug2007
 POTCAR:    PAW_PBE N 08Apr2002
 POTCAR:    PAW_PBE Gd 23Dec2003
   VRHFIN =Gd : [core=Xe4]

   TITEL  = PAW_PBE Gd 23Dec2003
   POMASS =  157.250; ZVAL   =   18.000    mass and valenz
   ENMAX  =  256.472; ENMIN  =  192.354 eV

   TITEL  = PAW_PBE V_pv 07Sep2000
   POMASS =   50.941; ZVAL   =   11.000    mass and valenz
   ENMAX  =  263.673; ENMIN  =  197.755 eV

   TITEL  = PAW_PBE Fe_pv 02Aug2007
   POMASS =   55.847; ZVAL   =   14.000    mass and valenz
   ENMAX  =  293.238; ENMIN  =  219.928 eV

   TITEL  = PAW_PBE N 08Apr2002
   POMASS =   14.001; ZVAL   =    5.000    mass and valenz
   ENMAX  =  400.000; ENMIN  =  300.000 eV

 Optimization of the real space projectors (new method)

 maximal supplied QI-value         = 13.42
 optimisation between [QCUT,QGAM] = [ 11.67, 23.35] = [ 38.16,152.62] Ry
 Optimized for a Real-space Cutoff    1.63 Angstroem

   l    n(q)    QCUT    max X(q) W(low)/X(q) W(high)/X(q)  e(spline)
   0     11    11.673    10.501    0.14E-04    0.17E-05    0.21E-07
   0     11    11.673     9.148    0.21E-04    0.32E-05    0.45E-07
   1     11    11.673     4.035    0.33E-05    0.11E-04    0.84E-07
   1     11    11.673     4.388    0.11E-04    0.47E-04    0.34E-06
   2     10    11.673    20.656    0.12E-04    0.28E-04    0.54E-06
   2     10    11.673    12.651    0.11E-04    0.26E-04    0.51E-06
   3     10    11.673    61.921    0.19E-03    0.22E-03    0.23E-06
   3     10    11.673    48.328    0.20E-03    0.23E-03    0.23E-06
 Optimization of the real space projectors (new method)

[...]

   l    n(q)    QCUT    max X(q) W(low)/X(q) W(high)/X(q)  e(spline)
   1     10    11.565     4.267    0.91E-04    0.15E-03    0.13E-06
   1     10    11.565     5.750    0.14E-03    0.22E-03    0.20E-06
   2      9    11.565    53.656    0.13E-03    0.57E-04    0.16E-06
   2      9    11.565    49.521    0.13E-03    0.59E-04    0.16E-06
   0     10    11.565    31.246    0.61E-04    0.74E-05    0.89E-07
   0     10    11.565    12.201    0.44E-04    0.68E-05    0.74E-07
 Optimization of the real space projectors (new method)

 maximal supplied QI-value         = 25.13
 optimisation between [QCUT,QGAM] = [ 11.56, 23.12] = [ 37.43,149.72] Ry
 Optimized for a Real-space Cutoff    1.40 Angstroem

   l    n(q)    QCUT    max X(q) W(low)/X(q) W(high)/X(q)  e(spline)
   0     10    11.561    79.467    0.46E-04    0.78E-04    0.61E-06
   0     10    11.561    66.151    0.45E-04    0.77E-04    0.61E-06
   1      9    11.561    18.886    0.22E-03    0.13E-03    0.12E-05
   1      9    11.561    13.488    0.23E-03    0.13E-03    0.12E-05
  PAW_PBE Gd 23Dec2003                  :
  PAW_PBE V_pv 07Sep2000                :
  PAW_PBE Fe_pv 02Aug2007               :
  PAW_PBE N 08Apr2002                   :

 POSCAR: Gd1 V2 Fe10 N1
  positions in direct lattice
 exchange correlation table for  LEXCH =        8
   RHO(1)=    0.500       N(1)  =     2000
   RHO(2)=  100.500       N(2)  =     4000

 VTST: version 4.2, (08/11/21)

 CHAIN: initializing optimizer

 OPT: Using VASP Dynamics algorithm
 CHAIN: Read ICHAIN             0

 POSCAR: Gd1 V2 Fe10 N1
  positions in direct lattice

 ion  position               nearest neighbor table
   1  0.000  0.000  0.000-  14 2.38  14 2.38   5 3.06   4 3.06   4 3.06   5 3.06   7 3.06   6 3.06
                             6 3.06   7 3.06  12 3.07  13 3.07   2 3.08   3 3.08
   2  0.359  0.359  0.000-   3 2.42   8 2.61  10 2.61  11 2.61   9 2.61   5 2.64   4 2.64   7 2.64
                             7 2.64   1 3.08
   3  0.641  0.641  0.000-   2 2.42   8 2.61   9 2.61  10 2.61  11 2.61   5 2.64   4 2.64   6 2.64
                             6 2.64   1 3.08
   4  0.775  0.500  0.275-  14 1.92   8 2.46   9 2.46  10 2.46  11 2.46   3 2.64   2 2.64  13 2.64
                            13 2.64   7 2.71   6 2.71   1 3.06   1 3.06
   5  0.225  0.500  0.725-  14 1.92  11 2.46  10 2.46   9 2.46   8 2.46   3 2.64   2 2.64  12 2.64
                            12 2.64   7 2.71   6 2.71   1 3.06   1 3.06
   6  0.776  0.276  0.500-  14 1.92   9 2.45  11 2.45   8 2.45  10 2.45   3 2.64   3 2.64  13 2.65
                            12 2.65   4 2.71   5 2.71   1 3.06   1 3.06
   7  0.224  0.724  0.500-  14 1.92  10 2.45  11 2.45   9 2.45   8 2.45   2 2.64   2 2.64  13 2.65
                            12 2.65   4 2.71   5 2.71   1 3.06   1 3.06
   8  0.000  0.500  0.000-   9 2.38   9 2.38   6 2.45   7 2.45   4 2.46   5 2.46   2 2.61   3 2.61
                            13 2.63  12 2.63
   9  0.000  0.000  0.500-   8 2.38   8 2.38   6 2.45   7 2.45   4 2.46   5 2.46   2 2.61   3 2.61
                            13 2.63  12 2.63
  10  0.500  0.000  0.000-  11 2.38  11 2.38   7 2.45   6 2.45   5 2.46   4 2.46   2 2.61   3 2.61
                            13 2.63  12 2.63
  11  0.500  0.500  0.500-  10 2.38  10 2.38   6 2.45   7 2.45   5 2.46   4 2.46   2 2.61   3 2.61
                            12 2.63  13 2.63
  12  0.360  0.000  0.360-  13 2.39  10 2.63  11 2.63   9 2.63   8 2.63   5 2.64   5 2.64   6 2.65
                             7 2.65   1 3.07
  13  0.640  0.000  0.640-  12 2.39   9 2.63  10 2.63   8 2.63  11 2.63   4 2.64   4 2.64   6 2.65
                             7 2.65   1 3.07
  14  0.000  0.500  0.500-   4 1.92   5 1.92   6 1.92   7 1.92   1 2.38   1 2.38

  LATTYP: Found a body centered orthorhombic cell.
 ALAT       =     4.7567020000
 B/A-ratio  =     1.7925768736
 C/A-ratio  =     1.8034364986

  Lattice vectors:

 A1 = (  -2.3783510000,   4.2633770000,   4.2892050000)
 A2 = (   2.3783510000,  -4.2633770000,   4.2892050000)
 A3 = (   2.3783510000,   4.2633770000,  -4.2892050000)

Analysis of symmetry for initial positions (statically):
 Subroutine PRICEL returns:
 Original cell was already a primitive cell.

 Routine SETGRP: Setting up the symmetry group for a
 body centered orthorhombic supercell.

 Subroutine GETGRP returns: Found  8 space group operations
 (whereof  8 operations were pure point group operations)
 out of a pool of  8 trial point group operations.

The static configuration has the point symmetry D_2h.

Analysis of symmetry for dynamics (positions and initial velocities):
 Subroutine PRICEL returns:
 Original cell was already a primitive cell.

[...]

The dynamic configuration has the point symmetry D_2h.

Analysis of structural, dynamic, and magnetic symmetry:
 Subroutine PRICEL returns:
 Original cell was already a primitive cell.

 Routine SETGRP: Setting up the symmetry group for a
 body centered orthorhombic supercell.

 Subroutine GETGRP returns: Found  8 space group operations
 (whereof  8 operations were pure point group operations)
 out of a pool of  8 trial point group operations.

The overall configuration has the point symmetry D_2h.

 Subroutine INISYM returns: Found  8 space group operations
 (whereof  8 operations are pure point group operations),
 and found     1 'primitive' translations

                                     Primitive cell

  volume of cell :     173.9668

  direct lattice vectors                    reciprocal lattice vectors
    -2.378351000  4.263377000  4.289205000     0.000000000  0.117277923  0.116571719
     2.378351000 -4.263377000  4.289205000     0.210229693 -0.000000000  0.116571719
     2.378351000  4.263377000 -4.289205000     0.210229693  0.117277923  0.000000000

  length of vectors
     6.498478011  6.498478011  6.498478011     0.165357422  0.240386126  0.240729381

  position of ions in fractional coordinates (direct lattice)
     0.000000000  0.000000000  0.000000000
     0.358802000  0.358802000  0.000000000
     0.641198000  0.641198000  0.000000000
     0.775074000  0.500000000  0.275074000
     0.224926000  0.500000000  0.724926000
     0.776112000  0.276112000  0.500000000
     0.223888000  0.723888000  0.500000000
     1.000000000  0.500000000  1.000000000
     0.000000000  1.000000000  0.500000000
     0.500000000  0.000000000  0.000000000
     0.500000000  0.500000000  0.500000000
     0.359954000  0.000000000  0.359954000
     0.640046000  0.000000000  0.640046000
     0.000000000  0.500000000  0.500000000

  ion indices of the primitive-cell ions
   primitive index   ion index
                 1           1
                 2           2
                 3           3
                 4           4
                 5           5
                 6           6
                 7           7
                 8           8
                 9           9
                10          10
                11          11
                12          12
                13          13
                14          14

 KPOINTS: Kpoints from vasprun.xml

Automatic generation of k-mesh.
 Grid dimensions read from file:
 generate k-points for:    5    5    5

 Generating k-lattice:

  Cartesian coordinates                     Fractional coordinates (reciprocal lattice)
     0.000000000  0.023455585  0.023314344     0.200000000 -0.000000000  0.000000000
     0.042045939 -0.000000000  0.023314344     0.000000000  0.200000000 -0.000000000
     0.042045939  0.023455585  0.000000000     0.000000000 -0.000000000  0.200000000

  Length of vectors
     0.033071484  0.048077225  0.048145876

  Shift w.r.t. Gamma in fractional coordinates (k-lattice)
     0.000000000  0.000000000  0.000000000

 TETIRR: Found    307 inequivalent tetrahedra from      750

 Subroutine IBZKPT returns following result:

 Found     27 irreducible k-points:

 Following reciprocal coordinates:
            Coordinates               Weight
  0.000000  0.000000  0.000000      1.000000
  0.200000  0.000000  0.000000      4.000000
  0.400000  0.000000  0.000000      4.000000
  0.000000  0.200000  0.000000      4.000000
  0.200000  0.200000  0.000000      8.000000
  0.400000  0.200000  0.000000      8.000000
 -0.400000  0.200000  0.000000      8.000000
 -0.200000  0.200000  0.000000      4.000000
  0.000000  0.400000  0.000000      4.000000
  0.200000  0.400000  0.000000      8.000000
  0.400000  0.400000  0.000000      8.000000
 -0.400000  0.400000  0.000000      4.000000
 -0.200000  0.400000  0.000000      8.000000
  0.200000  0.200000  0.200000      8.000000
 -0.200000  0.200000  0.200000      2.000000
 -0.400000  0.400000  0.200000      4.000000
 -0.200000  0.400000  0.200000      4.000000
  0.400000 -0.400000  0.200000      4.000000
 -0.400000 -0.400000  0.200000      8.000000
 -0.200000 -0.400000  0.200000      4.000000
  0.200000 -0.200000  0.200000      2.000000
  0.400000 -0.200000  0.200000      4.000000
 -0.400000 -0.200000  0.200000      4.000000
 -0.200000 -0.200000  0.200000      2.000000
[...]
  290                map_forward                           0.000192                    4   7
  291                  map_gather                            0.000044                  2   8
  292                  m_alltoallv_z                         0.000027                  2   8
  293                  map_scatter                           0.000091                  2   8
  294                map_backward                          0.000086                    2   7
  295                  map_gather                            0.000021                  1   8
  296                  m_alltoallv_z                         0.000012                  1   8
  297                  map_scatter                           0.000037                  1   8
  298          m_sumb_d                              0.000009                          2   4
  299          pothar                                0.000077                          1   4
  300            m_sumb_d                              0.000006                        1   5
  301        brmix                                 0.008331                            1   3
  302          m_sumb_d                              0.000031                          6   4
  303          brpre                                 0.000028                          2   4
  304          setg0                                 0.000769                          1   4
  305          broyd                                 0.006555                          1   4
  306            m_sumb_d                              0.000197                       51   5
  307            brget                                 0.001333                      229   5
  308            brsav                                 0.000282                       49   5
  309        m_bcast_d                             0.000024                            2   3
  310      potlok                                0.029669                              2   2
  311        fft3d_mpi                             0.018640                           36   3
  312          fftbrc_mpi                            0.015927                         36   4
  313            fftbas_plan_mpi                       0.015913                       36   5
  314              map_forward                           0.004721                     40   6
  315                map_gather                            0.001522                   24   7
  316                m_alltoallv_z                         0.001664                   24   7
  317                map_scatter                           0.001351                   24   7
  318              map_backward                          0.004172                     32   6
  319                map_gather                            0.001248                   16   7
  320                m_alltoallv_z                         0.001620                   16   7
  321                map_scatter                           0.001110                   16   7
  322              dfftw_execute                         0.005357                     30   6
  323        m_sumb_d                              0.000024                            5   3
  324        pothar                                0.001136                            2   3
  325          m_sumb_d                              0.000108                          2   4
  326        m_bcast_d                             0.001867                            4   3
  327      potlok_metagga                        0.000000                              1   2
  328      set_dd_magatom                        0.000004                              1   2
  329      set_dd_paw                            2.403785                              1   2
  330        m_sumb_d                              0.933661                            7   3
  331      augmentation_charge                   0.116767                              1   2
  332        fft3d_mpi                             0.032153                            2   3
  333          fftbrc_mpi                            0.028979                          2   4
  334            fftbas_plan_mpi                       0.028975                        2   5
  335              dfftw_execute                         0.018989                      6   6
  336              map_backward                          0.009701                      4   6
  337                map_gather                            0.002347                    2   7
  338                m_alltoallv_z                         0.004648                    2   7
  339                map_scatter                           0.002696                    2   7
  340      fftwav_mpi                            4.707563                           5994   2
  341        fftwav                                4.700104                         5994   3
  342          fft3d                                 4.508303                       5994   4
  343      densta                               14.746654                              1   2

 Flat profile

 m_sumb_d                              238.069739     1272196
 raccmu_                               225.459083      418693
 eddav                                 199.158665         119
 lapack                                175.025058      418693
 set_dd_paw                            173.205166         117
 redis_pw                               83.476410     2199144
 densta                                 55.183002         120
 m_alltoall_d                           41.462080     5903626
 phaser                                 29.353839        6777
 eccp                                   22.814356      237762
 fft3d                                  21.983505     2366258
 redis_proj                             18.644503     2769418
 fftwav                                 15.058420     1558276
 orth1                                  13.269167     1256349
 racc0mu_acc                            12.317255      418693
 w1_copy                                11.734419     2423946
 init_acc                               11.496121           1
 total_time                             11.479869           1
 overl                                  11.426981     1378256
 setdij_                                11.356296         143
 hamiltmu                               10.859513      418693
 rpromu_acc                             10.165133      303619
 augmentation_charge                     9.830253         116
 soft_charge                             9.514174         115
 m_bcast_z                               9.354241      426685
 setup_precond                           8.675435      237762
 m_bcast_d                               6.920097      837625
 overl_mu                                6.503357      418693
 dfftw_execute                           5.989258        3240
 ggemm                                   5.744392      540787
 pw_charge                               4.092831      148106
 vhamil                                  3.784502      807982
 kinhamil                                3.769989      807982
 depsum                                  3.753319         115
 fftext_mpi                              3.509784      807982
 newband                                 3.440938      425119
 apply_precond                           3.167552      570220
 acc_init_cublas                         2.466309           1
 fftwav_mpi                              2.095506     1558276
 m_alltoallv_z                           1.625683        4605
 fft3d_mpi                               1.393298      812103
 rpro_isp                                1.260649         351
 set_charge                              0.968764         115
 map_scatter                             0.950842        4605
 acc_init_cusolver                       0.795010           1
 map_gather                              0.791744        4605
 potlok                                  0.429798         117
 broyd                                   0.401816         115
 w1_projall                              0.306299      296599
 rspher_all                              0.273053          14
 sphpro_fast                             0.261523           2
 elmin                                   0.245706           1
 lincom                                  0.232184        6480
 fftbas_plan_mpi                         0.225661        4121
 brget                                   0.129730       22317
 acc_cufft_makeplan                      0.122500          19
 brmix                                   0.115102         115
 setg0                                   0.091356         117
 truncate_high_frequency_w1              0.083993     1045744
 proall                                  0.074766           1
 brsav                                   0.034557        6165
 orthch                                  0.033713           1
 map_backward                            0.024367        4338
 map_forward                             0.021986        3904
 choleski                                0.020246          54
 force_and_stress                        0.019492           1
 pothar                                  0.009801         118
 strnlr                                  0.009125           1
 fft_gq                                  0.006332         115
 stufak                                  0.006058           1
 inisym                                  0.004313           1
 brpre                                   0.003512         230
 fornlr                                  0.003135           1
 forhar                                  0.002549           2
 fftbrc_mpi                              0.002475        4121
 strelo                                  0.001740           1
 forloc                                  0.001333           1
 strehar                                 0.001271           1
 strkin                                  0.001148           1
 set_dd_magatom                          0.000538         117
 rsp                                     0.000519           1
 vectorpot                               0.000484         116
 fewald                                  0.000346           1
 chggra                                  0.000229           1
 brgrid                                  0.000166           1
 fordep                                  0.000104           1
 posmap                                  0.000029           2
 crpa_reader                             0.000027           1
 rcp                                     0.000022           1
 acc_cufft_makeplans                     0.000012           3
 potlok_metagga                          0.000009         116
 redis_pw_over_bands                     0.000001           1
 rotate_active_occupied_orbital          0.000000           1
  summed up times     1506.599634170532

 Accumulative profile

 total_time                           1506.599634           1
 elmin                                1444.928587           1
 eddav                                1074.260313         119
 set_dd_paw                            282.191594         117
 hamiltmu                              272.186637      418693
 raccmu_                               244.279695      418693
 m_sumb_d                              238.069739     1272196
 lapack                                175.025058      418693
 redis_pw                              104.092326     2199144
 densta                                 55.183002         120
 newband                                52.895824      425119
 m_alltoall_d                           41.462080     5903626
 redis_proj                             39.490668     2769418
 set_charge                             37.097041         115
 fftwav_mpi                             33.398278     1558276
 fftwav                                 31.302771     1558276
 phaser                                 29.353839        6777
 eccp                                   22.814356      237762
 fft3d                                  21.983505     2366258
 soft_charge                            18.619120         115
 setdij_                                17.352097         143
 fft3d_mpi                              16.764467      812103
 augmentation_charge                    13.715098         116
 orth1                                  13.269167     1256349
 kinhamil                               13.262927      807982
 racc0mu_acc                            12.317255      418693
 w1_copy                                11.734419     2423946
 init_acc                               11.496121           1
 overl                                  11.426981     1378256
 force_and_stress                       11.138724           1
 rpromu_acc                             10.165133      303619
 fftbrc_mpi                              9.632015        4121
 fftbas_plan_mpi                         9.629539        4121
 fftext_mpi                              9.492939      807982
 m_bcast_z                               9.354241      426685
 w1_projall                              8.880734      296599
 setup_precond                           8.675435      237762
 m_bcast_d                               6.920097      837625
 overl_mu                                6.503357      418693
 dfftw_execute                           5.989258        3240
 ggemm                                   5.744392      540787
 pw_charge                               4.092831      148106
 strnlr                                  3.928771           1
 vhamil                                  3.784502      807982
 depsum                                  3.771561         115
 rpro_isp                                3.631656         351
 apply_precond                           3.167552      570220
 acc_init_cublas                         2.466309           1
 map_forward                             1.716259        3904
 map_backward                            1.698361        4338
 m_alltoallv_z                           1.625683        4605
 fornlr                                  1.304359           1
 potlok                                  1.081611         117
 map_scatter                             0.950842        4605
 brmix                                   0.801668         115
 acc_init_cusolver                       0.795010           1
 map_gather                              0.791744        4605
 fordep                                  0.726829           1
 broyd                                   0.586495         115
 orthch                                  0.408482           1
 proall                                  0.290631           1
 rspher_all                              0.273053          14
 sphpro_fast                             0.270774           2
 lincom                                  0.232184        6480
 fft_gq                                  0.198438         115
 brget                                   0.129730       22317
 acc_cufft_makeplans                     0.122513           3
 acc_cufft_makeplan                      0.122500          19
 setg0                                   0.091356         117
 truncate_high_frequency_w1              0.083993     1045744
 brsav                                   0.034557        6165
 choleski                                0.020246          54
 pothar                                  0.010885         118
 stufak                                  0.006058           1
 inisym                                  0.004342           1
 brpre                                   0.003512         230
 forhar                                  0.002595           2
 strelo                                  0.001794           1
 forloc                                  0.001368           1
 strehar                                 0.001274           1
 strkin                                  0.001153           1
 fewald                                  0.001003           1
 chggra                                  0.000778           1
 set_dd_magatom                          0.000538         117
 rsp                                     0.000519           1
 vectorpot                               0.000484         116
 brgrid                                  0.000166           1
 posmap                                  0.000029           2
 crpa_reader                             0.000027           1
 rcp                                     0.000022           1
 potlok_metagga                          0.000009         116
 redis_pw_over_bands                     0.000001           1
 rotate_active_occupied_orbital          0.000000           1

Profiling took   5.027470  2.468291  0.003580  0.003486 seconds
Profiling took   3.153035 seconds