 vasp.6.3.2 27Jun22 (build Jul  3 2023 11:46:21) complex
 executed on    LinuxNV_CrayMPICH date 2024.04.20  09:18:13

 INCAR:
   ADDGRID = True
   ALGO = Fast
   EDIFF = 0.0001
   ENCUT = 520.0
   IBRION = -1
   ISIF = 3
   ISMEAR = -5
   ISPIN = 2
   LAECHG = True
   LASPH = True
   LCHARG = True
   LORBIT = 11
   LREAL = Auto
   LVHAR = True
   LWAVE = False
   MAGMOM = 1*7.0 3*0.6
   NELM = 1000
   NSW = 0
   PREC = Accurate
   SIGMA = 0.05

 POTCAR:    PAW_PBE Gd 23Dec2003
 POTCAR:    PAW_PBE Y_sv 25May2007
 POTCAR:    PAW_PBE Ru_pv 28Jan2005
 POTCAR:    PAW_PBE Gd 23Dec2003
   VRHFIN =Gd : [core=Xe4]

   TITEL  = PAW_PBE Gd 23Dec2003
   POMASS =  157.250; ZVAL   =   18.000    mass and valenz
   ENMAX  =  256.472; ENMIN  =  192.354 eV

   TITEL  = PAW_PBE Y_sv 25May2007
   POMASS =   88.906; ZVAL   =   11.000    mass and valenz
   ENMAX  =  202.626; ENMIN  =  151.970 eV

   TITEL  = PAW_PBE Ru_pv 28Jan2005
   POMASS =  101.070; ZVAL   =   14.000    mass and valenz
   ENMAX  =  240.049; ENMIN  =  180.037 eV

 Optimization of the real space projectors (new method)

 maximal supplied QI-value         = 13.42
 optimisation between [QCUT,QGAM] = [ 11.67, 23.35] = [ 38.16,152.62] Ry
 Optimized for a Real-space Cutoff    1.63 Angstroem

   l    n(q)    QCUT    max X(q) W(low)/X(q) W(high)/X(q)  e(spline)
   0     11    11.673    10.501    0.14E-04    0.17E-05    0.21E-07
   0     11    11.673     9.148    0.21E-04    0.32E-05    0.45E-07
   1     11    11.673     4.035    0.33E-05    0.11E-04    0.84E-07
   1     11    11.673     4.388    0.11E-04    0.47E-04    0.34E-06
   2     10    11.673    20.656    0.12E-04    0.28E-04    0.54E-06
   2     10    11.673    12.651    0.11E-04    0.26E-04    0.51E-06
   3     10    11.673    61.921    0.19E-03    0.22E-03    0.23E-06
   3     10    11.673    48.328    0.20E-03    0.23E-03    0.23E-06
 Optimization of the real space projectors (new method)

[...]

   l    n(q)    QCUT    max X(q) W(low)/X(q) W(high)/X(q)  e(spline)
   0     12    11.673    14.902    0.22E-04    0.24E-05    0.52E-07
   0     12    11.673     9.294    0.34E-04    0.58E-05    0.89E-07
   1     11    11.673    69.520    0.10E-04    0.47E-04    0.49E-06
   1     11    11.673    72.085    0.10E-04    0.48E-04    0.50E-06
   2     11    11.673    62.934    0.94E-04    0.14E-04    0.82E-06
   2     11    11.673    49.749    0.91E-04    0.13E-04    0.79E-06
   3     10    11.673     8.311    0.92E-04    0.21E-04    0.59E-06
 Optimization of the real space projectors (new method)

 maximal supplied QI-value         = 15.12
 optimisation between [QCUT,QGAM] = [ 11.64, 23.28] = [ 37.95,151.78] Ry
 Optimized for a Real-space Cutoff    1.49 Angstroem

   l    n(q)    QCUT    max X(q) W(low)/X(q) W(high)/X(q)  e(spline)
   1     10    11.641     3.180    0.30E-04    0.36E-05    0.54E-07
   1     10    11.641     5.351    0.12E-03    0.51E-04    0.30E-06
   2      9    11.641    66.565    0.22E-03    0.78E-04    0.20E-06
   2      9    11.641    63.466    0.22E-03    0.79E-04    0.20E-06
   0     10    11.641    85.644    0.61E-04    0.23E-04    0.12E-06
   0     10    11.641    44.119    0.56E-04    0.21E-04    0.11E-06
  PAW_PBE Gd 23Dec2003                  :
  PAW_PBE Y_sv 25May2007                :
  PAW_PBE Ru_pv 28Jan2005               :

 POSCAR: Gd1 Y1 Ru2
  positions in direct lattice
 exchange correlation table for  LEXCH =        8
   RHO(1)=    0.500       N(1)  =     2000
   RHO(2)=  100.500       N(2)  =     4000

 VTST: version 4.2, (08/11/21)

 CHAIN: initializing optimizer

 OPT: Using VASP Dynamics algorithm
 CHAIN: Read ICHAIN             0

 POSCAR: Gd1 Y1 Ru2
  positions in direct lattice

 ion  position               nearest neighbor table
   1  0.500  0.500  0.500-   4 2.97   4 2.97   4 2.97   3 2.97   4 2.97   3 2.97   3 2.97   3 2.97
                             2 3.42   2 3.42   2 3.42   2 3.42   2 3.42   2 3.42
   2  0.000  0.000  0.000-   3 2.97   3 2.97   3 2.97   3 2.97   4 2.97   4 2.97   4 2.97   4 2.97
                             1 3.42   1 3.42   1 3.42   1 3.42   1 3.42   1 3.42
   3  0.750  0.750  0.750-   1 2.97   1 2.97   1 2.97   1 2.97   2 2.97   2 2.97   2 2.97   2 2.97

   4  0.250  0.250  0.250-   2 2.97   2 2.97   2 2.97   1 2.97   2 2.97   1 2.97   1 2.97   1 2.97

  LATTYP: Found a face centered cubic cell.
 ALAT       =     6.8476800000

  Lattice vectors:

 A1 = (   0.0000000000,   3.4238400000,   3.4238400000)
 A2 = (   3.4238400000,   0.0000000000,   3.4238400000)
 A3 = (   3.4238400000,   3.4238400000,   0.0000000000)

Analysis of symmetry for initial positions (statically):
 Subroutine PRICEL returns:
 Original cell was already a primitive cell.

 Routine SETGRP: Setting up the symmetry group for a
 face centered cubic supercell.

 Subroutine GETGRP returns: Found 48 space group operations
 (whereof 48 operations were pure point group operations)
 out of a pool of 48 trial point group operations.

The static configuration has the point symmetry O_h .

Analysis of symmetry for dynamics (positions and initial velocities):
 Subroutine PRICEL returns:
 Original cell was already a primitive cell.

[...]

The dynamic configuration has the point symmetry O_h .

Analysis of structural, dynamic, and magnetic symmetry:
 Subroutine PRICEL returns:
 Original cell was already a primitive cell.

 Routine SETGRP: Setting up the symmetry group for a
 face centered cubic supercell.

 Subroutine GETGRP returns: Found 48 space group operations
 (whereof 48 operations were pure point group operations)
 out of a pool of 48 trial point group operations.

The overall configuration has the point symmetry O_h .

 Subroutine INISYM returns: Found 48 space group operations
 (whereof 48 operations are pure point group operations),
 and found     1 'primitive' translations

                                     Primitive cell

  volume of cell :      80.2732

  direct lattice vectors                    reciprocal lattice vectors
     0.000000000  3.423840000  3.423840000    -0.146034861  0.146034861  0.146034861
     3.423840000  0.000000000  3.423840000     0.146034861 -0.146034861  0.146034861
     3.423840000  3.423840000  0.000000000     0.146034861  0.146034861 -0.146034861

  length of vectors
     4.842040963  4.842040963  4.842040963     0.252939800  0.252939800  0.252939800

  position of ions in fractional coordinates (direct lattice)
     0.500000000  0.500000000  0.500000000
     0.000000000  0.000000000  0.000000000
     0.750000000  0.750000000  0.750000000
     0.250000000  0.250000000  0.250000000

  ion indices of the primitive-cell ions
   primitive index   ion index
                 1           1
                 2           2
                 3           3
                 4           4

 KPOINTS: Kpoints from vasprun.xml

Automatic generation of k-mesh.
 Grid dimensions read from file:
 generate k-points for:    6    6    6

 Generating k-lattice:

  Cartesian coordinates                     Fractional coordinates (reciprocal lattice)
    -0.024339144  0.024339144  0.024339144     0.166666667 -0.000000000 -0.000000000
     0.024339144 -0.024339144  0.024339144    -0.000000000  0.166666667  0.000000000
     0.024339144  0.024339144 -0.024339144     0.000000000  0.000000000  0.166666667

  Length of vectors
     0.042156633  0.042156633  0.042156633

  Shift w.r.t. Gamma in fractional coordinates (k-lattice)
     0.500000000  0.500000000  0.500000000

 TETIRR: Found    403 inequivalent tetrahedra from     5184

 Subroutine IBZKPT returns following result:

 Found     28 irreducible k-points:

 Following reciprocal coordinates:
            Coordinates               Weight
  0.083333  0.083333  0.083333      8.000000
  0.250000  0.083333  0.083333     24.000000
  0.416667  0.083333  0.083333     24.000000
 -0.416667  0.083333  0.083333     24.000000
 -0.250000  0.083333  0.083333     24.000000
 -0.083333  0.083333  0.083333     24.000000
  0.250000  0.250000  0.083333     24.000000
  0.416667  0.250000  0.083333     48.000000
 -0.416667  0.250000  0.083333     48.000000
 -0.250000  0.250000  0.083333     48.000000
 -0.083333  0.250000  0.083333     48.000000
  0.416667  0.416667  0.083333     24.000000
 -0.416667  0.416667  0.083333     48.000000
 -0.250000  0.416667  0.083333     48.000000
 -0.083333  0.416667  0.083333     48.000000
 -0.416667 -0.416667  0.083333     24.000000
 -0.250000 -0.416667  0.083333     48.000000
 -0.250000 -0.250000  0.083333     24.000000
  0.250000  0.250000  0.250000      8.000000
  0.416667  0.250000  0.250000     24.000000
 -0.416667  0.250000  0.250000     24.000000
 -0.250000  0.250000  0.250000     24.000000
  0.416667  0.416667  0.250000     24.000000
 -0.416667  0.416667  0.250000     48.000000
 -0.250000  0.416667  0.250000     48.000000
 -0.416667 -0.416667  0.250000     24.000000
  0.416667  0.416667  0.416667      8.000000
 -0.416667  0.416667  0.416667     24.000000

 Following cartesian coordinates:
            Coordinates               Weight
  0.012170  0.012170  0.012170      8.000000
 -0.012170  0.036509  0.036509     24.000000
 -0.036509  0.060848  0.060848     24.000000
  0.085187 -0.060848 -0.060848     24.000000
  0.060848 -0.036509 -0.036509     24.000000
  0.036509 -0.012170 -0.012170     24.000000
  0.012170  0.012170  0.060848     24.000000
 -0.012170  0.036509  0.085187     48.000000
  0.109526 -0.085187 -0.036509     48.000000
  0.085187 -0.060848 -0.012170     48.000000
  0.060848 -0.036509  0.012170     48.000000
  0.012170  0.012170  0.109526     24.000000
  0.133865 -0.109526 -0.012170     48.000000
  0.109526 -0.085187  0.012170     48.000000
  0.085187 -0.060848  0.036509     48.000000
  0.012170  0.012170 -0.133865     24.000000
 -0.012170  0.036509 -0.109526     48.000000
  0.012170  0.012170 -0.085187     24.000000
  0.036509  0.036509  0.036509      8.000000
  0.012170  0.060848  0.060848     24.000000
  0.133865 -0.060848 -0.060848     24.000000
  0.109526 -0.036509 -0.036509     24.000000
  0.036509  0.036509  0.085187     24.000000
  0.158204 -0.085187 -0.036509     48.000000
  0.133865 -0.060848 -0.012170     48.000000
  0.036509  0.036509 -0.158204     24.000000
  0.060848  0.060848  0.060848      8.000000
  0.182544 -0.060848 -0.060848     24.000000

 SYSTEM =  unknown system
 POSCAR =  Gd1 Y1 Ru2

 Startparameter for this run:
   NWRITE =      2    write-flag & timer
   PREC   = accura    normal or accurate (medium, high low for compatibility)
   ISTART =      0    job   : 0-new  1-cont  2-samecut
   ICHARG =      2    charge: 1-file 2-atom 10-const
   ISPIN  =      2    spin polarized calculation?
   LNONCOLLINEAR =      F non collinear calculations
   LSORBIT =      F    spin-orbit coupling
   INIWAV =      1    electr: 0-lowe 1-rand  2-diag
   LASPH  =      T    aspherical Exc in radial PAW
 Electronic Relaxation 1
   ENCUT  =  520.0 eV  38.22 Ry    6.18 a.u.   9.00  9.00  9.00*2*pi/ulx,y,z
   ENINI  =  520.0     initial cutoff
   ENAUG  =  537.2 eV  augmentation charge cutoff
   NELM   =   1000;   NELMIN=  2; NELMDL= -5     # of ELM steps
   EDIFF  = 0.1E-03   stopping-criterion for ELM
   LREAL  =      T    real-space projection
[...]
  382            brsav                                 0.000099                       42   5
  383        m_bcast_d                             0.000017                            2   3
  384      potlok                                0.015332                              2   2
  385        fft3d_mpi                             0.010105                           36   3
  386          fftbrc_mpi                            0.008650                         36   4
  387            fftbas_plan_mpi                       0.008621                       36   5
  388              map_forward                           0.002533                     40   6
  389                map_gather                            0.000858                   24   7
  390                m_alltoallv_z                         0.000703                   24   7
  391                map_scatter                           0.000797                   24   7
  392              map_backward                          0.002114                     32   6
  393                map_gather                            0.000719                   16   7
  394                m_alltoallv_z                         0.000540                   16   7
  395                map_scatter                           0.000686                   16   7
  396              dfftw_execute                         0.002456                     30   6
  397        m_sumb_d                              0.000027                            5   3
  398        pothar                                0.000578                            2   3
  399          m_sumb_d                              0.000052                          2   4
  400        m_bcast_d                             0.000849                            4   3
  401      potlok_metagga                        0.000000                              1   2
  402      set_dd_magatom                        0.000004                              1   2
  403      set_dd_paw                            0.938842                              1   2
  404        m_sumb_d                              0.467513                            7   3
  405      augmentation_charge                   0.071093                              1   2
  406        fft3d_mpi                             0.014416                            2   3
  407          fftbrc_mpi                            0.013068                          2   4
  408            fftbas_plan_mpi                       0.013065                        2   5
  409              dfftw_execute                         0.008562                      6   6
  410              map_backward                          0.004279                      4   6
  411                map_gather                            0.001008                    2   7
  412                m_alltoallv_z                         0.002360                    2   7
  413                map_scatter                           0.000905                    2   7
  414      densta                                6.065546                              1   2

 Flat profile

 m_sumb_d                               22.189956       23587
 set_dd_paw                             18.930061          40
 densta                                 11.319070          43
 init_acc                               10.541097           1
 eccp                                    8.094371      109012
 raccmu_                                 7.446110       24914
 total_time                              6.294716           1
 w1_gemv                                 5.934951      251640
 i2                                      5.223955       19595
 eccp_nl                                 4.581492       85492
 phaser                                  3.621437        2716
 setdij_                                 3.528916          66
 eddiag                                  2.535503          37
 redis_pw                                2.498076       44290
 eddav                                   2.447791           5
 acc_init_cublas                         2.436165           1
 lapack                                  2.403353        5319
 augmentation_charge                     2.241171          39
 cnorma                                  2.224087       85492
 eddrmm                                  2.121651          37
 overl1                                  2.078656      125820
 m_alltoall_d                            2.013964      307986
 fft3d                                   1.753669      245419
 fftwav                                  1.486322      149027
 soft_charge                             1.210449          38
 w1_dscal                                1.208083      197845
 dfftw_execute                           1.203480        1332
 w1_copy                                 1.203159      227016
 rpromu_acc                              1.089614       25698
 w1_gaxpy                                1.003530      191550
 apply_precond                           1.003471      219977
 racc0mu_acc                             0.824346       24914
 setup_precond                           0.823081       23520
 acc_init_cusolver                       0.787523           1
 hamilt_local                            0.773528       20720
 w1_daxpy                                0.696435      129806
 newband                                 0.690405       27266
 redis_proj                              0.599657       50112
 w1_dot                                  0.566197       20589
 hamiltmu                                0.497589       24914
 rpro_isp                                0.450337         364
 m_alltoallv_z                           0.437361        1639
 vhamil                                  0.418583       96392
 kinhamil                                0.418573       96392
 pw_charge                               0.403854       16928
 fftext_mpi                              0.390098       96392
 overl_mu                                0.378820       24914
 zhegv                                   0.367849       44314
 depsum                                  0.338306          38
 orthch                                  0.311968          38
 orth1                                   0.297049       24357
 choleski                                0.251258        2128
 fft3d_mpi                               0.219827       97875
 fftwav_mpi                              0.206722      149027
 overl                                   0.197913       22676
 i3                                      0.176043       19595
 map_scatter                             0.164254        1639
 m_bcast_z                               0.155468        7559
 map_gather                              0.154963        1639
 set_charge                              0.147676          38
 acc_cufft_makeplan                      0.129421          19
 rspher_all                              0.101325          14
 potlok                                  0.100694          40
 fftbas_plan_mpi                         0.090623        1483
 m_bcast_d                               0.086859       10723
 lincom                                  0.086809        4480
 elmin                                   0.072923           1
 ggemm                                   0.069588        6719
 proall                                  0.041199           1
 sphpro_fast                             0.038140           2
 broyd                                   0.028289          38
 w1_projall                              0.021352       23514
 i1                                      0.020962       19595
 brmix                                   0.016687          38
 setg0                                   0.012891          40
 brget                                   0.008469        3851
 map_backward                            0.007365        1554
 truncate_high_frequency_w1              0.007258       99192
 force_and_stress                        0.007254           1
 map_forward                             0.007216        1412
 strnlr                                  0.007148           1
 inisym                                  0.004864           1
 pothar                                  0.003275          41
 fornlr                                  0.002431           1
 brsav                                   0.002009         900
 fftbrc_mpi                              0.000932        1483
 stufak                                  0.000910           1
 forhar                                  0.000909           2
 strelo                                  0.000819           1
 strehar                                 0.000732           1
 fft_gq                                  0.000539          38
 brpre                                   0.000537          76
 forloc                                  0.000512           1
 fewald                                  0.000352           1
 strkin                                  0.000306           1
 shift_bands_between_low_high            0.000283        2072
 chggra                                  0.000221           1
 set_dd_magatom                          0.000179          40
 vectorpot                               0.000162          39
 brgrid                                  0.000091           1
 rsp                                     0.000048           1
 fordep                                  0.000045           1
 posmap                                  0.000034           2
 crpa_reader                             0.000028           1
 rcp                                     0.000012           1
 acc_cufft_makeplans                     0.000009           3
 potlok_metagga                          0.000006          39
 rotate_active_occupied_orbital          0.000000           1
 redis_pw_over_bands                     0.000000           1
  summed up times     154.9967229366302

 Accumulative profile

 total_time                            154.996723           1
 elmin                                 122.460750           1
 eddrmm                                 52.574868          37
 set_dd_paw                             37.614080          40
 m_sumb_d                               22.189956       23587
 i2                                     18.138805       19595
 i3                                     14.857373       19595
 eddav                                  11.776079           5
 densta                                 11.319070          43
 hamiltmu                               10.661784       24914
 init_acc                               10.541097           1
 raccmu_                                 8.649276       24914
 eccp                                    8.094371      109012
 w1_gemv                                 8.013607      251640
 cnorma                                  6.805579       85492
 eddiag                                  6.045760          37
 set_charge                              5.454964          38
 setdij_                                 4.808928          66
 eccp_nl                                 4.581492       85492
 force_and_stress                        4.531256           1
 newband                                 4.029546       27266
 phaser                                  3.621437        2716
 redis_pw                                3.365982       44290
 fft3d_mpi                               2.931808       97875
 augmentation_charge                     2.815853          39
 fftwav_mpi                              2.800925      149027
 orthch                                  2.693006          38
 fftwav                                  2.594203      149027
 acc_init_cublas                         2.436165           1
 lapack                                  2.403353        5319
 soft_charge                             2.201517          38
 overl1                                  2.078656      125820
 fftbrc_mpi                              2.066194        1483
 fftbas_plan_mpi                         2.065262        1483
 m_alltoall_d                            2.013964      307986
 fft3d                                   1.753669      245419
 redis_proj                              1.745715       50112
 kinhamil                                1.482687       96392
 w1_dscal                                1.208083      197845
 dfftw_execute                           1.203480        1332
 w1_copy                                 1.203159      227016
 hamilt_local                            1.159880       20720
 strnlr                                  1.143535           1
 rpromu_acc                              1.089614       25698
 fftext_mpi                              1.064114       96392
 w1_gaxpy                                1.003530      191550
 apply_precond                           1.003471      219977
 rpro_isp                                0.997963         364
 racc0mu_acc                             0.824346       24914
 setup_precond                           0.823081       23520
 acc_init_cusolver                       0.787523           1
 w1_projall                              0.781785       23514
 w1_daxpy                                0.696435      129806
 w1_dot                                  0.566197       20589
 map_forward                             0.476109        1412
 fordep                                  0.439512           1
 m_alltoallv_z                           0.437361        1639
 potlok                                  0.421187          40
 vhamil                                  0.418583       96392
 pw_charge                               0.403854       16928
 fornlr                                  0.381368           1
 overl_mu                                0.378820       24914
 zhegv                                   0.367849       44314
 depsum                                  0.340609          38
 i1                                      0.314690       19595
 orth1                                   0.297049       24357
 map_backward                            0.295050        1554
 choleski                                0.251258        2128
 overl                                   0.197913       22676
 map_scatter                             0.164254        1639
 m_bcast_z                               0.155468        7559
 map_gather                              0.154963        1639
 acc_cufft_makeplans                     0.129430           3
 acc_cufft_makeplan                      0.129421          19
 proall                                  0.111494           1
 rspher_all                              0.101325          14
 m_bcast_d                               0.086859       10723
 lincom                                  0.086809        4480
 brmix                                   0.073556          38
 ggemm                                   0.069588        6719
 broyd                                   0.042306          38
 sphpro_fast                             0.039117           2
 fft_gq                                  0.029745          38
 setg0                                   0.012891          40
 brget                                   0.008469        3851
 truncate_high_frequency_w1              0.007258       99192
 inisym                                  0.004898           1
 pothar                                  0.003633          41
 brsav                                   0.002009         900
 forhar                                  0.000934           2
 stufak                                  0.000910           1
 strelo                                  0.000868           1
 strehar                                 0.000735           1
 chggra                                  0.000710           1
 fewald                                  0.000593           1
 forloc                                  0.000554           1
 brpre                                   0.000537          76
 strkin                                  0.000314           1
 shift_bands_between_low_high            0.000283        2072
 set_dd_magatom                          0.000179          40
 vectorpot                               0.000162          39
 brgrid                                  0.000091           1
 rsp                                     0.000048           1
 posmap                                  0.000034           2
 crpa_reader                             0.000028           1
 rcp                                     0.000012           1
 potlok_metagga                          0.000006          39
 rotate_active_occupied_orbital          0.000000           1
 redis_pw_over_bands                     0.000000           1

Profiling took   0.397588  0.271749  0.003482  0.003396 seconds
Profiling took   0.326712 seconds