 vasp.6.3.2 27Jun22 (build Jul  3 2023 11:46:21) complex
 executed on    LinuxNV_CrayMPICH date 2024.04.21  21:14:08

 INCAR:
   ADDGRID = True
   ALGO = Normal
   AMIX_MAG = 0.8
   BMIX = 0.001
   BMIX_MAG = 0.001
   EDIFF = 0.0014
   ENCUT = 520.0
   IBRION = -1
   ICHARG = 0
   ISIF = 3
   ISMEAR = -5
   ISPIN = 2
   ISTART = 1
   ISYM = 0
   LAECHG = True
   LASPH = True
   LCHARG = True
   LDAU = True
   LDAUJ = 0.0 0.0 0.0
   LDAUL = 0 2 0
   LDAUPRINT = 1
   LDAUTYPE = 2
   LDAUU = 0.0 3.32 0.0
   LMAXMIX = 6
   LORBIT = 11
   LREAL = Auto
   LVHAR = True
   LWAVE = False
   MAGMOM = 8*7.0 1*2.904 2*2.905 1*2.904 1*0.138 1*0.131 1*0.124 1*0.178 1*0.127 1*0.179 1*0.139 2*0.128 1*0.139 1*0.179 1*0.127 1*0.178 1*0.124 1*0.131 1*0.138
   NELM = 1000
   NELMDL = -6
   NSW = 0
   PREC = Accurate
   SIGMA = 0.05

 POTCAR:    PAW_PBE Eu 23Dec2003
 POTCAR:    PAW_PBE Co 02Aug2007
 POTCAR:    PAW_PBE O 08Apr2002
 POTCAR:    PAW_PBE Eu 23Dec2003
   VRHFIN =Eu : [core=Kr4d]

   TITEL  = PAW_PBE Eu 23Dec2003
   POMASS =  151.965; ZVAL   =   17.000    mass and valenz
   ENMAX  =  249.668; ENMIN  =  187.251 eV

   TITEL  = PAW_PBE Co 02Aug2007
   POMASS =   58.933; ZVAL   =    9.000    mass and valenz
   ENMAX  =  267.968; ENMIN  =  200.976 eV

   TITEL  = PAW_PBE O 08Apr2002
   POMASS =   16.000; ZVAL   =    6.000    mass and valenz
   ENMAX  =  400.000; ENMIN  =  300.000 eV

 Optimization of the real space projectors (new method)

 maximal supplied QI-value         = 13.42
 optimisation between [QCUT,QGAM] = [ 11.67, 23.35] = [ 38.16,152.62] Ry
 Optimized for a Real-space Cutoff    1.63 Angstroem

   l    n(q)    QCUT    max X(q) W(low)/X(q) W(high)/X(q)  e(spline)
   0     11    11.673    10.400    0.14E-04    0.18E-05    0.24E-07
   0     11    11.673    10.768    0.21E-04    0.32E-05    0.49E-07
   1     11    11.673     4.094    0.40E-05    0.13E-04    0.93E-07
   1     11    11.673     4.009    0.11E-04    0.46E-04    0.33E-06
   2     10    11.673    29.030    0.79E-04    0.60E-04    0.70E-06
   2     10    11.673    19.941    0.80E-04    0.60E-04    0.71E-06
   3     10    11.673    88.889    0.23E-03    0.29E-03    0.30E-06
   3     10    11.673    76.102    0.23E-03    0.30E-03    0.30E-06
 Optimization of the real space projectors (new method)

[...]

   l    n(q)    QCUT    max X(q) W(low)/X(q) W(high)/X(q)  e(spline)
   2      9    11.539    65.824    0.19E-03    0.47E-04    0.16E-06
   2      9    11.539    61.429    0.20E-03    0.48E-04    0.16E-06
   0     10    11.539    56.174    0.76E-04    0.45E-04    0.23E-06
   0     10    11.539    31.263    0.69E-04    0.41E-04    0.21E-06
   1     10    11.539    19.828    0.78E-04    0.14E-03    0.70E-07
   1     10    11.539    15.139    0.65E-04    0.12E-03    0.64E-07
 Optimization of the real space projectors (new method)

 maximal supplied QI-value         = 24.76
 optimisation between [QCUT,QGAM] = [ 11.64, 23.27] = [ 37.91,151.63] Ry
 Optimized for a Real-space Cutoff    1.14 Angstroem

   l    n(q)    QCUT    max X(q) W(low)/X(q) W(high)/X(q)  e(spline)
   0      8    11.635    20.381    0.10E-03    0.33E-03    0.24E-06
   0      8    11.635    15.268    0.11E-03    0.35E-03    0.26E-06
   1      7    11.635     5.964    0.24E-03    0.31E-03    0.30E-06
   1      7    11.635     5.382    0.22E-03    0.25E-03    0.26E-06
  PAW_PBE Eu 23Dec2003                  :
  PAW_PBE Co 02Aug2007                  :
  PAW_PBE O 08Apr2002                   :

 POSCAR: Eu8 Co4 O16
  positions in direct lattice
 exchange correlation table for  LEXCH =        8
   RHO(1)=    0.500       N(1)  =     2000
   RHO(2)=  100.500       N(2)  =     4000

 VTST: version 4.2, (08/11/21)

 CHAIN: initializing optimizer

 OPT: Using VASP Dynamics algorithm
 CHAIN: Read ICHAIN             0

 POSCAR: Eu8 Co4 O16
  positions in direct lattice

 ion  position               nearest neighbor table
   1  0.993  0.489  0.302-  21 2.42  19 2.45  15 2.46  27 2.49  16 2.51  25 2.57   9 3.13  12 3.30

   2  0.355  0.202  0.569-  16 2.33  24 2.40  28 2.43  14 2.54  13 2.58  17 2.66   9 3.09  12 3.29

[...]

  13  0.655  0.377  0.629-   9 1.87   7 2.43   6 2.45   2 2.58
  14  0.266  0.201  0.802-  10 1.86   6 2.42   8 2.49   2 2.54
  15  0.153  0.783  0.084-  10 1.89   5 2.40   1 2.46   4 2.66
  16  0.030  0.239  0.564-   9 1.82   2 2.33   1 2.51   8 2.57
  17  0.653  0.217  0.416-   9 1.89   7 2.40   3 2.46   2 2.66
  18  0.530  0.761  0.936-  10 1.82   4 2.33   3 2.51   6 2.57
  19  0.845  0.377  0.129-  11 1.87   4 2.43   1 2.45   5 2.58
  20  0.766  0.799  0.698-   9 1.86   8 2.42   6 2.49   4 2.54
  21  0.234  0.201  0.302-  12 1.86   1 2.42   3 2.49   5 2.54
  22  0.155  0.623  0.871-  10 1.87   5 2.43   8 2.45   4 2.58
  23  0.470  0.239  0.064-  11 1.82   5 2.33   6 2.51   3 2.57
  24  0.347  0.783  0.584-  12 1.89   2 2.40   6 2.46   7 2.66
  25  0.970  0.761  0.436-  12 1.82   7 2.33   8 2.51   1 2.57
  26  0.847  0.217  0.916-  11 1.89   4 2.40   8 2.46   5 2.66
  27  0.734  0.799  0.198-  11 1.86   3 2.42   1 2.49   7 2.54
  28  0.345  0.623  0.371-  12 1.87   2 2.43   3 2.45   7 2.58

IMPORTANT INFORMATION: All symmetrisations will be switched off!
NOSYMM: (Re-)initialisation of all symmetry stuff for point group C_1.

                                     Primitive cell

  volume of cell :     399.3783

  direct lattice vectors                    reciprocal lattice vectors
     7.150075000  0.000000000  0.000000000     0.139858673  0.000000000  0.000000000
     0.000000000  5.898780000  0.000000000     0.000000000  0.169526580 -0.084431520
     0.000000000  4.716051000  9.469165000     0.000000000  0.000000000  0.105605933

  length of vectors
     7.150075000  5.898780000 10.578573762     0.139858673  0.189388339  0.105605933

  position of ions in fractional coordinates (direct lattice)
     0.993087000  0.488886000  0.302263000
     0.354923000  0.201951000  0.568555000
     0.493087000  0.511114000  0.197737000
     0.854923000  0.798049000  0.931445000
     0.145077000  0.201951000  0.068555000
     0.506913000  0.488886000  0.802263000
     0.645077000  0.798049000  0.431445000
     0.006913000  0.511114000  0.697737000
     0.785186000  0.146583000  0.584443000
     0.285186000  0.853417000  0.915557000
     0.714814000  0.146583000  0.084443000
     0.214814000  0.853417000  0.415557000
     0.654921000  0.376960000  0.628673000
     0.265889000  0.200635000  0.801732000
     0.153479000  0.783021000  0.084459000
     0.030133000  0.239417000  0.564377000
     0.653479000  0.216979000  0.415541000
     0.530133000  0.760583000  0.935623000
     0.845079000  0.376960000  0.128673000
     0.765889000  0.799365000  0.698268000
     0.234111000  0.200635000  0.301732000
     0.154921000  0.623040000  0.871327000
     0.469867000  0.239417000  0.064377000
     0.346521000  0.783021000  0.584459000
     0.969867000  0.760583000  0.435623000
     0.846521000  0.216979000  0.915541000
     0.734111000  0.799365000  0.198268000
     0.345079000  0.623040000  0.371327000

  ion indices of the primitive-cell ions
   primitive index   ion index
                 1           1
                 2           2
                 3           3
                 4           4
                 5           5
                 6           6
                 7           7
                 8           8
                 9           9
                10          10
                11          11
                12          12
                13          13
                14          14
                15          15
                16          16
                17          17
                18          18
                19          19
                20          20
                21          21
                22          22
                23          23
                24          24
                25          25
                26          26
                27          27
                28          28

 KPOINTS: Kpoints from vasprun.xml

Automatic generation of k-mesh.
 Grid dimensions read from file:
 generate k-points for:    4    5    2

 Generating k-lattice:

  Cartesian coordinates                     Fractional coordinates (reciprocal lattice)
     0.034964668  0.000000000  0.000000000     0.250000000  0.000000000  0.000000000
     0.000000000  0.033905316 -0.016886304     0.000000000  0.200000000 -0.000000000
     0.000000000  0.000000000  0.052802966     0.000000000  0.000000000  0.500000000

  Length of vectors
     0.034964668  0.037877668  0.052802966

  Shift w.r.t. Gamma in fractional coordinates (k-lattice)
     0.000000000  0.000000000  0.000000000

 TETIRR: Found    120 inequivalent tetrahedra from      240

 Subroutine IBZKPT returns following result:

 Found     22 irreducible k-points:

 Following reciprocal coordinates:
            Coordinates               Weight
  0.000000  0.000000  0.000000      1.000000
  0.250000  0.000000  0.000000      2.000000
  0.500000  0.000000  0.000000      1.000000
  0.000000  0.200000  0.000000      2.000000
  0.250000  0.200000  0.000000      2.000000
  0.250000 -0.200000  0.000000      2.000000
  0.500000  0.200000  0.000000      2.000000
  0.000000  0.400000  0.000000      2.000000
  0.250000  0.400000  0.000000      2.000000
  0.250000 -0.400000  0.000000      2.000000
  0.500000  0.400000  0.000000      2.000000
  0.000000  0.000000  0.500000      1.000000
  0.250000  0.000000  0.500000      2.000000
  0.500000  0.000000  0.500000      1.000000
  0.000000  0.200000  0.500000      2.000000
  0.250000  0.200000  0.500000      2.000000
  0.250000 -0.200000  0.500000      2.000000
  0.500000  0.200000  0.500000      2.000000
  0.000000  0.400000  0.500000      2.000000
  0.250000  0.400000  0.500000      2.000000
  0.250000 -0.400000  0.500000      2.000000
  0.500000  0.400000  0.500000      2.000000

 Following cartesian coordinates:
            Coordinates               Weight
  0.000000  0.000000  0.000000      1.000000
  0.034965  0.000000  0.000000      2.000000
  0.069929  0.000000  0.000000      1.000000
  0.000000  0.033905 -0.016886      2.000000
  0.034965  0.033905 -0.016886      2.000000
  0.034965 -0.033905  0.016886      2.000000
  0.069929  0.033905 -0.016886      2.000000
  0.000000  0.067811 -0.033773      2.000000
  0.034965  0.067811 -0.033773      2.000000
  0.034965 -0.067811  0.033773      2.000000
  0.069929  0.067811 -0.033773      2.000000
  0.000000  0.000000  0.052803      1.000000
  0.034965  0.000000  0.052803      2.000000
  0.069929  0.000000  0.052803      1.000000
  0.000000  0.033905  0.035917      2.000000
  0.034965  0.033905  0.035917      2.000000
  0.034965 -0.033905  0.069689      2.000000
  0.069929  0.033905  0.035917      2.000000
  0.000000  0.067811  0.019030      2.000000
  0.034965  0.067811  0.019030      2.000000
  0.034965 -0.067811  0.086576      2.000000
  0.069929  0.067811  0.019030      2.000000

 SYSTEM =  unknown system
 POSCAR =  Eu8 Co4 O16

 Startparameter for this run:
   NWRITE =      2    write-flag & timer
   PREC   = accura    normal or accurate (medium, high low for compatibility)
   ISTART =      0    job   : 0-new  1-cont  2-samecut
[...]
  280        strehar                               0.002092                            1   3
  281          m_sumb_d                              0.000003                          1   4
  282        chggra                                0.000900                            1   3
  283          fft3d_mpi                             0.000541                          3   4
  284            fftbrc_mpi                            0.000423                        3   5
  285              fftbas_plan_mpi                       0.000422                      3   6
  286                map_forward                           0.000231                    4   7
  287                  map_gather                            0.000048                  2   8
  288                  m_alltoallv_z                         0.000027                  2   8
  289                  map_scatter                           0.000124                  2   8
  290                map_backward                          0.000103                    2   7
  291                  map_gather                            0.000028                  1   8
  292                  m_alltoallv_z                         0.000013                  1   8
  293                  map_scatter                           0.000044                  1   8
  294          m_sumb_d                              0.000008                          2   4
  295          pothar                                0.000092                          1   4
  296            m_sumb_d                              0.000016                        1   5
  297        brmix                                 0.012589                            1   3
  298          m_sumb_d                              0.000034                          6   4
  299          brpre                                 0.000037                          2   4
  300          setg0                                 0.001442                          1   4
  301          broyd                                 0.009334                          1   4
  302            m_sumb_d                              0.000826                       49   5
  303            brget                                 0.001853                      219   5
  304            brsav                                 0.000393                       47   5
  305        m_bcast_d                             0.000030                            2   3
  306      potlok                                0.048699                              2   2
  307        fft3d_mpi                             0.030958                           36   3
  308          fftbrc_mpi                            0.026150                         36   4
  309            fftbas_plan_mpi                       0.026135                       36   5
  310              map_forward                           0.007724                     40   6
  311                map_gather                            0.002335                   24   7
  312                m_alltoallv_z                         0.003027                   24   7
  313                map_scatter                           0.002148                   24   7
  314              map_backward                          0.006133                     32   6
  315                map_gather                            0.002145                   16   7
  316                m_alltoallv_z                         0.001935                   16   7
  317                map_scatter                           0.001840                   16   7
  318              dfftw_execute                         0.010511                     30   6
  319        m_sumb_d                              0.000030                            5   3
  320        pothar                                0.002036                            2   3
  321          m_sumb_d                              0.000163                          2   4
  322        m_bcast_d                             0.003483                            4   3
  323      potlok_metagga                        0.000000                              1   2
  324      set_dd_magatom                        0.000005                              1   2
  325      set_dd_paw                            3.254284                              1   2
  326        m_sumb_d                              0.033567                            7   3
  327      augmentation_charge                   0.212175                              1   2
  328        fft3d_mpi                             0.074664                            2   3
  329          fftbrc_mpi                            0.066379                          2   4
  330            fftbas_plan_mpi                       0.066375                        2   5
  331              dfftw_execute                         0.042162                      6   6
  332              map_backward                          0.023934                      4   6
  333                map_gather                            0.008268                    2   7
  334                m_alltoallv_z                         0.008466                    2   7
  335                map_scatter                           0.007190                    2   7
  336      densta                               11.595033                              1   2

 Flat profile

 set_dd_paw                            143.883713          45
 eddav                                 118.578678          48
 raccmu_                               110.152335      217190
 lapack                                106.323951      217190
 redis_pw                               52.834567     1173313
 m_sumb_d                               47.542901      658219
 m_alltoall_d                           21.531713     3083409
 densta                                 19.184163          49
 total_time                             19.178126           1
 phaser                                 12.301778        2398
 init_acc                               11.399274           1
 orth1                                  11.233119      651878
 eccp                                   11.215972      103488
 redis_proj                              9.896265     1494032
 setdij_                                 9.325336          71
 fft3d                                   9.305225     1261241
 fftwav                                  7.905496      837078
 hamiltmu                                6.963108      217190
 rpromu_acc                              6.769289      171826
 racc0mu_acc                             6.274526      217190
 overl                                   6.147372      744882
 w1_copy                                 6.141252     1272489
 augmentation_charge                     6.067691          44
 dfftw_execute                           5.637880        1452
 m_bcast_z                               5.508147      225814
 soft_charge                             3.761831          43
 setup_precond                           3.735412      103488
 ggemm                                   3.629135      269990
 m_bcast_d                               3.550914      434475
 overl_mu                                3.316459      217190
 acc_init_cublas                         2.439676           1
 pw_charge                               2.155364       64212
 kinhamil                                1.918912      424163
 vhamil                                  1.911413      424163
 fftext_mpi                              1.780138      424163
 apply_precond                           1.737144      320675
 newband                                 1.663326      219302
 depsum                                  1.516965          43
 m_alltoallv_z                           1.485214        1829
 rpro_isp                                1.483363         286
 fftwav_mpi                              1.088039      837078
 fft3d_mpi                               1.019997      425816
 map_scatter                             0.978842        1829
 map_gather                              0.845227        1829
 acc_init_cusolver                       0.828836           1
 sphpro_fast                             0.495628           2
 rspher_all                              0.370555          14
 potlok                                  0.247499          45
 elmin                                   0.183088           1
 w1_projall                              0.171702      164390
 brmix                                   0.135136          43
 proall                                  0.115534           1
 acc_cufft_makeplan                      0.113548          19
 fftbas_plan_mpi                         0.108376        1653
 broyd                                   0.107659          43
 lincom                                  0.085358        2156
 orthch                                  0.067626           1
 setg0                                   0.064056          45
 truncate_high_frequency_w1              0.041471      527651
 brget                                   0.040956        4896
 force_and_stress                        0.036942           1
 choleski                                0.022569          44
 set_charge                              0.019366          43
 stufak                                  0.018507           1
 strnlr                                  0.010393           1
 map_backward                            0.010144        1734
 map_forward                             0.009843        1572
 brsav                                   0.009381        1126
 pothar                                  0.005572          46
 fft_gq                                  0.005404          43
 fornlr                                  0.003546           1
 strelo                                  0.002673           1
 strkin                                  0.002605           1
 forhar                                  0.002400           2
 strehar                                 0.002089           1
 brpre                                   0.001665          86
 forloc                                  0.001240           1
 rsp                                     0.001074           1
 fftbrc_mpi                              0.001053        1653
 fewald                                  0.000341           1
 brgrid                                  0.000273           1
 chggra                                  0.000259           1
 set_dd_magatom                          0.000209          45
 vectorpot                               0.000183          44
 fordep                                  0.000119           1
 rcp                                     0.000043           1
 crpa_reader                             0.000029           1
 acc_cufft_makeplans                     0.000014           3
 potlok_metagga                          0.000006          44
 rotate_active_occupied_orbital          0.000001           1
 redis_pw_over_bands                     0.000000           1
  summed up times     814.6642220020294

 Accumulative profile

 total_time                            814.664222           1
 elmin                                 747.016264           1
 eddav                                 572.437608          48
 set_dd_paw                            144.548317          45
 hamiltmu                              135.419027      217190
 raccmu_                               119.743321      217190
 lapack                                106.323951      217190
 redis_pw                               63.449735     1173313
 m_sumb_d                               47.542901      658219
 newband                                24.680180      219302
 m_alltoall_d                           21.531713     3083409
 redis_proj                             20.812810     1494032
 densta                                 19.184163          49
 set_charge                             18.945606          43
 force_and_stress                       15.381340           1
 fftwav_mpi                             15.321892      837078
 setdij_                                15.314598          71
 fftwav                                 14.233853      837078
 fft3d_mpi                              13.073444      425816
 phaser                                 12.301778        2398
 init_acc                               11.399274           1
 orth1                                  11.233119      651878
 eccp                                   11.215972      103488
 augmentation_charge                     9.399323          44
 fft3d                                   9.305225     1261241
 fftbrc_mpi                              9.076579        1653
 fftbas_plan_mpi                         9.075526        1653
 soft_charge                             8.208558          43
 kinhamil                                6.801185      424163
 rpromu_acc                              6.769289      171826
 racc0mu_acc                             6.274526      217190
 overl                                   6.147372      744882
 w1_copy                                 6.141252     1272489
 dfftw_execute                           5.637880        1452
 m_bcast_z                               5.508147      225814
 fftext_mpi                              4.882273      424163
 w1_projall                              4.864954      164390
 strnlr                                  4.525713           1
 rpro_isp                                4.445899         286
 setup_precond                           3.735412      103488
 ggemm                                   3.629135      269990
 m_bcast_d                               3.550914      434475
 overl_mu                                3.316459      217190
 acc_init_cublas                         2.439676           1
 pw_charge                               2.155364       64212
 vhamil                                  1.911413      424163
 apply_precond                           1.737144      320675
 map_forward                             1.681087        1572
 map_backward                            1.648183        1734
 depsum                                  1.530534          43
 fornlr                                  1.506200           1
 m_alltoallv_z                           1.485214        1829
 fordep                                  1.291640           1
 map_scatter                             0.978842        1829
 map_gather                              0.845227        1829
 acc_init_cusolver                       0.828836           1
 potlok                                  0.623730          45
 orthch                                  0.518097           1
 sphpro_fast                             0.515729           2
 brmix                                   0.388203          43
 proall                                  0.384970           1
 rspher_all                              0.370555          14
 broyd                                   0.181031          43
 fft_gq                                  0.124255          43
 acc_cufft_makeplans                     0.113562           3
 acc_cufft_makeplan                      0.113548          19
 lincom                                  0.085358        2156
 setg0                                   0.064056          45
 truncate_high_frequency_w1              0.041471      527651
 brget                                   0.040956        4896
 choleski                                0.022569          44
 stufak                                  0.018507           1
 brsav                                   0.009381        1126
 pothar                                  0.006149          46
 strelo                                  0.002969           1
 strkin                                  0.002618           1
 forhar                                  0.002455           2
 strehar                                 0.002092           1
 forloc                                  0.001702           1
 brpre                                   0.001665          86
 fewald                                  0.001524           1
 rsp                                     0.001074           1
 chggra                                  0.000900           1
 brgrid                                  0.000273           1
 set_dd_magatom                          0.000209          45
 vectorpot                               0.000183          44
 rcp                                     0.000043           1
 crpa_reader                             0.000029           1
 potlok_metagga                          0.000006          44
 rotate_active_occupied_orbital          0.000001           1
 redis_pw_over_bands                     0.000000           1

Profiling took   2.640607  1.327871  0.003391  0.003299 seconds
Profiling took   1.684435 seconds