 vasp.6.3.2 27Jun22 (build Jul  3 2023 11:46:21) complex
 executed on    LinuxNV_CrayMPICH date 2024.04.22  03:39:11

 INCAR:
   ADDGRID = True
   ALGO = Fast
   EDIFF = 5e-05
   ENCUT = 520.0
   IBRION = -1
   ISIF = 3
   ISMEAR = -5
   ISPIN = 2
   LAECHG = True
   LASPH = True
   LCHARG = True
   LORBIT = 11
   LREAL = Auto
   LVHAR = True
   LWAVE = False
   MAGMOM = 2*7.0 2*0.6
   NELM = 1000
   NSW = 0
   PREC = Accurate
   SIGMA = 0.05

 POTCAR:    PAW_PBE Gd 23Dec2003
 POTCAR:    PAW_PBE Pd 04Jan2005
 POTCAR:    PAW_PBE Rh_pv 25Jan2005
 POTCAR:    PAW_PBE Gd 23Dec2003
   VRHFIN =Gd : [core=Xe4]

   TITEL  = PAW_PBE Gd 23Dec2003
   POMASS =  157.250; ZVAL   =   18.000    mass and valenz
   ENMAX  =  256.472; ENMIN  =  192.354 eV

   TITEL  = PAW_PBE Pd 04Jan2005
   POMASS =  106.420; ZVAL   =   10.000    mass and valenz
   ENMAX  =  250.925; ENMIN  =  188.194 eV

   TITEL  = PAW_PBE Rh_pv 25Jan2005
   POMASS =  102.906; ZVAL   =   15.000    mass and valenz
   ENMAX  =  247.408; ENMIN  =  185.556 eV

 Optimization of the real space projectors (new method)

 maximal supplied QI-value         = 13.42
 optimisation between [QCUT,QGAM] = [ 11.67, 23.35] = [ 38.16,152.62] Ry
 Optimized for a Real-space Cutoff    1.63 Angstroem

   l    n(q)    QCUT    max X(q) W(low)/X(q) W(high)/X(q)  e(spline)
   0     11    11.673    10.501    0.14E-04    0.17E-05    0.21E-07
   0     11    11.673     9.148    0.21E-04    0.32E-05    0.45E-07
   1     11    11.673     4.035    0.33E-05    0.11E-04    0.84E-07
   1     11    11.673     4.388    0.11E-04    0.47E-04    0.34E-06
   2     10    11.673    20.656    0.12E-04    0.28E-04    0.54E-06
   2     10    11.673    12.651    0.11E-04    0.26E-04    0.51E-06
   3     10    11.673    61.921    0.19E-03    0.22E-03    0.23E-06
   3     10    11.673    48.328    0.20E-03    0.23E-03    0.23E-06
 Optimization of the real space projectors (new method)

[...]

   l    n(q)    QCUT    max X(q) W(low)/X(q) W(high)/X(q)  e(spline)
   2      9    11.633    59.108    0.81E-04    0.17E-04    0.26E-06
   2      9    11.633    58.101    0.82E-04    0.18E-04    0.27E-06
   0     10    11.633   102.235    0.26E-04    0.16E-04    0.21E-06
   0     10    11.633    58.388    0.23E-04    0.15E-04    0.20E-06
   1     10    11.633    22.191    0.10E-03    0.20E-03    0.14E-06
   1     10    11.633    15.590    0.86E-04    0.17E-03    0.12E-06
 Optimization of the real space projectors (new method)

 maximal supplied QI-value         = 15.68
 optimisation between [QCUT,QGAM] = [ 11.61, 23.21] = [ 37.72,150.90] Ry
 Optimized for a Real-space Cutoff    1.45 Angstroem

   l    n(q)    QCUT    max X(q) W(low)/X(q) W(high)/X(q)  e(spline)
   1     10    11.607     3.143    0.27E-04    0.48E-04    0.10E-06
   1     10    11.607     5.034    0.71E-04    0.17E-03    0.32E-06
   2      9    11.607    64.180    0.22E-03    0.59E-04    0.28E-06
   2      9    11.607    61.342    0.22E-03    0.61E-04    0.29E-06
   0     10    11.607    55.593    0.52E-04    0.32E-04    0.17E-06
   0     10    11.607    26.178    0.47E-04    0.29E-04    0.15E-06
  PAW_PBE Gd 23Dec2003                  :
  PAW_PBE Pd 04Jan2005                  :
  PAW_PBE Rh_pv 25Jan2005               :

 POSCAR: Gd2 Pd1 Rh1
  positions in direct lattice
 exchange correlation table for  LEXCH =        8
   RHO(1)=    0.500       N(1)  =     2000
   RHO(2)=  100.500       N(2)  =     4000

 VTST: version 4.2, (08/11/21)

 CHAIN: initializing optimizer

 OPT: Using VASP Dynamics algorithm
 CHAIN: Read ICHAIN             0

 POSCAR: Gd2 Pd1 Rh1
  positions in direct lattice

 ion  position               nearest neighbor table
   1  0.750  0.750  0.750-   4 3.04   4 3.04   3 3.04   4 3.04   3 3.04   3 3.04   4 3.04   3 3.04
                             2 3.52   2 3.52   2 3.52   2 3.52   2 3.52   2 3.52
   2  0.250  0.250  0.250-   3 3.04   3 3.04   3 3.04   4 3.04   4 3.04   4 3.04   3 3.04   4 3.04
                             1 3.52   1 3.52   1 3.52   1 3.52   1 3.52   1 3.52
   3  0.000  0.000  0.000-   1 3.04   1 3.04   1 3.04   2 3.04   2 3.04   2 3.04   1 3.04   2 3.04

   4  0.500  0.500  0.500-   2 3.04   2 3.04   1 3.04   2 3.04   1 3.04   1 3.04   2 3.04   1 3.04

  LATTYP: Found a face centered cubic cell.
 ALAT       =     7.0303540000

  Lattice vectors:

 A1 = (   0.0000000000,   3.5151770000,   3.5151770000)
 A2 = (   3.5151770000,   0.0000000000,   3.5151770000)
 A3 = (   3.5151770000,   3.5151770000,   0.0000000000)

Analysis of symmetry for initial positions (statically):
 Subroutine PRICEL returns:
 Original cell was already a primitive cell.

 Routine SETGRP: Setting up the symmetry group for a
 face centered cubic supercell.

 Subroutine GETGRP returns: Found 48 space group operations
 (whereof 48 operations were pure point group operations)
 out of a pool of 48 trial point group operations.

The static configuration has the point symmetry O_h .

Analysis of symmetry for dynamics (positions and initial velocities):
 Subroutine PRICEL returns:
 Original cell was already a primitive cell.

[...]

The dynamic configuration has the point symmetry O_h .

Analysis of structural, dynamic, and magnetic symmetry:
 Subroutine PRICEL returns:
 Original cell was already a primitive cell.

 Routine SETGRP: Setting up the symmetry group for a
 face centered cubic supercell.

 Subroutine GETGRP returns: Found 48 space group operations
 (whereof 48 operations were pure point group operations)
 out of a pool of 48 trial point group operations.

The overall configuration has the point symmetry O_h .

 Subroutine INISYM returns: Found 48 space group operations
 (whereof 48 operations are pure point group operations),
 and found     1 'primitive' translations

                                     Primitive cell

  volume of cell :      86.8704

  direct lattice vectors                    reciprocal lattice vectors
     0.000000000  3.515177000  3.515177000    -0.142240348  0.142240348  0.142240348
     3.515177000  0.000000000  3.515177000     0.142240348 -0.142240348  0.142240348
     3.515177000  3.515177000  0.000000000     0.142240348  0.142240348 -0.142240348

  length of vectors
     4.971210988  4.971210988  4.971210988     0.246367510  0.246367510  0.246367510

  position of ions in fractional coordinates (direct lattice)
     0.750000000  0.750000000  0.750000000
     0.250000000  0.250000000  0.250000000
     0.000000000  0.000000000  0.000000000
     0.500000000  0.500000000  0.500000000

  ion indices of the primitive-cell ions
   primitive index   ion index
                 1           1
                 2           2
                 3           3
                 4           4

 KPOINTS: Kpoints from vasprun.xml

Automatic generation of k-mesh.
 Grid dimensions read from file:
 generate k-points for:    6    6    6

 Generating k-lattice:

  Cartesian coordinates                     Fractional coordinates (reciprocal lattice)
    -0.023706725  0.023706725  0.023706725     0.166666667 -0.000000000 -0.000000000
     0.023706725 -0.023706725  0.023706725    -0.000000000  0.166666667  0.000000000
     0.023706725  0.023706725 -0.023706725     0.000000000  0.000000000  0.166666667

  Length of vectors
     0.041061252  0.041061252  0.041061252

  Shift w.r.t. Gamma in fractional coordinates (k-lattice)
     0.500000000  0.500000000  0.500000000

 TETIRR: Found    403 inequivalent tetrahedra from     5184

 Subroutine IBZKPT returns following result:

 Found     28 irreducible k-points:

 Following reciprocal coordinates:
            Coordinates               Weight
  0.083333  0.083333  0.083333      8.000000
  0.250000  0.083333  0.083333     24.000000
  0.416667  0.083333  0.083333     24.000000
 -0.416667  0.083333  0.083333     24.000000
 -0.250000  0.083333  0.083333     24.000000
 -0.083333  0.083333  0.083333     24.000000
  0.250000  0.250000  0.083333     24.000000
  0.416667  0.250000  0.083333     48.000000
 -0.416667  0.250000  0.083333     48.000000
 -0.250000  0.250000  0.083333     48.000000
 -0.083333  0.250000  0.083333     48.000000
  0.416667  0.416667  0.083333     24.000000
 -0.416667  0.416667  0.083333     48.000000
 -0.250000  0.416667  0.083333     48.000000
 -0.083333  0.416667  0.083333     48.000000
 -0.416667 -0.416667  0.083333     24.000000
 -0.250000 -0.416667  0.083333     48.000000
 -0.250000 -0.250000  0.083333     24.000000
  0.250000  0.250000  0.250000      8.000000
  0.416667  0.250000  0.250000     24.000000
 -0.416667  0.250000  0.250000     24.000000
 -0.250000  0.250000  0.250000     24.000000
  0.416667  0.416667  0.250000     24.000000
 -0.416667  0.416667  0.250000     48.000000
 -0.250000  0.416667  0.250000     48.000000
 -0.416667 -0.416667  0.250000     24.000000
  0.416667  0.416667  0.416667      8.000000
 -0.416667  0.416667  0.416667     24.000000

 Following cartesian coordinates:
            Coordinates               Weight
  0.011853  0.011853  0.011853      8.000000
 -0.011853  0.035560  0.035560     24.000000
 -0.035560  0.059267  0.059267     24.000000
  0.082974 -0.059267 -0.059267     24.000000
  0.059267 -0.035560 -0.035560     24.000000
  0.035560 -0.011853 -0.011853     24.000000
  0.011853  0.011853  0.059267     24.000000
 -0.011853  0.035560  0.082974     48.000000
  0.106680 -0.082974 -0.035560     48.000000
  0.082974 -0.059267 -0.011853     48.000000
  0.059267 -0.035560  0.011853     48.000000
  0.011853  0.011853  0.106680     24.000000
  0.130387 -0.106680 -0.011853     48.000000
  0.106680 -0.082974  0.011853     48.000000
  0.082974 -0.059267  0.035560     48.000000
  0.011853  0.011853 -0.130387     24.000000
 -0.011853  0.035560 -0.106680     48.000000
  0.011853  0.011853 -0.082974     24.000000
  0.035560  0.035560  0.035560      8.000000
  0.011853  0.059267  0.059267     24.000000
  0.130387 -0.059267 -0.059267     24.000000
  0.106680 -0.035560 -0.035560     24.000000
  0.035560  0.035560  0.082974     24.000000
  0.154094 -0.082974 -0.035560     48.000000
  0.130387 -0.059267 -0.011853     48.000000
  0.035560  0.035560 -0.154094     24.000000
  0.059267  0.059267  0.059267      8.000000
  0.177800 -0.059267 -0.059267     24.000000

 SYSTEM =  unknown system
 POSCAR =  Gd2 Pd1 Rh1

 Startparameter for this run:
   NWRITE =      2    write-flag & timer
   PREC   = accura    normal or accurate (medium, high low for compatibility)
   ISTART =      0    job   : 0-new  1-cont  2-samecut
   ICHARG =      2    charge: 1-file 2-atom 10-const
   ISPIN  =      2    spin polarized calculation?
   LNONCOLLINEAR =      F non collinear calculations
   LSORBIT =      F    spin-orbit coupling
   INIWAV =      1    electr: 0-lowe 1-rand  2-diag
   LASPH  =      T    aspherical Exc in radial PAW
 Electronic Relaxation 1
   ENCUT  =  520.0 eV  38.22 Ry    6.18 a.u.   9.24  9.24  9.24*2*pi/ulx,y,z
   ENINI  =  520.0     initial cutoff
   ENAUG  =  537.2 eV  augmentation charge cutoff
   NELM   =   1000;   NELMIN=  2; NELMDL= -5     # of ELM steps
   EDIFF  = 0.5E-04   stopping-criterion for ELM
   LREAL  =      T    real-space projection
   NLSPLINE    = F    spline interpolate recip. space projectors
[...]
  382            brsav                                 0.000060                       24   5
  383        m_bcast_d                             0.000030                            2   3
  384      potlok                                0.018698                              2   2
  385        fft3d_mpi                             0.012405                           36   3
  386          fftbrc_mpi                            0.010640                         36   4
  387            fftbas_plan_mpi                       0.010625                       36   5
  388              map_forward                           0.003059                     40   6
  389                map_gather                            0.001018                   24   7
  390                m_alltoallv_z                         0.000915                   24   7
  391                map_scatter                           0.000942                   24   7
  392              map_backward                          0.002581                     32   6
  393                map_gather                            0.000828                   16   7
  394                m_alltoallv_z                         0.000758                   16   7
  395                map_scatter                           0.000819                   16   7
  396              dfftw_execute                         0.003313                     30   6
  397        m_sumb_d                              0.000026                            5   3
  398        pothar                                0.000698                            2   3
  399          m_sumb_d                              0.000063                          2   4
  400        m_bcast_d                             0.001136                            4   3
  401      potlok_metagga                        0.000000                              1   2
  402      set_dd_magatom                        0.000004                              1   2
  403      set_dd_paw                            0.934704                              1   2
  404        m_sumb_d                              0.457699                            7   3
  405      augmentation_charge                   0.084213                              1   2
  406        fft3d_mpi                             0.017355                            2   3
  407          fftbrc_mpi                            0.015094                          2   4
  408            fftbas_plan_mpi                       0.015091                        2   5
  409              dfftw_execute                         0.008852                      6   6
  410              map_backward                          0.006094                      4   6
  411                map_gather                            0.001376                    2   7
  412                m_alltoallv_z                         0.003510                    2   7
  413                map_scatter                           0.001204                    2   7
  414      densta                                3.613899                              1   2

 Flat profile

 m_sumb_d                               13.607382       23657
 init_acc                               12.429379           1
 set_dd_paw                             10.317246          22
 total_time                              7.551838           1
 raccmu_                                 7.111704       16566
 densta                                  6.807020          25
 eccp                                    4.754245       61470
 w1_gemv                                 3.009418      127904
 setdij_                                 3.007809          48
 eddav                                   2.853056           5
 i2                                      2.799819       10170
 phaser                                  2.770476        1708
 lapack                                  2.766990        6396
 eccp_nl                                 2.545256       46686
 acc_init_cublas                         2.427008           1
 redis_pw                                2.004275       40083
 m_alltoall_d                            1.481718      216671
 augmentation_charge                     1.415996          21
 eddiag                                  1.397988          19
 cnorma                                  1.224097       46686
 eddrmm                                  1.164295          19
 fft3d                                   1.107012      154199
 overl1                                  1.058545       63952
 fftwav                                  0.979831       95832
 dfftw_execute                           0.936795         900
 rpromu_acc                              0.826808       17070
 acc_init_cusolver                       0.799359           1
 w1_copy                                 0.725677      139989
 soft_charge                             0.680879          20
 w1_dscal                                0.627296      104816
 racc0mu_acc                             0.538690       16566
 apply_precond                           0.538569      115758
 setup_precond                           0.529941       14784
 w1_gaxpy                                0.495161       95453
 hamilt_local                            0.490941       11704
 rpro_isp                                0.487902         364
 redis_proj                              0.477975       47676
 newband                                 0.465781       17910
 m_alltoallv_z                           0.417480         955
 hamiltmu                                0.383679       16566
 w1_daxpy                                0.376885       69964
 w1_dot                                  0.323230       11704
 orth1                                   0.273210       23556
 overl_mu                                0.254623       16566
 vhamil                                  0.253272       58367
 kinhamil                                0.251466       58367
 pw_charge                               0.237060        9152
 fftext_mpi                              0.236472       58367
 depsum                                  0.200874          20
 zhegv                                   0.197469       23278
 overl                                   0.190964       22466
 m_bcast_z                               0.189049        8860
 fft3d_mpi                               0.187400       59238
 orthch                                  0.169940          20
 choleski                                0.137428        1120
 fftwav_mpi                              0.131459       95832
 map_gather                              0.131309         955
 rspher_all                              0.128874          14
 map_scatter                             0.126069         955
 acc_cufft_makeplan                      0.123896          19
 m_bcast_d                               0.103555       12841
 set_charge                              0.103372          20
 i3                                      0.093658       10170
 ggemm                                   0.082783        8076
 potlok                                  0.065293          22
 fftbas_plan_mpi                         0.058998         871
 elmin                                   0.051680           1
 lincom                                  0.048715        2464
 sphpro_fast                             0.042893           2
 proall                                  0.042611           1
 broyd                                   0.025145          20
 w1_projall                              0.014379       14886
 brmix                                   0.011023          20
 i1                                      0.010621       10170
 setg0                                   0.009322          22
 force_and_stress                        0.007863           1
 strnlr                                  0.007109           1
 inisym                                  0.004743           1
 truncate_high_frequency_w1              0.004555       61447
 map_backward                            0.004322         906
 map_forward                             0.004122         836
 brget                                   0.002713        1124
 fornlr                                  0.002461           1
 pothar                                  0.002164          23
 stufak                                  0.001907           1
 forhar                                  0.001287           2
 strelo                                  0.001123           1
 strehar                                 0.000784           1
 brsav                                   0.000726         293
 forloc                                  0.000697           1
 fft_gq                                  0.000509          20
 fftbrc_mpi                              0.000499         871
 brpre                                   0.000335          40
 fewald                                  0.000330           1
 strkin                                  0.000322           1
 chggra                                  0.000230           1
 brgrid                                  0.000108           1
 set_dd_magatom                          0.000099          22
 shift_bands_between_low_high            0.000099        1064
 vectorpot                               0.000093          21
 fordep                                  0.000050           1
 rsp                                     0.000048           1
 posmap                                  0.000035           2
 crpa_reader                             0.000028           1
 acc_cufft_makeplans                     0.000012           3
 rcp                                     0.000011           1
 potlok_metagga                          0.000001          21
 rotate_active_occupied_orbital          0.000000           1
 redis_pw_over_bands                     0.000000           1
  summed up times     110.9497117996216

 Accumulative profile

 total_time                            110.949712           1
 elmin                                  77.071355           1
 eddrmm                                 30.782914          19
 set_dd_paw                             20.510848          22
 eddav                                  14.439257           5
 m_sumb_d                               13.607382       23657
 init_acc                               12.429379           1
 i2                                      9.413103       10170
 hamiltmu                                9.225357       16566
 i3                                      8.282458       10170
 raccmu_                                 7.905017       16566
 densta                                  6.807020          25
 force_and_stress                        5.079739           1
 eccp                                    4.754245       61470
 setdij_                                 4.168763          48
 w1_gemv                                 4.067963      127904
 cnorma                                  3.769353       46686
 eddiag                                  3.421847          19
 set_charge                              3.273701          20
 phaser                                  2.770476        1708
 lapack                                  2.766990        6396
 newband                                 2.701660       17910
 redis_pw                                2.642254       40083
 eccp_nl                                 2.545256       46686
 acc_init_cublas                         2.427008           1
 fft3d_mpi                               2.261708       59238
 fftwav_mpi                              1.823586       95832
 augmentation_charge                     1.792030          21
 fftwav                                  1.692127       95832
 fftbrc_mpi                              1.679593         871
 fftbas_plan_mpi                         1.679094         871
 orthch                                  1.621627          20
 m_alltoall_d                            1.481718      216671
 redis_proj                              1.321713       47676
 strnlr                                  1.291805           1
 soft_charge                             1.243385          20
 fft3d                                   1.107012      154199
 rpro_isp                                1.078984         364
 overl1                                  1.058545       63952
 dfftw_execute                           0.936795         900
 kinhamil                                0.900323       58367
 rpromu_acc                              0.826808       17070
 acc_init_cusolver                       0.799359           1
 w1_copy                                 0.725677      139989
 hamilt_local                            0.707874       11704
 fftext_mpi                              0.648857       58367
 w1_dscal                                0.627296      104816
 racc0mu_acc                             0.538690       16566
 apply_precond                           0.538569      115758
 setup_precond                           0.529941       14784
 fordep                                  0.519967           1
 w1_gaxpy                                0.495161       95453
 w1_projall                              0.489215       14886
 map_forward                             0.432443         836
 fornlr                                  0.430486           1
 m_alltoallv_z                           0.417480         955
 w1_daxpy                                0.376885       69964
 w1_dot                                  0.323230       11704
 potlok                                  0.293989          22
 orth1                                   0.273210       23556
 overl_mu                                0.254623       16566
 vhamil                                  0.253272       58367
 map_backward                            0.250858         906
 pw_charge                               0.237060        9152
 depsum                                  0.201967          20
 zhegv                                   0.197469       23278
 overl                                   0.190964       22466
 m_bcast_z                               0.189049        8860
 i1                                      0.166558       10170
 choleski                                0.137428        1120
 map_gather                              0.131309         955
 rspher_all                              0.128874          14
 map_scatter                             0.126069         955
 acc_cufft_makeplans                     0.123908           3
 acc_cufft_makeplan                      0.123896          19
 proall                                  0.122948           1
 m_bcast_d                               0.103555       12841
 ggemm                                   0.082783        8076
 brmix                                   0.051320          20
 lincom                                  0.048715        2464
 sphpro_fast                             0.044049           2
 broyd                                   0.029914          20
 fft_gq                                  0.020645          20
 setg0                                   0.009322          22
 inisym                                  0.004778           1
 truncate_high_frequency_w1              0.004555       61447
 brget                                   0.002713        1124
 pothar                                  0.002366          23
 stufak                                  0.001907           1
 forhar                                  0.001298           2
 strelo                                  0.001165           1
 strehar                                 0.000864           1
 forloc                                  0.000751           1
 chggra                                  0.000739           1
 brsav                                   0.000726         293
 fewald                                  0.000594           1
 strkin                                  0.000339           1
 brpre                                   0.000335          40
 brgrid                                  0.000108           1
 set_dd_magatom                          0.000099          22
 shift_bands_between_low_high            0.000099        1064
 vectorpot                               0.000093          21
 rsp                                     0.000048           1
 posmap                                  0.000035           2
 crpa_reader                             0.000028           1
 rcp                                     0.000011           1
 potlok_metagga                          0.000001          21
 rotate_active_occupied_orbital          0.000000           1
 redis_pw_over_bands                     0.000000           1

Profiling took   0.256177  0.167131  0.003375  0.003290 seconds
Profiling took   0.203108 seconds