 vasp.6.3.2 27Jun22 (build Jul  3 2023 11:46:21) complex
 executed on    LinuxNV_CrayMPICH date 2024.04.20  18:48:11

 INCAR:
   ALGO = Normal
   EDIFF = 1e-05
   ENCUT = 520.0
   IBRION = -1
   ISIF = 3
   ISMEAR = -5
   ISPIN = 2
   LAECHG = True
   LASPH = True
   LCHARG = True
   LORBIT = 11
   LREAL = Auto
   LVHAR = True
   LWAVE = False
   MAGMOM = 1*7.0 16*0.6
   NELM = 1000
   NSW = 0
   PREC = Accurate
   SIGMA = 0.05

 POTCAR:    PAW_PBE Eu 23Dec2003
 POTCAR:    PAW_PBE Sb 06Sep2000
 POTCAR:    PAW_PBE Ru_pv 28Jan2005
 POTCAR:    PAW_PBE Eu 23Dec2003
   VRHFIN =Eu : [core=Kr4d]

   TITEL  = PAW_PBE Eu 23Dec2003
   POMASS =  151.965; ZVAL   =   17.000    mass and valenz
   ENMAX  =  249.668; ENMIN  =  187.251 eV

   TITEL  = PAW_PBE Sb 06Sep2000
   POMASS =  121.750; ZVAL   =    5.000    mass and valenz
   ENMAX  =  172.069; ENMIN  =  129.052 eV

   TITEL  = PAW_PBE Ru_pv 28Jan2005
   POMASS =  101.070; ZVAL   =   14.000    mass and valenz
   ENMAX  =  240.049; ENMIN  =  180.037 eV

 Optimization of the real space projectors (new method)

 maximal supplied QI-value         = 13.42
 optimisation between [QCUT,QGAM] = [ 11.67, 23.35] = [ 38.16,152.62] Ry
 Optimized for a Real-space Cutoff    1.63 Angstroem

   l    n(q)    QCUT    max X(q) W(low)/X(q) W(high)/X(q)  e(spline)
   0     11    11.673    10.400    0.14E-04    0.18E-05    0.24E-07
   0     11    11.673    10.768    0.21E-04    0.32E-05    0.49E-07
   1     11    11.673     4.094    0.40E-05    0.13E-04    0.93E-07
   1     11    11.673     4.009    0.11E-04    0.46E-04    0.33E-06
   2     10    11.673    29.030    0.79E-04    0.60E-04    0.70E-06
   2     10    11.673    19.941    0.80E-04    0.60E-04    0.71E-06
   3     10    11.673    88.889    0.23E-03    0.29E-03    0.30E-06
   3     10    11.673    76.102    0.23E-03    0.30E-03    0.30E-06
 Optimization of the real space projectors (new method)

[...]

   l    n(q)    QCUT    max X(q) W(low)/X(q) W(high)/X(q)  e(spline)
   0      9    11.539    19.000    0.40E-04    0.50E-04    0.84E-07
   0      9    11.539     9.057    0.48E-04    0.60E-04    0.10E-06
   1      9    11.539   125.345    0.24E-03    0.13E-04    0.15E-06
   1      9    11.539    79.963    0.24E-03    0.12E-04    0.14E-06
   2      9    11.539     6.963    0.31E-04    0.10E-03    0.57E-07
 Optimization of the real space projectors (new method)

 maximal supplied QI-value         = 15.12
 optimisation between [QCUT,QGAM] = [ 11.64, 23.28] = [ 37.95,151.78] Ry
 Optimized for a Real-space Cutoff    1.49 Angstroem

   l    n(q)    QCUT    max X(q) W(low)/X(q) W(high)/X(q)  e(spline)
   1     10    11.641     3.180    0.30E-04    0.36E-05    0.54E-07
   1     10    11.641     5.351    0.12E-03    0.51E-04    0.30E-06
   2      9    11.641    66.565    0.22E-03    0.78E-04    0.20E-06
   2      9    11.641    63.466    0.22E-03    0.79E-04    0.20E-06
   0     10    11.641    85.644    0.61E-04    0.23E-04    0.12E-06
   0     10    11.641    44.119    0.56E-04    0.21E-04    0.11E-06
  PAW_PBE Eu 23Dec2003                  :
  PAW_PBE Sb 06Sep2000                  :
  PAW_PBE Ru_pv 28Jan2005               :

 POSCAR: Eu1 Sb12 Ru4
  positions in direct lattice
 exchange correlation table for  LEXCH =        8
   RHO(1)=    0.500       N(1)  =     2000
   RHO(2)=  100.500       N(2)  =     4000

 VTST: version 4.2, (08/11/21)

 CHAIN: initializing optimizer

 OPT: Using VASP Dynamics algorithm
 CHAIN: Read ICHAIN             0

 POSCAR: Eu1 Sb12 Ru4
  positions in direct lattice

 ion  position               nearest neighbor table
   1  0.000  0.000  0.000-  10 3.54  11 3.54   3 3.54   4 3.54   8 3.54   2 3.54   6 3.54   9 3.54
                            13 3.54   7 3.54   5 3.54  12 3.54
   2  0.659  0.841  0.500-  14 2.65  15 2.65  12 2.99  13 2.99   4 3.54   5 3.54  10 3.54  11 3.54
                             1 3.54
   3  0.341  0.159  0.500-  14 2.65  15 2.65  13 2.99  12 2.99   6 3.54   7 3.54   8 3.54   9 3.54
                             1 3.54
   4  0.841  0.182  0.341-  15 2.65  16 2.65   6 2.99  11 2.99  12 3.54   2 3.54   7 3.54  10 3.54
                             1 3.54
   5  0.818  0.659  0.159-  15 2.65  17 2.65  10 2.99   9 2.99  11 3.54  13 3.54   2 3.54   8 3.54
                             1 3.54
   6  0.841  0.500  0.659-  14 2.65  17 2.65   4 2.99   8 2.99  10 3.54  13 3.54   7 3.54   3 3.54
                             1 3.54
   7  0.182  0.341  0.841-  15 2.65  17 2.65   9 2.99  10 2.99   4 3.54  12 3.54   6 3.54   3 3.54
                             1 3.54
   8  0.159  0.818  0.659-  15 2.65  16 2.65  11 2.99   6 2.99  13 3.54   5 3.54   3 3.54   9 3.54
                             1 3.54
   9  0.500  0.659  0.841-  14 2.65  16 2.65   7 2.99   5 2.99  12 3.54   3 3.54  11 3.54   8 3.54
                             1 3.54
  10  0.500  0.341  0.159-  14 2.65  16 2.65   5 2.99   7 2.99  13 3.54   6 3.54   2 3.54   4 3.54
                             1 3.54
  11  0.159  0.500  0.341-  14 2.65  17 2.65   8 2.99   4 2.99   9 3.54  12 3.54   5 3.54   2 3.54
                             1 3.54
  12  0.341  0.841  0.182-  17 2.65  16 2.65   2 2.99   3 2.99   4 3.54  11 3.54   7 3.54   9 3.54
                             1 3.54
  13  0.659  0.159  0.818-  17 2.65  16 2.65   3 2.99   2 2.99   8 3.54  10 3.54   6 3.54   5 3.54
                             1 3.54
  14  0.500  0.500  0.500-   2 2.65   3 2.65   6 2.65   9 2.65  10 2.65  11 2.65
  15  0.000  0.000  0.500-   2 2.65   3 2.65   4 2.65   5 2.65   7 2.65   8 2.65
  16  0.500  0.000  0.000-   4 2.65   8 2.65   9 2.65  10 2.65  12 2.65  13 2.65
  17  0.000  0.500  0.000-  12 2.65  13 2.65   7 2.65  11 2.65   5 2.65   6 2.65

  LATTYP: Found a body centered cubic cell.
 ALAT       =     9.4070200000

  Lattice vectors:

 A1 = (  -4.7035100000,   4.7035100000,   4.7035100000)
 A2 = (   4.7035100000,  -4.7035100000,   4.7035100000)
 A3 = (   4.7035100000,   4.7035100000,  -4.7035100000)

Analysis of symmetry for initial positions (statically):
 Subroutine PRICEL returns:
 Original cell was already a primitive cell.

 Routine SETGRP: Setting up the symmetry group for a
 body centered cubic supercell.

 Subroutine GETGRP returns: Found 24 space group operations
 (whereof 24 operations were pure point group operations)
 out of a pool of 48 trial point group operations.

The static configuration has the point symmetry T_h .

Analysis of symmetry for dynamics (positions and initial velocities):
 Subroutine PRICEL returns:
 Original cell was already a primitive cell.

[...]

The dynamic configuration has the point symmetry T_h .

Analysis of structural, dynamic, and magnetic symmetry:
 Subroutine PRICEL returns:
 Original cell was already a primitive cell.

 Routine SETGRP: Setting up the symmetry group for a
 body centered cubic supercell.

 Subroutine GETGRP returns: Found 24 space group operations
 (whereof 24 operations were pure point group operations)
 out of a pool of 48 trial point group operations.

The overall configuration has the point symmetry T_h .

 Subroutine INISYM returns: Found 24 space group operations
 (whereof 24 operations are pure point group operations),
 and found     1 'primitive' translations

                                     Primitive cell

  volume of cell :     416.2231

  direct lattice vectors                    reciprocal lattice vectors
    -4.703510000  4.703510000  4.703510000     0.000000000  0.106303590  0.106303590
     4.703510000 -4.703510000  4.703510000     0.106303590  0.000000000  0.106303590
     4.703510000  4.703510000 -4.703510000     0.106303590  0.106303590  0.000000000

  length of vectors
     8.146718294  8.146718294  8.146718294     0.150335979  0.150335979  0.150335979

  position of ions in fractional coordinates (direct lattice)
     0.000000000  0.000000000  0.000000000
     0.658706000  0.841138000  0.499844000
     0.341294000  0.158862000  0.500156000
     0.841138000  0.182432000  0.341294000
     0.817568000  0.658706000  0.158862000
     0.841138000  0.499844000  0.658706000
     0.182432000  0.341294000  0.841138000
     0.158862000  0.817568000  0.658706000
     0.499844000  0.658706000  0.841138000
     0.500156000  0.341294000  0.158862000
     0.158862000  0.500156000  0.341294000
     0.341294000  0.841138000  0.182432000
     0.658706000  0.158862000  0.817568000
     0.500000000  0.500000000  0.500000000
     0.000000000  0.000000000  0.500000000
     0.500000000  1.000000000  1.000000000
     1.000000000  0.500000000  0.000000000

  ion indices of the primitive-cell ions
   primitive index   ion index
                 1           1
                 2           2
                 3           3
                 4           4
                 5           5
                 6           6
                 7           7
                 8           8
                 9           9
                10          10
                11          11
                12          12
                13          13
                14          14
                15          15
                16          16
                17          17

 KPOINTS: Kpoints from vasprun.xml

Automatic generation of k-mesh.
 Grid dimensions read from file:
 generate k-points for:    3    3    3

 Generating k-lattice:

  Cartesian coordinates                     Fractional coordinates (reciprocal lattice)
     0.000000000  0.035434530  0.035434530     0.333333333 -0.000000000  0.000000000
     0.035434530  0.000000000  0.035434530    -0.000000000  0.333333333  0.000000000
     0.035434530  0.035434530  0.000000000    -0.000000000  0.000000000  0.333333333

  Length of vectors
     0.050111993  0.050111993  0.050111993

  Shift w.r.t. Gamma in fractional coordinates (k-lattice)
     0.000000000  0.000000000  0.000000000

 TETIRR: Found     17 inequivalent tetrahedra from      162

 Subroutine IBZKPT returns following result:

 Found      4 irreducible k-points:

 Following reciprocal coordinates:
            Coordinates               Weight
  0.000000  0.000000  0.000000      1.000000
  0.333333  0.000000  0.000000     12.000000
  0.333333  0.333333  0.000000      8.000000
 -0.333333  0.333333  0.333333      6.000000

 Following cartesian coordinates:
            Coordinates               Weight
  0.000000  0.000000  0.000000      1.000000
  0.000000  0.035435  0.035435     12.000000
  0.035435  0.035435  0.070869      8.000000
  0.070869  0.000000  0.000000      6.000000

 SYSTEM =  unknown system
 POSCAR =  Eu1 Sb12 Ru4

 Startparameter for this run:
   NWRITE =      2    write-flag & timer
   PREC   = accura    normal or accurate (medium, high low for compatibility)
   ISTART =      0    job   : 0-new  1-cont  2-samecut
   ICHARG =      2    charge: 1-file 2-atom 10-const
   ISPIN  =      2    spin polarized calculation?
   LNONCOLLINEAR =      F non collinear calculations
   LSORBIT =      F    spin-orbit coupling
   INIWAV =      1    electr: 0-lowe 1-rand  2-diag
   LASPH  =      T    aspherical Exc in radial PAW
 Electronic Relaxation 1
   ENCUT  =  520.0 eV  38.22 Ry    6.18 a.u.  15.15 15.15 15.15*2*pi/ulx,y,z
   ENINI  =  520.0     initial cutoff
[...]
  239          fft3d_mpi                             0.000624                          3   4
  240            fftbrc_mpi                            0.000506                        3   5
  241              fftbas_plan_mpi                       0.000503                      3   6
  242                map_forward                           0.000295                    4   7
  243                  map_gather                            0.000048                  2   8
  244                  m_alltoallv_z                         0.000025                  2   8
  245                  map_scatter                           0.000187                  2   8
  246                map_backward                          0.000119                    2   7
  247                  map_gather                            0.000027                  1   8
  248                  m_alltoallv_z                         0.000012                  1   8
  249                  map_scatter                           0.000064                  1   8
  250          m_sumb_d                              0.000009                          2   4
  251          pothar                                0.000088                          1   4
  252            m_sumb_d                              0.000008                        1   5
  253        brmix                                 0.008127                            1   3
  254          m_sumb_d                              0.000035                          6   4
  255          brpre                                 0.000043                          2   4
  256          setg0                                 0.001839                          1   4
  257          broyd                                 0.003976                          1   4
  258            m_sumb_d                              0.000391                       30   5
  259            brget                                 0.001091                      124   5
  260            brsav                                 0.000238                       28   5
  261        m_bcast_d                             0.000049                            2   3
  262      potlok                                0.062340                              2   2
  263        fft3d_mpi                             0.041137                           36   3
  264          fftbrc_mpi                            0.031993                         36   4
  265            fftbas_plan_mpi                       0.031975                       36   5
  266              map_forward                           0.009610                     40   6
  267                map_gather                            0.002760                   24   7
  268                m_alltoallv_z                         0.004046                   24   7
  269                map_scatter                           0.002588                   24   7
  270              map_backward                          0.007656                     32   6
  271                map_gather                            0.002689                   16   7
  272                m_alltoallv_z                         0.002540                   16   7
  273                map_scatter                           0.002225                   16   7
  274              dfftw_execute                         0.013221                     30   6
  275        m_sumb_d                              0.000022                            5   3
  276        pothar                                0.002544                            2   3
  277          m_sumb_d                              0.000040                          2   4
  278        m_bcast_d                             0.004349                            4   3
  279      potlok_metagga                        0.000000                              1   2
  280      set_dd_magatom                        0.000004                              1   2
  281      set_dd_paw                            2.830486                              1   2
  282        m_sumb_d                              0.946415                            7   3
  283      augmentation_charge                   0.027350                              1   2
  284        fft3d_mpi                             0.007483                            2   3
  285          fftbrc_mpi                            0.006302                          2   4
  286            fftbas_plan_mpi                       0.006300                        2   5
  287              dfftw_execute                         0.002980                      6   6
  288              map_backward                          0.003136                      4   6
  289                map_gather                            0.001031                    2   7
  290                m_alltoallv_z                         0.001340                    2   7
  291                map_scatter                           0.000764                    2   7
  292      densta                                0.321594                              1   2

 Flat profile

 set_dd_paw                             49.168682          26
 m_sumb_d                               26.913352       28580
 total_time                             12.954688           1
 init_acc                               10.467536           1
 raccmu_                                 4.806013        8521
 eddav                                   4.481180          28
 lapack                                  3.879726        8521
 acc_init_cublas                         3.380231           1
 redis_pw                                1.998774       46662
 phaser                                  1.258265         276
 acc_init_cusolver                       1.065005           1
 m_alltoall_d                            0.990825      125102
 setdij_                                 0.864750          52
 densta                                  0.650982          29
 fft3d_mpi                               0.580766       17841
 eccp                                    0.540341        4928
 set_charge                              0.509332          24
 augmentation_charge                     0.495561          25
 orth1                                   0.489285       25587
 redis_proj                              0.402014       58784
 fft3d                                   0.380330       51762
 fftwav                                  0.357531       34720
 rpromu_acc                              0.322585        6681
 hamiltmu                                0.273639        8521
 rspher_all                              0.260913          14
 m_bcast_z                               0.252462        9225
 racc0mu_acc                             0.250658        8521
 overl                                   0.248286       29164
 w1_copy                                 0.246680       51126
 acc_cufft_makeplan                      0.232756          19
 soft_charge                             0.223127          24
 m_alltoallv_z                           0.185543         899
 setup_precond                           0.180673        4928
 potlok                                  0.177974          26
 m_bcast_d                               0.141602       17099
 overl_mu                                0.133431        8521
 rpro_isp                                0.132227          52
 dfftw_execute                           0.128563         372
 pw_charge                               0.117349        3276
 ggemm                                   0.115900       10985
 newband                                 0.107150        8745
 map_scatter                             0.101094         899
 vhamil                                  0.078504       17042
 kinhamil                                0.078321       17042
 fftext_mpi                              0.072645       17042
 elmin                                   0.070299           1
 depsum                                  0.069489          24
 map_gather                              0.068937         899
 apply_precond                           0.066133       12114
 brmix                                   0.053132          24
 proall                                  0.051342           1
 fftwav_mpi                              0.049002       34720
 setg0                                   0.045542          26
 fftbas_plan_mpi                         0.034449         799
 sphpro_fast                             0.032016           2
 broyd                                   0.023793          24
 stufak                                  0.014025           1
 force_and_stress                        0.013241           1
 choleski                                0.013057           8
 brget                                   0.012450        1590
 lincom                                  0.009148         232
 orthch                                  0.006919           1
 w1_projall                              0.006195        6057
 map_forward                             0.005529         756
 map_backward                            0.005299         842
 inisym                                  0.005251           1
 pothar                                  0.004628          27
 forhar                                  0.003993           2
 brsav                                   0.003152         400
 strelo                                  0.003141           1
 fft_gq                                  0.002918          24
 strehar                                 0.002563           1
 forloc                                  0.002051           1
 truncate_high_frequency_w1              0.001885       21970
 strnlr                                  0.001458           1
 brpre                                   0.001126          48
 strkin                                  0.000615           1
 fornlr                                  0.000559           1
 rsp                                     0.000525           1
 fftbrc_mpi                              0.000424         799
 fewald                                  0.000364           1
 brgrid                                  0.000326           1
 chggra                                  0.000257           1
 set_dd_magatom                          0.000105          26
 vectorpot                               0.000104          25
 posmap                                  0.000103           2
 fordep                                  0.000092           1
 rcp                                     0.000029           1
 crpa_reader                             0.000028           1
 acc_cufft_makeplans                     0.000010           3
 redis_pw_over_bands                     0.000001           1
 rotate_active_occupied_orbital          0.000000           1
 potlok_metagga                          0.000000          25
  summed up times     131.3829560279846

 Accumulative profile

 total_time                            131.382956           1
 elmin                                  95.034227           1
 set_dd_paw                             73.415061          26
 m_sumb_d                               26.913352       28580
 eddav                                  23.557265          28
 init_acc                               10.467536           1
 hamiltmu                                5.819631        8521
 raccmu_                                 5.190102        8521
 force_and_stress                        4.200220           1
 lapack                                  3.879726        8521
 acc_init_cublas                         3.380231           1
 set_charge                              2.449366          24
 redis_pw                                2.440750       46662
 phaser                                  1.258265         276
 fft3d_mpi                               1.231944       17841
 newband                                 1.213017        8745
 soft_charge                             1.110783          24
 acc_init_cusolver                       1.065005           1
 m_alltoall_d                            0.990825      125102
 redis_proj                              0.950863       58784
 setdij_                                 0.877840          52
 augmentation_charge                     0.682813          25
 fftwav_mpi                              0.665524       34720
 densta                                  0.650982          29
 fftwav                                  0.616521       34720
 strnlr                                  0.596092           1
 fft_gq                                  0.553175          24
 eccp                                    0.540341        4928
 fftbrc_mpi                              0.529837         799
 fftbas_plan_mpi                         0.529413         799
 orth1                                   0.489285       25587
 potlok                                  0.485533          26
 fft3d                                   0.380330       51762
 rpro_isp                                0.348395          52
 orthch                                  0.336593           1
 rpromu_acc                              0.322585        6681
 kinhamil                                0.277385       17042
 rspher_all                              0.260913          14
 m_bcast_z                               0.252462        9225
 racc0mu_acc                             0.250658        8521
 overl                                   0.248286       29164
 w1_copy                                 0.246680       51126
 acc_cufft_makeplans                     0.232766           3
 acc_cufft_makeplan                      0.232756          19
 map_forward                             0.203543         756
 fornlr                                  0.201015           1
 fftext_mpi                              0.199064       17042
 m_alltoallv_z                           0.185543         899
 w1_projall                              0.183231        6057
 setup_precond                           0.180673        4928
 map_backward                            0.162859         842
 brmix                                   0.146855          24
 m_bcast_d                               0.141602       17099
 overl_mu                                0.133431        8521
 dfftw_execute                           0.128563         372
 pw_charge                               0.117349        3276
 ggemm                                   0.115900       10985
 fordep                                  0.101855           1
 map_scatter                             0.101094         899
 depsum                                  0.087723          24
 proall                                  0.081062           1
 vhamil                                  0.078504       17042
 map_gather                              0.068937         899
 apply_precond                           0.066133       12114
 setg0                                   0.045542          26
 broyd                                   0.045205          24
 sphpro_fast                             0.033270           2
 stufak                                  0.014025           1
 choleski                                0.013057           8
 brget                                   0.012450        1590
 lincom                                  0.009148         232
 inisym                                  0.005354           1
 pothar                                  0.004912          27
 forhar                                  0.004059           2
 strelo                                  0.003228           1
 brsav                                   0.003152         400
 strehar                                 0.002566           1
 forloc                                  0.002118           1
 truncate_high_frequency_w1              0.001885       21970
 brpre                                   0.001126          48
 fewald                                  0.001017           1
 chggra                                  0.000978           1
 strkin                                  0.000626           1
 rsp                                     0.000525           1
 brgrid                                  0.000326           1
 set_dd_magatom                          0.000105          26
 vectorpot                               0.000104          25
 posmap                                  0.000103           2
 rcp                                     0.000029           1
 crpa_reader                             0.000028           1
 redis_pw_over_bands                     0.000001           1
 rotate_active_occupied_orbital          0.000000           1
 potlok_metagga                          0.000000          25

Profiling took   0.113027  0.057178  0.003503  0.003441 seconds
Profiling took   0.070556 seconds