 vasp.6.3.2 27Jun22 (build Jul  3 2023 11:46:21) complex
 executed on    LinuxNV_CrayMPICH date 2024.04.21  21:59:48

 INCAR:
   ALGO = Normal
   EDIFF = 0.0012
   ENCUT = 520.0
   IBRION = -1
   ISIF = 3
   ISMEAR = -5
   ISPIN = 2
   KPAR = 8
   LAECHG = True
   LASPH = True
   LCHARG = True
   LORBIT = 11
   LREAL = Auto
   LVHAR = True
   LWAVE = False
   MAGMOM = 2*7.0 4*0.6 18*5.0
   NELM = 1000
   NPAR = 4
   NSW = 0
   PREC = Accurate
   SIGMA = 0.05

 POTCAR:    PAW_PBE Eu 23Dec2003
 POTCAR:    PAW_PBE In_d 06Sep2000
 POTCAR:    PAW_PBE Ni_pv 06Sep2000
 POTCAR:    PAW_PBE Eu 23Dec2003
   VRHFIN =Eu : [core=Kr4d]

   TITEL  = PAW_PBE Eu 23Dec2003
   POMASS =  151.965; ZVAL   =   17.000    mass and valenz
   ENMAX  =  249.668; ENMIN  =  187.251 eV

   TITEL  = PAW_PBE In_d 06Sep2000
   POMASS =  114.820; ZVAL   =   13.000    mass and valenz
   ENMAX  =  239.211; ENMIN  =  179.409 eV

   TITEL  = PAW_PBE Ni_pv 06Sep2000
   POMASS =   58.690; ZVAL   =   16.000    mass and valenz
   ENMAX  =  367.986; ENMIN  =  275.989 eV

 Optimization of the real space projectors (new method)

 maximal supplied QI-value         = 13.42
 optimisation between [QCUT,QGAM] = [ 11.67, 23.35] = [ 38.16,152.62] Ry
 Optimized for a Real-space Cutoff    1.63 Angstroem

   l    n(q)    QCUT    max X(q) W(low)/X(q) W(high)/X(q)  e(spline)
   0     11    11.673    10.400    0.14E-04    0.18E-05    0.24E-07
   0     11    11.673    10.768    0.21E-04    0.32E-05    0.49E-07
   1     11    11.673     4.094    0.40E-05    0.13E-04    0.93E-07
   1     11    11.673     4.009    0.11E-04    0.46E-04    0.33E-06
   2     10    11.673    29.030    0.79E-04    0.60E-04    0.70E-06
   2     10    11.673    19.941    0.80E-04    0.60E-04    0.71E-06
   3     10    11.673    88.889    0.23E-03    0.29E-03    0.30E-06
   3     10    11.673    76.102    0.23E-03    0.30E-03    0.30E-06
 Optimization of the real space projectors (new method)

[...]

   l    n(q)    QCUT    max X(q) W(low)/X(q) W(high)/X(q)  e(spline)
   2      9    11.641     4.551    0.57E-04    0.17E-03    0.81E-07
   2      9    11.641     8.525    0.12E-03    0.33E-04    0.17E-06
   0      9    11.641   208.283    0.14E-03    0.45E-04    0.94E-07
   0      9    11.641   161.407    0.13E-03    0.44E-04    0.93E-07
   1      9    11.641   122.126    0.23E-03    0.20E-03    0.21E-06
   1      9    11.641    62.412    0.22E-03    0.19E-03    0.20E-06
 Optimization of the real space projectors (new method)

 maximal supplied QI-value         = 18.90
 optimisation between [QCUT,QGAM] = [ 11.53, 23.24] = [ 37.21,151.29] Ry
 Optimized for a Real-space Cutoff    1.36 Angstroem

   l    n(q)    QCUT    max X(q) W(low)/X(q) W(high)/X(q)  e(spline)
   1      9    11.527     2.836    0.16E-04    0.30E-04    0.95E-07
   1      9    11.527     4.023    0.73E-04    0.81E-04    0.21E-06
   2      9    11.527    73.368    0.15E-03    0.29E-03    0.28E-06
   2      9    11.527    69.010    0.15E-03    0.29E-03    0.29E-06
   0      9    11.527    54.797    0.43E-04    0.28E-04    0.85E-07
   0      9    11.527    24.266    0.33E-04    0.24E-04    0.75E-07
  PAW_PBE Eu 23Dec2003                  :
  PAW_PBE In_d 06Sep2000                :
  PAW_PBE Ni_pv 06Sep2000               :

 POSCAR: Eu2 In4 Ni18
  positions in direct lattice
 exchange correlation table for  LEXCH =        8
   RHO(1)=    0.500       N(1)  =     2000
   RHO(2)=  100.500       N(2)  =     4000

 VTST: version 4.2, (08/11/21)

 CHAIN: initializing optimizer

 OPT: Using VASP Dynamics algorithm
 CHAIN: Read ICHAIN             0

 POSCAR: Eu2 In4 Ni18
  positions in direct lattice

 ion  position               nearest neighbor table
   1  0.500  0.500  0.000-   3 3.29   4 3.29   5 3.29   6 3.29
   2  0.000  0.000  0.000-   3 3.29   4 3.29   5 3.29   6 3.29
   3  0.625  0.125  0.000-   8 2.64  11 2.64  10 2.82   9 2.82  13 2.82  14 2.82  17 2.85  19 2.85
                            17 2.85  19 2.85  24 2.85  24 2.85   4 2.93   2 3.29   1 3.29
   4  0.375  0.875  0.000-   7 2.64  12 2.64  10 2.82   9 2.82  13 2.82  14 2.82  18 2.85  20 2.85
                            18 2.85  20 2.85  24 2.85  24 2.85   3 2.93   2 3.29   1 3.29
   5  0.875  0.625  0.000-  10 2.64  13 2.64   7 2.82  11 2.82  12 2.82   8 2.82  15 2.85  22 2.85
                            15 2.85  22 2.85  23 2.85  23 2.85   6 2.93   2 3.29   1 3.29
   6  0.125  0.375  0.000-   9 2.64  14 2.64   7 2.82  11 2.82  12 2.82   8 2.82  16 2.85  21 2.85
                            16 2.85  21 2.85  23 2.85  23 2.85   5 2.93   2 3.29   1 3.29
   7  0.176  0.676  0.750-  23 2.41  12 2.44  12 2.44  20 2.49  18 2.49  22 2.53  16 2.53   4 2.64
                             5 2.82   6 2.82
   8  0.824  0.324  0.750-  23 2.41  11 2.44  11 2.44  19 2.49  17 2.49  21 2.53  15 2.53   3 2.64
                             5 2.82   6 2.82
   9  0.324  0.176  0.750-  24 2.41  14 2.44  14 2.44  21 2.49  16 2.49  18 2.53  19 2.53   6 2.64
                             4 2.82   3 2.82
  10  0.676  0.824  0.750-  24 2.41  13 2.44  13 2.44  22 2.49  15 2.49  17 2.53  20 2.53   5 2.64
                             4 2.82   3 2.82
  11  0.824  0.324  0.250-  23 2.41   8 2.44   8 2.44  17 2.49  19 2.49  15 2.53  21 2.53   3 2.64
                             6 2.82   5 2.82
  12  0.176  0.676  0.250-  23 2.41   7 2.44   7 2.44  18 2.49  20 2.49  16 2.53  22 2.53   4 2.64
                             6 2.82   5 2.82
  13  0.676  0.824  0.250-  24 2.41  10 2.44  10 2.44  15 2.49  22 2.49  20 2.53  17 2.53   5 2.64
                             3 2.82   4 2.82
  14  0.324  0.176  0.250-  24 2.41   9 2.44   9 2.44  16 2.49  21 2.49  19 2.53  18 2.53   6 2.64
                             3 2.82   4 2.82
  15  0.710  0.565  0.500-  23 2.47  13 2.49  10 2.49   8 2.53  11 2.53   5 2.85   5 2.85
  16  0.290  0.435  0.500-  23 2.47  14 2.49   9 2.49   7 2.53  12 2.53   6 2.85   6 2.85
  17  0.790  0.065  0.500-  24 2.47  11 2.49   8 2.49  13 2.53  10 2.53   3 2.85   3 2.85
  18  0.210  0.935  0.500-  24 2.47  12 2.49   7 2.49  14 2.53   9 2.53   4 2.85   4 2.85
  19  0.565  0.290  0.500-  24 2.47  11 2.49   8 2.49  14 2.53   9 2.53   3 2.85   3 2.85
  20  0.435  0.710  0.500-  24 2.47  12 2.49   7 2.49  13 2.53  10 2.53   4 2.85   4 2.85
  21  0.065  0.210  0.500-  23 2.47  14 2.49   9 2.49   8 2.53  11 2.53   6 2.85   6 2.85
  22  0.935  0.790  0.500-  23 2.47  13 2.49  10 2.49   7 2.53  12 2.53   5 2.85   5 2.85
  23  0.000  0.500  0.500-   7 2.41   8 2.41  11 2.41  12 2.41  15 2.47  16 2.47  21 2.47  22 2.47
                             5 2.85   6 2.85   5 2.85   6 2.85
  24  0.500  0.000  0.500-   9 2.41  10 2.41  13 2.41  14 2.41  17 2.47  18 2.47  19 2.47  20 2.47
                             3 2.85   4 2.85   3 2.85   4 2.85

  LATTYP: Found a simple tetragonal cell.
 ALAT       =     8.3176130000
 C/A-ratio  =     0.5869491644

  Lattice vectors:

 A1 = (   8.3176130000,   0.0000000000,   0.0000000000)
 A2 = (   0.0000000000,   8.3176130000,   0.0000000000)
 A3 = (   0.0000000000,   0.0000000000,   4.8820160000)

Analysis of symmetry for initial positions (statically):
 Subroutine PRICEL returns:
 Original cell was already a primitive cell.

 Routine SETGRP: Setting up the symmetry group for a
 simple tetragonal supercell.

 Subroutine GETGRP returns: Found 16 space group operations
 (whereof  8 operations were pure point group operations)
 out of a pool of 16 trial point group operations.

The static configuration has the point symmetry C_4h.
 The point group associated with its full space group is D_4h.

Analysis of symmetry for dynamics (positions and initial velocities):
 Subroutine PRICEL returns:
 Original cell was already a primitive cell.

[...]

The dynamic configuration has the point symmetry C_4h.
 The point group associated with its full space group is D_4h.

Analysis of structural, dynamic, and magnetic symmetry:
 Subroutine PRICEL returns:
 Original cell was already a primitive cell.

 Routine SETGRP: Setting up the symmetry group for a
 simple tetragonal supercell.

 Subroutine GETGRP returns: Found 16 space group operations
 (whereof  8 operations were pure point group operations)
 out of a pool of 16 trial point group operations.

The overall configuration has the point symmetry C_4h.
 The point group associated with its full space group is D_4h.

 Subroutine INISYM returns: Found 16 space group operations
 (whereof  8 operations are pure point group operations),
 and found     1 'primitive' translations

                                     Primitive cell

  volume of cell :     337.7510

  direct lattice vectors                    reciprocal lattice vectors
     8.317613000  0.000000000  0.000000000     0.120226801  0.000000000  0.000000000
     0.000000000  8.317613000  0.000000000     0.000000000  0.120226801  0.000000000
     0.000000000  0.000000000  4.882016000     0.000000000  0.000000000  0.204833413

  length of vectors
     8.317613000  8.317613000  4.882016000     0.120226801  0.120226801  0.204833413

  position of ions in fractional coordinates (direct lattice)
     0.500000000  0.500000000  0.000000000
     0.000000000  0.000000000  0.000000000
     0.624582000  0.124582000  0.000000000
     0.375418000  0.875418000  0.000000000
     0.875418000  0.624582000  0.000000000
     0.124582000  0.375418000  0.000000000
     0.176408000  0.676408000  0.749856000
     0.823592000  0.323592000  0.749856000
     0.323592000  0.176408000  0.749856000
     0.676408000  0.823592000  0.749856000
     0.823592000  0.323592000  0.250144000
     0.176408000  0.676408000  0.250144000
     0.676408000  0.823592000  0.250144000
     0.323592000  0.176408000  0.250144000
     0.709912000  0.565060000  0.500000000
     0.290088000  0.434940000  0.500000000
     0.790088000  0.065060000  0.500000000
     0.209912000  0.934940000  0.500000000
     0.565060000  0.290088000  0.500000000
     0.434940000  0.709912000  0.500000000
     0.065060000  0.209912000  0.500000000
     0.934940000  0.790088000  0.500000000
     0.000000000  0.500000000  0.500000000
     0.500000000  0.000000000  0.500000000

  ion indices of the primitive-cell ions
   primitive index   ion index
                 1           1
                 2           2
                 3           3
                 4           4
                 5           5
                 6           6
                 7           7
                 8           8
                 9           9
                10          10
                11          11
                12          12
                13          13
                14          14
                15          15
                16          16
                17          17
                18          18
                19          19
                20          20
                21          21
                22          22
                23          23
                24          24

 KPOINTS: Kpoints from vasprun.xml

Automatic generation of k-mesh.
 Grid dimensions read from file:
 generate k-points for:    3    3    5

 Generating k-lattice:

  Cartesian coordinates                     Fractional coordinates (reciprocal lattice)
[...]
  173        strelo                                0.006622                            1   3
  174        strnlr                                2.425539                            1   3
  175          rspher_all                            0.177326                          9   4
  176          phaser                                0.107537                         27   4
  177          rpro_isp                              2.136106                         27   4
  178            fftwav_mpi                            0.465868                    14958   5
  179              fftwav                                0.447963                  14958   6
  180                fft3d                                 0.099557                14958   7
  181            rpromu_acc                            0.964819                     3780   5
  182          m_sumb_d                              0.000078                          9   4
  183        fft3d_mpi                             0.003670                           22   3
  184          fftbrc_mpi                            0.002573                         22   4
  185            fftbas_plan_mpi                       0.002566                       22   5
  186              map_forward                           0.000957                     20   6
  187                map_scatter                           0.000415                   10   7
  188              map_backward                          0.000996                     24   6
  189                map_gather                            0.000445                   12   7
  190        forhar                                0.008513                            2   3
  191        strehar                               0.005554                            1   3
  192        chggra                                0.000967                            1   3
  193          fft3d_mpi                             0.000529                          3   4
  194            fftbrc_mpi                            0.000377                        3   5
  195              fftbas_plan_mpi                       0.000375                      3   6
  196                map_forward                           0.000201                    4   7
  197                  map_scatter                           0.000085                  2   8
  198                map_backward                          0.000087                    2   7
  199                  map_gather                            0.000038                  1   8
  200          pothar                                0.000093                          1   4
  201        brmix                                 0.041296                            1   3
  202          brpre                                 0.000102                          2   4
  203          setg0                                 0.004126                          1   4
  204          broyd                                 0.029660                          1   4
  205            brget                                 0.008323                      326   5
  206            brsav                                 0.003874                      163   5
  207          m_bcast_z                             0.001811                          1   4
  208          m_bcast_d                             0.000029                          1   4
  209        m_bcast_d                             0.000039                            2   3
  210      potlok                                0.098721                              2   2
  211        fft3d_mpi                             0.060791                           36   3
  212          fftbrc_mpi                            0.047853                         36   4
  213            fftbas_plan_mpi                       0.047836                       36   5
  214              map_forward                           0.006960                     40   6
  215                map_scatter                           0.004591                   20   7
  216              map_backward                          0.005626                     32   6
  217                map_gather                            0.003805                   16   7
  218              dfftw_execute                         0.033555                     30   6
  219        pothar                                0.005860                            2   3
  220      potlok_metagga                        0.000000                              1   2
  221      set_dd_magatom                        0.000004                              1   2
  222      set_dd_paw                            3.271793                              1   2
  223        m_sumb_d                              0.450200                            7   3
  224      augmentation_charge                   0.053562                              1   2
  225        fft3d_mpi                             0.013765                            2   3
  226          fftbrc_mpi                            0.011203                          2   4
  227            fftbas_plan_mpi                       0.011201                        2   5
  228              dfftw_execute                         0.008392                      6   6
  229              map_backward                          0.002568                      4   6
  230                map_gather                            0.001780                    2   7
  231      densta                                7.148262                              1   2
  232        m_bcast_z                             0.000023                            1   3

 Flat profile

 set_dd_paw                            630.677672         223
 eddav                                 161.652964         225
 m_sumb_d                              102.575152        3147
 lapack                                 70.237230      146174
 raccmu_                                61.698917      146174
 densta                                 34.637487         226
 eccp                                   33.429158      373950
 fft3d                                  21.843816     3349677
 fftwav                                 19.967024     2199026
 w1_copy                                15.836602     3451953
 overl                                  15.170056     1927358
 total_time                             13.828111           1
 soft_charge                            13.527364         221
 setup_precond                          13.102373      373950
 augmentation_charge                     9.007909         222
 setdij_                                 8.815880         249
 racc0mu_acc                             7.940950      146174
 orth1                                   7.623765      438630
 pw_charge                               7.478230      250068
 init_acc                                6.838579           1
 rpromu_acc                              6.121255      104384
 depsum                                  6.071720         221
 phaser                                  5.367807        1389
 kinhamil                                4.917809     1150651
 hamiltmu                                4.699665      146174
 vhamil                                  4.680665     1150651
 fftext_mpi                              4.499568     1150651
 broyd                                   3.793728         221
 apply_precond                           3.777326      776701
 acc_init_cublas                         3.509881           1
 fftwav_mpi                              2.669486     2199026
 ggemm                                   2.623046      193424
 newband                                 2.567592      147524
 potlok                                  2.489380         223
 overl_mu                                2.282517      146174
 set_charge                              2.200528         221
 dfftw_execute                           2.192715        2736
 fft3d_mpi                               1.373518     1157360
 brget                                   1.223356       48095
 brmix                                   1.211570         221
 acc_init_cusolver                       1.029436           1
 rpro_isp                                1.000285          39
 setg0                                   0.942838         223
 elmin                                   0.712439           1
 map_gather                              0.544921        3573
 m_bcast_z                               0.483676         675
 brsav                                   0.340313       13741
 map_backward                            0.324738        7146
 rspher_all                              0.265238          14
 sphpro_fast                             0.245648           2
 fftbas_plan_mpi                         0.240453        6709
 acc_cufft_makeplan                      0.170563          19
 proall                                  0.169227           1
 map_forward                             0.167873        6272
 map_scatter                             0.132097        3136
 orthch                                  0.118474           1
 truncate_high_frequency_w1              0.113543     1524601
 lincom                                  0.099437        1356
 w1_projall                              0.096742       98924
 force_and_stress                        0.069348           1
 stufak                                  0.045036           1
 pothar                                  0.030385         224
 brpre                                   0.023593         442
 choleski                                0.023433           6
 fft_gq                                  0.018467         221
 forhar                                  0.008513           2
 m_bcast_d                               0.007853         228
 strelo                                  0.006622           1
 strehar                                 0.005554           1
 inisym                                  0.004642           1
 forloc                                  0.004578           1
 strnlr                                  0.004492           1
 fftbrc_mpi                              0.003122        6709
 strkin                                  0.002004           1
 fornlr                                  0.001496           1
 set_dd_magatom                          0.000947         223
 vectorpot                               0.000916         222
 brgrid                                  0.000591           1
 rsp                                     0.000591           1
 chggra                                  0.000345           1
 fewald                                  0.000333           1
 fordep                                  0.000152           1
 posmap                                  0.000076           2
 rcp                                     0.000035           1
 crpa_reader                             0.000027           1
 potlok_metagga                          0.000015         222
 acc_cufft_makeplans                     0.000010           3
 rotate_active_occupied_orbital          0.000000           1
 redis_pw_over_bands                     0.000000           1
  summed up times     1331.623487949371

 Accumulative profile

 total_time                           1331.623488           1
 elmin                                1286.842850           1
 set_dd_paw                            732.290874         223
 eddav                                 463.446300         225
 m_sumb_d                              102.575152        3147
 hamiltmu                               98.318368      146174
 raccmu_                                71.922384      146174
 lapack                                 70.237230      146174
 newband                                58.716427      147524
 set_charge                             50.115529         221
 fftwav_mpi                             37.203036     2199026
 densta                                 34.640723         226
 fftwav                                 34.533550     2199026
 eccp                                   33.429158      373950
 soft_charge                            29.924287         221
 fft3d                                  21.843816     3349677
 kinhamil                               17.015653     1150651
 w1_copy                                15.836602     3451953
 overl                                  15.170056     1927358
 setup_precond                          13.102373      373950
 fft3d_mpi                              12.256729     1157360
 fftext_mpi                             12.097844     1150651
 augmentation_charge                    11.910285         222
 setdij_                                 8.815880         249
 brmix                                   8.018015         221
 racc0mu_acc                             7.940950      146174
 force_and_stress                        7.762118           1
 orth1                                   7.623765      438630
 pw_charge                               7.478230      250068
 init_acc                                6.838579           1
 depsum                                  6.133991         221
 rpromu_acc                              6.121255      104384
 phaser                                  5.367807        1389
 broyd                                   5.357398         221
 w1_projall                              4.904546       98924
 vhamil                                  4.680665     1150651
 apply_precond                           3.777326      776701
 fftbrc_mpi                              3.605921        6709
 fftbas_plan_mpi                         3.602798        6709
 potlok                                  3.556076         223
 acc_init_cublas                         3.509881           1
 rpro_isp                                3.014295          39
 ggemm                                   2.623046      193424
 strnlr                                  2.425539           1
 overl_mu                                2.282517      146174
 dfftw_execute                           2.192715        2736
 brget                                   1.223356       48095
 acc_init_cusolver                       1.029436           1
 setg0                                   0.942838         223
 map_backward                            0.869659        7146
 fornlr                                  0.816995           1
 fft_gq                                  0.624816         221
 map_gather                              0.544921        3573
 m_bcast_z                               0.483676         675
 proall                                  0.342205           1
 brsav                                   0.340313       13741
 map_forward                             0.299971        6272
 rspher_all                              0.265238          14
 sphpro_fast                             0.255663           2
 fordep                                  0.209064           1
 acc_cufft_makeplans                     0.170572           3
 acc_cufft_makeplan                      0.170563          19
 orthch                                  0.168042           1
 map_scatter                             0.132097        3136
 truncate_high_frequency_w1              0.113543     1524601
 lincom                                  0.099437        1356
 stufak                                  0.045036           1
 pothar                                  0.030385         224
 brpre                                   0.023593         442
 choleski                                0.023433           6
 forhar                                  0.008513           2
 m_bcast_d                               0.007853         228
 strelo                                  0.006622           1
 strehar                                 0.005554           1
 inisym                                  0.004718           1
 forloc                                  0.004578           1
 strkin                                  0.002009           1
 fewald                                  0.001070           1
 chggra                                  0.000967           1
 set_dd_magatom                          0.000947         223
 vectorpot                               0.000916         222
 brgrid                                  0.000591           1
 rsp                                     0.000591           1
 posmap                                  0.000076           2
 rcp                                     0.000035           1
 crpa_reader                             0.000027           1
 potlok_metagga                          0.000015         222
 rotate_active_occupied_orbital          0.000000           1
 redis_pw_over_bands                     0.000000           1

Profiling took   2.637406  1.673425  0.003185  0.003109 seconds
Profiling took   1.801999 seconds