 vasp.6.3.2 27Jun22 (build Jul  3 2023 11:46:21) complex
 executed on    LinuxNV_CrayMPICH date 2024.04.21  03:52:22

 INCAR:
   ADDGRID = True
   ALGO = Normal
   EDIFF = 0.0002
   ENCUT = 520.0
   IBRION = -1
   ICHARG = 0
   ISIF = 3
   ISMEAR = -5
   ISPIN = 2
   ISTART = 1
   KPOINT_BSE = -1 0 0 0
   LAECHG = True
   LASPH = True
   LCHARG = True
   LELF = True
   LORBIT = 11
   LREAL = Auto
   LVHAR = True
   LWAVE = False
   MAGMOM = 1*0.6 1*7.0 2*0.6
   NELM = 1000
   NSW = 0
   PREC = accurate
   SIGMA = 0.05

 POTCAR:    PAW_PBE Li_sv 10Sep2004
 POTCAR:    PAW_PBE Gd 23Dec2003
 POTCAR:    PAW_PBE In_d 06Sep2000
 POTCAR:    PAW_PBE Li_sv 10Sep2004
   VRHFIN =Li: 1s2s2p

   TITEL  = PAW_PBE Li_sv 10Sep2004
   POMASS =    7.010; ZVAL   =    3.000    mass and valenz
   ENMAX  =  499.034; ENMIN  =  374.276 eV

   TITEL  = PAW_PBE Gd 23Dec2003
   POMASS =  157.250; ZVAL   =   18.000    mass and valenz
   ENMAX  =  256.472; ENMIN  =  192.354 eV

   TITEL  = PAW_PBE In_d 06Sep2000
   POMASS =  114.820; ZVAL   =   13.000    mass and valenz
   ENMAX  =  239.211; ENMIN  =  179.409 eV

 Optimization of the real space projectors (new method)

 maximal supplied QI-value         = 22.11
 optimisation between [QCUT,QGAM] = [ 11.50, 23.22] = [ 37.02,150.92] Ry
 Optimized for a Real-space Cutoff    1.08 Angstroem

   l    n(q)    QCUT    max X(q) W(low)/X(q) W(high)/X(q)  e(spline)
   0      7    11.497    10.506    0.36E-04    0.62E-04    0.14E-07
   0      7    11.497     8.367    0.65E-04    0.14E-03    0.28E-07
   1      7    11.497     8.983    0.21E-03    0.43E-03    0.90E-07
 Optimization of the real space projectors (new method)

[...]

   l    n(q)    QCUT    max X(q) W(low)/X(q) W(high)/X(q)  e(spline)
   0     11    11.673    10.501    0.14E-04    0.17E-05    0.21E-07
   0     11    11.673     9.148    0.21E-04    0.32E-05    0.45E-07
   1     11    11.673     4.035    0.33E-05    0.11E-04    0.84E-07
   1     11    11.673     4.388    0.11E-04    0.47E-04    0.34E-06
   2     10    11.673    20.656    0.12E-04    0.28E-04    0.54E-06
   2     10    11.673    12.651    0.11E-04    0.26E-04    0.51E-06
   3     10    11.673    61.921    0.19E-03    0.22E-03    0.23E-06
   3     10    11.673    48.328    0.20E-03    0.23E-03    0.23E-06
 Optimization of the real space projectors (new method)

 maximal supplied QI-value         = 15.12
 optimisation between [QCUT,QGAM] = [ 11.64, 23.28] = [ 37.95,151.78] Ry
 Optimized for a Real-space Cutoff    1.36 Angstroem

   l    n(q)    QCUT    max X(q) W(low)/X(q) W(high)/X(q)  e(spline)
   2      9    11.641     4.551    0.57E-04    0.17E-03    0.81E-07
   2      9    11.641     8.525    0.12E-03    0.33E-04    0.17E-06
   0      9    11.641   208.283    0.14E-03    0.45E-04    0.94E-07
   0      9    11.641   161.407    0.13E-03    0.44E-04    0.93E-07
   1      9    11.641   122.126    0.23E-03    0.20E-03    0.21E-06
   1      9    11.641    62.412    0.22E-03    0.19E-03    0.20E-06
  PAW_PBE Li_sv 10Sep2004               :
  PAW_PBE Gd 23Dec2003                  :
  PAW_PBE In_d 06Sep2000                :

 POSCAR: Li1 Gd1 In2
  positions in direct lattice
 exchange correlation table for  LEXCH =        8
   RHO(1)=    0.500       N(1)  =     2000
   RHO(2)=  100.500       N(2)  =     4000

 VTST: version 4.2, (08/11/21)

 CHAIN: initializing optimizer

 OPT: Using VASP Dynamics algorithm
 CHAIN: Read ICHAIN             0

 POSCAR: Li1 Gd1 In2
  positions in direct lattice

 ion  position               nearest neighbor table
   1  0.000  0.000  0.000-   4 3.17   4 3.17   4 3.17   3 3.17   4 3.17   3 3.17   3 3.17   3 3.17

   2  0.500  0.500  0.500-   3 3.17   3 3.17   3 3.17   3 3.17   4 3.17   4 3.17   4 3.17   4 3.17

   3  0.250  0.250  0.250-   1 3.17   1 3.17   1 3.17   1 3.17   2 3.17   2 3.17   2 3.17   2 3.17
                             4 3.66   4 3.66   4 3.66   4 3.66   4 3.66   4 3.66
   4  0.750  0.750  0.750-   2 3.17   2 3.17   2 3.17   1 3.17   2 3.17   1 3.17   1 3.17   1 3.17
                             3 3.66   3 3.66   3 3.66   3 3.66   3 3.66   3 3.66

  LATTYP: Found a face centered cubic cell.
 ALAT       =     7.3209640000

  Lattice vectors:

 A1 = (   0.0000000000,   3.6604820000,   3.6604820000)
 A2 = (   3.6604820000,   0.0000000000,   3.6604820000)
 A3 = (   3.6604820000,   3.6604820000,   0.0000000000)

Analysis of symmetry for initial positions (statically):
 Subroutine PRICEL returns:
 Original cell was already a primitive cell.

 Routine SETGRP: Setting up the symmetry group for a
 face centered cubic supercell.

 Subroutine GETGRP returns: Found 48 space group operations
 (whereof 48 operations were pure point group operations)
 out of a pool of 48 trial point group operations.

The static configuration has the point symmetry O_h .

Analysis of symmetry for dynamics (positions and initial velocities):
 Subroutine PRICEL returns:
 Original cell was already a primitive cell.

[...]

The dynamic configuration has the point symmetry O_h .

Analysis of structural, dynamic, and magnetic symmetry:
 Subroutine PRICEL returns:
 Original cell was already a primitive cell.

 Routine SETGRP: Setting up the symmetry group for a
 face centered cubic supercell.

 Subroutine GETGRP returns: Found 48 space group operations
 (whereof 48 operations were pure point group operations)
 out of a pool of 48 trial point group operations.

The overall configuration has the point symmetry O_h .

 Subroutine INISYM returns: Found 48 space group operations
 (whereof 48 operations are pure point group operations),
 and found     1 'primitive' translations

                                     Primitive cell

  volume of cell :      98.0945

  direct lattice vectors                    reciprocal lattice vectors
     0.000000000  3.660482000  3.660482000    -0.136594033  0.136594033  0.136594033
     3.660482000  0.000000000  3.660482000     0.136594033 -0.136594033  0.136594033
     3.660482000  3.660482000  0.000000000     0.136594033  0.136594033 -0.136594033

  length of vectors
     5.176703289  5.176703289  5.176703289     0.236587806  0.236587806  0.236587806

  position of ions in fractional coordinates (direct lattice)
     0.000000000  0.000000000  0.000000000
     0.500000000  0.500000000  0.500000000
     0.250000000  0.250000000  0.250000000
     0.750000000  0.750000000  0.750000000

  ion indices of the primitive-cell ions
   primitive index   ion index
                 1           1
                 2           2
                 3           3
                 4           4

 KPOINTS: Kpoints from vasprun.xml

Automatic generation of k-mesh.
 Grid dimensions read from file:
 generate k-points for:    6    6    6

 Generating k-lattice:

  Cartesian coordinates                     Fractional coordinates (reciprocal lattice)
    -0.022765672  0.022765672  0.022765672     0.166666667  0.000000000  0.000000000
     0.022765672 -0.022765672  0.022765672     0.000000000  0.166666667 -0.000000000
     0.022765672  0.022765672 -0.022765672    -0.000000000 -0.000000000  0.166666667

  Length of vectors
     0.039431301  0.039431301  0.039431301

  Shift w.r.t. Gamma in fractional coordinates (k-lattice)
     0.000000000  0.000000000  0.000000000

 TETIRR: Found     35 inequivalent tetrahedra from     1296

 Subroutine IBZKPT returns following result:

 Found     16 irreducible k-points:

 Following reciprocal coordinates:
            Coordinates               Weight
  0.000000  0.000000  0.000000      1.000000
  0.166667  0.000000  0.000000      8.000000
  0.333333  0.000000  0.000000      8.000000
  0.500000  0.000000  0.000000      4.000000
  0.166667  0.166667  0.000000      6.000000
  0.333333  0.166667  0.000000     24.000000
  0.500000  0.166667  0.000000     24.000000
 -0.333333  0.166667  0.000000     24.000000
 -0.166667  0.166667  0.000000     12.000000
  0.333333  0.333333  0.000000      6.000000
  0.500000  0.333333  0.000000     24.000000
 -0.333333  0.333333  0.000000     12.000000
  0.500000  0.500000  0.000000      3.000000
  0.500000  0.333333  0.166667     24.000000
 -0.333333  0.333333  0.166667     24.000000
 -0.333333  0.500000  0.166667     12.000000

 Following cartesian coordinates:
            Coordinates               Weight
  0.000000  0.000000  0.000000      1.000000
 -0.022766  0.022766  0.022766      8.000000
 -0.045531  0.045531  0.045531      8.000000
 -0.068297  0.068297  0.068297      4.000000
  0.000000  0.000000  0.045531      6.000000
 -0.022766  0.022766  0.068297     24.000000
 -0.045531  0.045531  0.091063     24.000000
  0.068297 -0.068297 -0.022766     24.000000
  0.045531 -0.045531  0.000000     12.000000
  0.000000  0.000000  0.091063      6.000000
 -0.022766  0.022766  0.113828     24.000000
  0.091063 -0.091063  0.000000     12.000000
  0.000000  0.000000  0.136594      3.000000
  0.000000  0.045531  0.091063     24.000000
  0.113828 -0.068297 -0.022766     24.000000
  0.136594 -0.091063  0.000000     12.000000

 SYSTEM =  unknown system
 POSCAR =  Li1 Gd1 In2

 Startparameter for this run:
   NWRITE =      2    write-flag & timer
   PREC   = accura    normal or accurate (medium, high low for compatibility)
   ISTART =      0    job   : 0-new  1-cont  2-samecut
   ICHARG =      2    charge: 1-file 2-atom 10-const
   ISPIN  =      2    spin polarized calculation?
   LNONCOLLINEAR =      F non collinear calculations
   LSORBIT =      F    spin-orbit coupling
   INIWAV =      1    electr: 0-lowe 1-rand  2-diag
   LASPH  =      T    aspherical Exc in radial PAW
 Electronic Relaxation 1
   ENCUT  =  520.0 eV  38.22 Ry    6.18 a.u.   9.63  9.63  9.63*2*pi/ulx,y,z
   ENINI  =  520.0     initial cutoff
   ENAUG  =  628.9 eV  augmentation charge cutoff
   NELM   =   1000;   NELMIN=  2; NELMDL=  0     # of ELM steps
   EDIFF  = 0.2E-03   stopping-criterion for ELM
   LREAL  =      T    real-space projection
   NLSPLINE    = F    spline interpolate recip. space projectors
   LCOMPAT=      F    compatible to vasp.4.4
   GGA_COMPAT  = T    GGA compatible to vasp.4.4-vasp.4.6
   LMAXPAW     = -100 max onsite density
   LMAXMIX     =    2 max onsite mixed and CHGCAR
   VOSKOWN=      0    Vosko Wilk Nusair interpolation
   ROPT   =   -0.00025  -0.00025  -0.00025
 Ionic relaxation
   EDIFFG = 0.2E-02   stopping-criterion for IOM
   NSW    =      0    number of steps for IOM
   NBLOCK =      1;   KBLOCK =      1    inner block; outer block
   IBRION =     -1    ionic relax: 0-MD 1-quasi-New 2-CG
   NFREE  =      0    steps in history (QN), initial steepest desc. (CG)
   ISIF   =      3    stress and relaxation
   IWAVPR =     10    prediction:  0-non 1-charg 2-wave 3-comb
   ISYM   =      2    0-nonsym 1-usesym 2-fastsym
   LCORR  =      T    Harris-Foulkes like correction to forces

   POTIM  = 0.5000    time-step for ionic-motion
   TEIN   =    0.0    initial temperature
   TEBEG  =    0.0;   TEEND  =   0.0 temperature during run
   SMASS  =  -3.00    Nose mass-parameter (am)
   estimated Nose-frequenzy (Omega)   =  0.10E-29 period in steps = 0.13E+47 mass=  -0.612E-27a.u.
   SCALEE = 1.0000    scale energy and forces
   NPACO  =    256;   APACO  = 10.0  distance and # of slots for P.C.
[...]
  290                map_forward                           0.000167                    4   7
  291                  map_gather                            0.000041                  2   8
  292                  m_alltoallv_z                         0.000024                  2   8
  293                  map_scatter                           0.000073                  2   8
  294                map_backward                          0.000075                    2   7
  295                  map_gather                            0.000019                  1   8
  296                  m_alltoallv_z                         0.000011                  1   8
  297                  map_scatter                           0.000031                  1   8
  298          m_sumb_d                              0.000010                          2   4
  299          pothar                                0.000087                          1   4
  300            m_sumb_d                              0.000020                        1   5
  301        brmix                                 0.004184                            1   3
  302          m_sumb_d                              0.000029                          6   4
  303          brpre                                 0.000016                          2   4
  304          setg0                                 0.000510                          1   4
  305          broyd                                 0.003064                          1   4
  306            m_sumb_d                              0.000256                       48   5
  307            brget                                 0.000583                      214   5
  308            brsav                                 0.000129                       46   5
  309        m_bcast_d                             0.000014                            2   3
  310      potlok                                0.018558                              2   2
  311        fft3d_mpi                             0.012193                           36   3
  312          fftbrc_mpi                            0.010412                         36   4
  313            fftbas_plan_mpi                       0.010395                       36   5
  314              map_forward                           0.003081                     40   6
  315                map_gather                            0.001043                   24   7
  316                m_alltoallv_z                         0.000968                   24   7
  317                map_scatter                           0.000897                   24   7
  318              map_backward                          0.002398                     32   6
  319                map_gather                            0.000824                   16   7
  320                m_alltoallv_z                         0.000606                   16   7
  321                map_scatter                           0.000793                   16   7
  322              dfftw_execute                         0.003240                     30   6
  323        m_sumb_d                              0.000020                            5   3
  324        pothar                                0.000674                            2   3
  325          m_sumb_d                              0.000048                          2   4
  326        m_bcast_d                             0.001117                            4   3
  327      potlok_metagga                        0.000000                              1   2
  328      set_dd_magatom                        0.000005                              1   2
  329      set_dd_paw                            0.928614                              1   2
  330        m_sumb_d                              0.445850                            7   3
  331      augmentation_charge                   0.058964                              1   2
  332        fft3d_mpi                             0.016156                            2   3
  333          fftbrc_mpi                            0.014236                          2   4
  334            fftbas_plan_mpi                       0.014235                        2   5
  335              dfftw_execute                         0.008829                      6   6
  336              map_backward                          0.005268                      4   6
  337                map_gather                            0.001377                    2   7
  338                m_alltoallv_z                         0.002666                    2   7
  339                map_scatter                           0.001222                    2   7
  340      fftwav_mpi                            0.342645                            768   2
  341        fftwav                                0.341680                          768   3
  342          fft3d                                 0.326071                        768   4
  343      densta                                0.404647                              1   2

 Flat profile

 m_sumb_d                               24.219764       65126
 set_dd_paw                             21.267694          44
 init_acc                               12.619728           1
 lapack                                  8.998417       20020
 eddav                                   8.815677          46
 total_time                              6.889678           1
 raccmu_                                 6.280085       20020
 redis_pw                                3.572492      111352
 setdij_                                 2.800792          70
 acc_init_cublas                         2.413939           1
 m_alltoall_d                            2.157184      293336
 augmentation_charge                     1.874223          43
 phaser                                  1.709644        1680
 dfftw_execute                           1.461299        1488
 fft3d                                   1.219216      121034
 eccp                                    1.014389       11776
 redis_proj                              0.922773      139648
 fftwav                                  0.814817       80994
 densta                                  0.807565          47
 acc_init_cusolver                       0.787115           1
 soft_charge                             0.679745          42
 orth1                                   0.652324       60092
 w1_copy                                 0.575369      120120
 racc0mu_acc                             0.572411       20020
 overl                                   0.569454       68336
 rpromu_acc                              0.539469       14964
 m_alltoallv_z                           0.534160        1831
 hamiltmu                                0.429976       20020
 m_bcast_z                               0.424814       21044
 setup_precond                           0.423890       11776
 m_bcast_d                               0.336345       40133
 overl_mu                                0.307832       20020
 fft3d_mpi                               0.285259       41679
 ggemm                                   0.264739       25908
 pw_charge                               0.225183        8594
 rpro_isp                                0.224286         208
 set_charge                              0.218619          42
 map_gather                              0.217602        1831
 newband                                 0.206362       21492
 map_scatter                             0.205738        1831
 vhamil                                  0.183756       40040
 kinhamil                                0.181962       40040
 depsum                                  0.177716          42
 fftext_mpi                              0.168833       40040
 apply_precond                           0.153374       28264
 acc_cufft_makeplan                      0.130346          19
 potlok                                  0.122750          44
 broyd                                   0.118379          42
 fftwav_mpi                              0.108200       80994
 fftbas_plan_mpi                         0.098667        1639
 elmin                                   0.075451           1
 rspher_all                              0.074216          14
 lincom                                  0.044702        1504
 proall                                  0.038770           1
 brmix                                   0.023841          42
 setg0                                   0.019636          44
 sphpro_fast                             0.019362           2
 w1_projall                              0.013927       14132
 brget                                   0.011839        4677
 map_backward                            0.008470        1710
 force_and_stress                        0.008339           1
 map_forward                             0.008089        1568
 orthch                                  0.007725           1
 choleski                                0.007474          32
 inisym                                  0.004880           1
 strnlr                                  0.004084           1
 truncate_high_frequency_w1              0.003970       51816
 pothar                                  0.003762          45
 brsav                                   0.002769        1079
 stufak                                  0.001932           1
 fornlr                                  0.001447           1
 strelo                                  0.001122           1
 forhar                                  0.001081           2
 fftbrc_mpi                              0.000958        1639
 strehar                                 0.000852           1
 fft_gq                                  0.000801          42
 brpre                                   0.000741          84
 forloc                                  0.000690           1
 fewald                                  0.000328           1
 chggra                                  0.000224           1
 strkin                                  0.000211           1
 set_dd_magatom                          0.000189          44
 vectorpot                               0.000177          43
 brgrid                                  0.000109           1
 rsp                                     0.000048           1
 fordep                                  0.000041           1
 posmap                                  0.000034           2
 crpa_reader                             0.000026           1
 rcp                                     0.000011           1
 acc_cufft_makeplans                     0.000010           3
 potlok_metagga                          0.000008          43
 rotate_active_occupied_orbital          0.000001           1
 redis_pw_over_bands                     0.000000           1
  summed up times     120.3763980865479

 Accumulative profile

 total_time                            120.376398           1
 elmin                                  91.749636           1
 eddav                                  45.020904          46
 set_dd_paw                             40.690623          44
 m_sumb_d                               24.219764       65126
 init_acc                               12.619728           1
 lapack                                  8.998417       20020
 hamiltmu                                8.421188       20020
 raccmu_                                 7.160327       20020
 redis_pw                                4.577761      111352
 setdij_                                 4.475350          70
 set_charge                              4.240047          42
 force_and_stress                        3.417843           1
 fft3d_mpi                               3.104562       41679
 augmentation_charge                     2.606580          43
 fftbrc_mpi                              2.534983        1639
 fftbas_plan_mpi                         2.534025        1639
 newband                                 2.501017       21492
 acc_init_cublas                         2.413939           1
 m_alltoall_d                            2.157184      293336
 redis_proj                              2.074689      139648
 fftwav_mpi                              1.857912       80994
 fftwav                                  1.749712       80994
 phaser                                  1.709644        1680
 dfftw_execute                           1.461299        1488
 soft_charge                             1.262447          42
 fft3d                                   1.219216      121034
 eccp                                    1.014389       11776
 densta                                  0.807565          47
 acc_init_cusolver                       0.787115           1
 orth1                                   0.652324       60092
 kinhamil                                0.647129       40040
 w1_copy                                 0.575369      120120
 racc0mu_acc                             0.572411       20020
 map_forward                             0.571949        1568
 overl                                   0.569454       68336
 rpromu_acc                              0.539469       14964
 m_alltoallv_z                           0.534160        1831
 strnlr                                  0.534035           1
 fftext_mpi                              0.465167       40040
 rpro_isp                                0.456166         208
 potlok                                  0.425479          44
 m_bcast_z                               0.424814       21044
 setup_precond                           0.423890       11776
 w1_projall                              0.419986       14132
 map_backward                            0.402109        1710
 fordep                                  0.383570           1
 m_bcast_d                               0.336345       40133
 overl_mu                                0.307832       20020
 ggemm                                   0.264739       25908
 pw_charge                               0.225183        8594
 map_gather                              0.217602        1831
 orthch                                  0.215130           1
 map_scatter                             0.205738        1831
 brmix                                   0.184077          42
 vhamil                                  0.183756       40040
 depsum                                  0.180201          42
 fornlr                                  0.179199           1
 apply_precond                           0.153374       28264
 broyd                                   0.138442          42
 acc_cufft_makeplans                     0.130356           3
 acc_cufft_makeplan                      0.130346          19
 rspher_all                              0.074216          14
 proall                                  0.071118           1
 lincom                                  0.044702        1504
 fft_gq                                  0.042400          42
 sphpro_fast                             0.020012           2
 setg0                                   0.019636          44
 brget                                   0.011839        4677
 choleski                                0.007474          32
 inisym                                  0.004914           1
 pothar                                  0.004081          45
 truncate_high_frequency_w1              0.003970       51816
 brsav                                   0.002769        1079
 stufak                                  0.001932           1
 strelo                                  0.001129           1
 forhar                                  0.001101           2
 strehar                                 0.000855           1
 chggra                                  0.000743           1
 brpre                                   0.000741          84
 forloc                                  0.000713           1
 fewald                                  0.000433           1
 strkin                                  0.000225           1
 set_dd_magatom                          0.000189          44
 vectorpot                               0.000177          43
 brgrid                                  0.000109           1
 rsp                                     0.000048           1
 posmap                                  0.000034           2
 crpa_reader                             0.000026           1
 rcp                                     0.000011           1
 potlok_metagga                          0.000008          43
 rotate_active_occupied_orbital          0.000001           1
 redis_pw_over_bands                     0.000000           1

Profiling took   0.253803  0.128593  0.003411  0.003316 seconds
Profiling took   0.166939 seconds