 vasp.6.3.2 27Jun22 (build Jun 29 2023 15:24:44) complex
 executed on    LinuxNV_CrayMPICH date 2024.04.25  13:06:42

 INCAR:
   ALGO = Fast
   EDIFF = 0.0001
   EDIFFG = -0.05
   ENCUT = 500
   GGA = Pe
   IBRION = 2
   ISIF = 0
   ISMEAR = 1
   ISPIN = 2
   ISTART = 1
   ISYM = 0
   LASPH = True
   LCHARG = False
   LDAU = True
   LDAUJ = 0 0
   LDAUL = 2 0
   LDAUPRINT = 0
   LDAUTYPE = 2
   LDAUU = 5.3 0
   LMAXMIX = 4
   LORBIT = 11
   LREAL = False
   LVTOT = False
   LWAVE = True
   MAGMOM = 4*4.262 6*0.0
   NCORE = 4
   NELM = 80
   NSW = 300
   PREC = Accurate
   SIGMA = 0.14
   SYMPREC = 1e-10

 POTCAR:    PAW_PBE Fe_pv 02Aug2007
 POTCAR:    PAW_PBE O 08Apr2002
 POTCAR:    PAW_PBE Fe_pv 02Aug2007
   VRHFIN =Fe:  3pd7s1

   TITEL  = PAW_PBE Fe_pv 02Aug2007
   POMASS =   55.847; ZVAL   =   14.000    mass and valenz
   ENMAX  =  293.238; ENMIN  =  219.928 eV

   TITEL  = PAW_PBE O 08Apr2002
   POMASS =   16.000; ZVAL   =    6.000    mass and valenz
   ENMAX  =  400.000; ENMIN  =  300.000 eV

  PAW_PBE Fe_pv 02Aug2007               :
  PAW_PBE O 08Apr2002                   :

 POSCAR: Fe4 O6
  positions in direct lattice
 exchange correlation table for  LEXCH =        8
   RHO(1)=    0.500       N(1)  =     2000
   RHO(2)=  100.500       N(2)  =     4000

 VTST: version 4.2, (08/11/21)

 CHAIN: initializing optimizer

 OPT: Using VASP Conjugate-Gradient optimizer
 CHAIN: Read ICHAIN             0

 POSCAR: Fe4 O6
  positions in direct lattice

 ion  position               nearest neighbor table
   1  0.063  0.646  0.063-  10 1.98   6 1.98   8 1.98   7 2.13   5 2.13   9 2.13
   2  0.937  0.354  0.937-   9 1.98   5 1.98   7 1.98   8 2.13   6 2.13  10 2.13
   3  0.437  0.854  0.437-  10 1.98   8 1.98   6 1.98   5 2.13   7 2.13   9 2.13
   4  0.563  0.146  0.563-   9 1.98   7 1.98   5 1.98   6 2.13   8 2.13  10 2.13
   5  0.750  0.445  0.360-   2 1.98   4 1.98   3 2.13   1 2.13
   6  0.250  0.555  0.640-   1 1.98   3 1.98   4 2.13   2 2.13
   7  0.750  0.750  0.445-   4 1.98   2 1.98   3 2.13   1 2.13
   8  0.250  0.250  0.555-   3 1.98   1 1.98   4 2.13   2 2.13
   9  0.750  0.055  0.445-   2 1.98   4 1.98   3 2.13   1 2.13
  10  0.250  0.945  0.555-   1 1.98   3 1.98   4 2.13   2 2.13

IMPORTANT INFORMATION: All symmetrisations will be switched off!
NOSYMM: (Re-)initialisation of all symmetry stuff for point group C_1.

                                     Primitive cell

  volume of cell :     104.6680

  direct lattice vectors                    reciprocal lattice vectors
    -2.552438000  1.473653000  4.637793000     0.000001774 -0.000000927  0.215621071
    -0.000141000 -8.842041000 -0.000038000    -0.195891054 -0.113092627 -0.071874808
     2.552353000 -4.420980000 -0.000040000     0.391786288 -0.000007174  0.215624281

  length of vectors
     5.495062950  8.842041001  5.104857491     0.215621071  0.237337808  0.447202780

  position of ions in fractional coordinates (direct lattice)
     0.062526000  0.645825000  0.062523000
     0.937474000  0.354175000  0.937476000
     0.437484000  0.854170000  0.437489000
     0.562516000  0.145830000  0.562511000
     0.750007000  0.445121000  0.359759000
     0.249994000  0.554879000  0.640241000
     0.749995000  0.749999000  0.445123000
     0.250005000  0.250001000  0.554878000
     0.750001000  0.054890000  0.445110000
     0.249999000  0.945110000  0.554890000

  ion indices of the primitive-cell ions
   primitive index   ion index
                 1           1
                 2           2
                 3           3
                 4           4
                 5           5
                 6           6
                 7           7
                 8           8
                 9           9
                10          10

 KPOINTS: Automatic kpoint scheme

Automatic generation of k-mesh.
 Grid dimensions read from file:
 generate k-points for:   10    6   10

 Generating k-lattice:

  Cartesian coordinates                     Fractional coordinates (reciprocal lattice)
     0.000000177 -0.000000093  0.021562107     0.100000000 -0.000000000 -0.000000000
    -0.032648509 -0.018848771 -0.011979135     0.000000000  0.166666667 -0.000000000
     0.039178629 -0.000000717  0.021562428    -0.000000000  0.000000000  0.100000000

  Length of vectors
     0.021562107  0.039556301  0.044720278

  Shift w.r.t. Gamma in fractional coordinates (k-lattice)
     0.000000000  0.000000000  0.000000000

 Subroutine IBZKPT returns following result:

 Found    304 irreducible k-points:

 Following reciprocal coordinates:
            Coordinates               Weight
  0.000000  0.000000  0.000000      1.000000
  0.100000  0.000000  0.000000      2.000000
  0.200000  0.000000  0.000000      2.000000
  0.300000  0.000000  0.000000      2.000000
  0.400000  0.000000  0.000000      2.000000
  0.500000  0.000000  0.000000      1.000000
  0.000000  0.166667  0.000000      2.000000
  0.100000  0.166667  0.000000      2.000000
  0.200000  0.166667  0.000000      2.000000
  0.300000  0.166667  0.000000      2.000000
  0.400000  0.166667  0.000000      2.000000
  0.500000  0.166667  0.000000      2.000000
 -0.400000  0.166667  0.000000      2.000000
 -0.300000  0.166667  0.000000      2.000000
 -0.200000  0.166667  0.000000      2.000000
 -0.100000  0.166667  0.000000      2.000000
  0.000000  0.333333  0.000000      2.000000
  0.100000  0.333333  0.000000      2.000000
  0.200000  0.333333  0.000000      2.000000
  0.300000  0.333333  0.000000      2.000000
  0.400000  0.333333  0.000000      2.000000
  0.500000  0.333333  0.000000      2.000000
 -0.400000  0.333333  0.000000      2.000000
 -0.300000  0.333333  0.000000      2.000000
 -0.200000  0.333333  0.000000      2.000000
 -0.100000  0.333333  0.000000      2.000000
  0.000000  0.500000  0.000000      1.000000
  0.100000  0.500000  0.000000      2.000000
  0.200000  0.500000  0.000000      2.000000
  0.300000  0.500000  0.000000      2.000000
  0.400000  0.500000  0.000000      2.000000
  0.500000  0.500000  0.000000      1.000000
  0.000000  0.000000  0.100000      2.000000
  0.100000  0.000000  0.100000      2.000000
  0.200000  0.000000  0.100000      2.000000
  0.300000  0.000000  0.100000      2.000000
  0.400000  0.000000  0.100000      2.000000
  0.500000  0.000000  0.100000      2.000000
 -0.400000  0.000000  0.100000      2.000000
 -0.300000  0.000000  0.100000      2.000000
 -0.200000  0.000000  0.100000      2.000000
 -0.100000  0.000000  0.100000      2.000000
  0.000000  0.166667  0.100000      2.000000
  0.100000  0.166667  0.100000      2.000000
  0.200000  0.166667  0.100000      2.000000
  0.300000  0.166667  0.100000      2.000000
  0.400000  0.166667  0.100000      2.000000
  0.500000  0.166667  0.100000      2.000000
 -0.400000  0.166667  0.100000      2.000000
 -0.300000  0.166667  0.100000      2.000000
 -0.200000  0.166667  0.100000      2.000000
 -0.100000  0.166667  0.100000      2.000000
  0.000000  0.333333  0.100000      2.000000
  0.100000  0.333333  0.100000      2.000000
  0.200000  0.333333  0.100000      2.000000
  0.300000  0.333333  0.100000      2.000000
  0.400000  0.333333  0.100000      2.000000
  0.500000  0.333333  0.100000      2.000000
 -0.400000  0.333333  0.100000      2.000000
 -0.300000  0.333333  0.100000      2.000000
[...]
  0.100000  0.333333  0.500000      2.000000
  0.200000  0.333333  0.500000      2.000000
  0.300000  0.333333  0.500000      2.000000
  0.400000  0.333333  0.500000      2.000000
  0.500000  0.333333  0.500000      2.000000
 -0.400000  0.333333  0.500000      2.000000
 -0.300000  0.333333  0.500000      2.000000
 -0.200000  0.333333  0.500000      2.000000
 -0.100000  0.333333  0.500000      2.000000
  0.000000  0.500000  0.500000      1.000000
  0.100000  0.500000  0.500000      2.000000
  0.200000  0.500000  0.500000      2.000000
  0.300000  0.500000  0.500000      2.000000
  0.400000  0.500000  0.500000      2.000000
  0.500000  0.500000  0.500000      1.000000

 Following cartesian coordinates:
            Coordinates               Weight
  0.000000 -0.000000  0.000000      1.000000
  0.000000 -0.000000  0.021562      2.000000
  0.000000 -0.000000  0.043124      2.000000
  0.000001 -0.000000  0.064686      2.000000
  0.000001 -0.000000  0.086248      2.000000
  0.000001 -0.000000  0.107811      1.000000
 -0.032649 -0.018849 -0.011979      2.000000
 -0.032648 -0.018849  0.009583      2.000000
 -0.032648 -0.018849  0.031145      2.000000
 -0.032648 -0.018849  0.052707      2.000000
 -0.032648 -0.018849  0.074269      2.000000
 -0.032648 -0.018849  0.095831      2.000000
 -0.032649 -0.018848 -0.098228      2.000000
 -0.032649 -0.018848 -0.076665      2.000000
 -0.032649 -0.018849 -0.055103      2.000000
 -0.032649 -0.018849 -0.033541      2.000000
 -0.065297 -0.037698 -0.023958      2.000000
 -0.065297 -0.037698 -0.002396      2.000000
 -0.065297 -0.037698  0.019166      2.000000
 -0.065296 -0.037698  0.040728      2.000000
 -0.065296 -0.037698  0.062290      2.000000
 -0.065296 -0.037698  0.083852      2.000000
 -0.065298 -0.037697 -0.110207      2.000000
 -0.065298 -0.037697 -0.088645      2.000000
 -0.065297 -0.037697 -0.067082      2.000000
 -0.065297 -0.037697 -0.045520      2.000000
 -0.097946 -0.056546 -0.035937      1.000000
 -0.097945 -0.056546 -0.014375      2.000000
 -0.097945 -0.056546  0.007187      2.000000
 -0.097945 -0.056547  0.028749      2.000000
 -0.097945 -0.056547  0.050311      2.000000
 -0.097945 -0.056547  0.071873      1.000000
  0.039179 -0.000001  0.021562      2.000000
  0.039179 -0.000001  0.043125      2.000000
  0.039179 -0.000001  0.064687      2.000000
  0.039179 -0.000001  0.086249      2.000000
  0.039179 -0.000001  0.107811      2.000000
  0.039180 -0.000001  0.129373      2.000000
  0.039178 -0.000000 -0.064686      2.000000
  0.039178 -0.000000 -0.043124      2.000000
  0.039178 -0.000001 -0.021562      2.000000
  0.039178 -0.000001  0.000000      2.000000
  0.006530 -0.018849  0.009583      2.000000
  0.006530 -0.018850  0.031145      2.000000
  0.006530 -0.018850  0.052708      2.000000
  0.006531 -0.018850  0.074270      2.000000
  0.006531 -0.018850  0.095832      2.000000
  0.006531 -0.018850  0.117394      2.000000
  0.006529 -0.018849 -0.076665      2.000000
  0.006530 -0.018849 -0.055103      2.000000
  0.006530 -0.018849 -0.033541      2.000000
  0.006530 -0.018849 -0.011979      2.000000
 -0.026118 -0.037698 -0.002396      2.000000
 -0.026118 -0.037698  0.019166      2.000000
 -0.026118 -0.037698  0.040728      2.000000
 -0.026118 -0.037699  0.062290      2.000000
 -0.026118 -0.037699  0.083853      2.000000
 -0.026118 -0.037699  0.105415      2.000000
 -0.026119 -0.037698 -0.088644      2.000000
 -0.026119 -0.037698 -0.067082      2.000000
[...]
  0.130596 -0.037701  0.105416      2.000000
  0.130596 -0.037701  0.126978      2.000000
  0.130597 -0.037701  0.148540      2.000000
  0.130597 -0.037702  0.170102      2.000000
  0.130597 -0.037702  0.191664      2.000000
  0.130595 -0.037701 -0.002395      2.000000
  0.130596 -0.037701  0.019168      2.000000
  0.130596 -0.037701  0.040730      2.000000
  0.130596 -0.037701  0.062292      2.000000
[...]
  332          m_sumb_d                              0.000032                          4   4
  333          pothar                                0.000564                          2   4
  334            m_sumb_d                              0.000293                        2   5
  335        brmix                                 0.001120                            2   3
  336          m_sumb_d                              0.000118                         12   4
  337          brpre                                 0.000023                          4   4
  338          setg0                                 0.000381                          2   4
  339          broyd                                 0.000407                          2   4
  340            m_sumb_d                              0.000209                       23   5
  341            brsav                                 0.000021                       20   5
  342            brget                                 0.000043                       63   5
  343        m_bcast_d                             0.000096                            4   3
  344      potlok                                0.051604                              2   2
  345        fft3d_mpi                             0.011792                           52   3
  346          fftbrc_mpi                            0.010108                         52   4
  347            fftbas_plan_mpi                       0.010087                       52   5
  348              dfftw_execute                         0.002129                    156   6
  349              map_forward                           0.004435                     56   6
  350                map_gather                            0.000201                   32   7
  351                m_alltoallv_z                         0.003916                   32   7
  352                map_scatter                           0.000269                   32   7
  353              map_backward                          0.003127                     48   6
  354                map_gather                            0.000137                   24   7
  355                m_alltoallv_z                         0.002761                   24   7
  356                map_scatter                           0.000184                   24   7
  357        m_sumb_d                              0.000228                           10   3
  358        pothar                                0.000383                            2   3
  359          m_sumb_d                              0.000105                          2   4
  360        m_bcast_d                             0.002599                            4   3
  361      potlok_metagga                        0.000000                              2   2
  362      set_dd_magatom                        0.000000                              2   2
  363      set_dd_paw                            1.098556                              2   2
  364        set_rsgf_all                          0.000001                            2   3
  365        m_sumb_d                              1.098355                           14   3
  366      m_sumb_d                              2.371443                          38917   2
  367      wavpre_noio                           0.001213                              1   2
  368        stufak                                0.000094                            1   3
  369      densta                                0.450398                              1   2
  370        m_sumb_d                              0.064181                           33   3
  371        m_alltoall_d                          0.380030                            4   3
  372      m_alltoall_d                          0.000306                              2   2

 Flat profile

 pdssyex_zheevx                         36.233371        6688
 lapack                                 21.368740       10191
 fft3d                                  17.247047      120100
 m_alltoall_d                           16.590576      287331
 m_sumb_d                               13.480797       50002
 total_time                              7.036131           1
 gemm                                    5.666884      363380
 fftext_mpi                              5.495460       47282
 m_bcast_z                               3.566876       49105
 phase                                   3.125014        7906
 fornl                                   3.111068           2
 vhamil                                  2.158608       47282
 proj1                                   2.074549       36338
 eccp                                    1.729061       50467
 fftwav                                  1.288507       72818
 w1_copy                                 1.175849      109014
 redis_pw                                1.138000       60365
 orth1                                   1.133322       42733
 work_mul_crexp                          1.123204      363380
 w1_dscal                                0.847580       71756
 w1_daxpy                                0.819251       52294
 eddav                                   0.809239           2
 sphpro_fast                             0.723303           3
 choleski                                0.687795        6688
 lincom                                  0.624025       13376
 w1_gaxpy                                0.502575       46832
 crexp_mul_wave                          0.477882       72676
 w1_gemv                                 0.409340       71424
 eddiag                                  0.407394           9
 ggemm                                   0.357328       12623
 m_bcast_d                               0.336434       20419
 pw_charge                               0.308478       14592
 potlok                                  0.240604          13
 spher                                   0.238564           1
 vnlac0                                  0.226444       36338
 i2                                      0.218682       14605
 apply_precond                           0.207101       65535
 kinhamil                                0.184218       47282
 overl1                                  0.174692       72050
 orthch                                  0.169428          11
 hamiltmu                                0.139890       24796
 eccp_nl                                 0.103875       37091
 overl                                   0.095092       30110
 cnorma                                  0.090214       37091
 redis_proj                              0.085767       74812
 setup_precond                           0.071804       13376
 m_alltoallv_z                           0.071187         488
 zhegv                                   0.065754       15203
 elmin                                   0.063911           2
 setdij_                                 0.063333          28
 i3                                      0.058345       14605
 eddrmm                                  0.057351           9
 fft3d_mpi                               0.041059       47720
 soft_charge                             0.040833          12
 newband                                 0.037709       31484
 force_and_stress                        0.037353           2
 depsum                                  0.036616          12
 w1_dot                                  0.033287       10944
 fftwav_mpi                              0.029830       72818
 w1_projall                              0.028855       22364
 densta                                  0.023277          12
 augmentation_charge                     0.020154          12
 dfftw_execute                           0.017307        1314
 i1                                      0.011253       14605
 hamilt_local                            0.008976       10944
 truncate_high_frequency_w1              0.004977       49714
 map_scatter                             0.004670         488
 map_gather                              0.004652         488
 fftbas_plan_mpi                         0.004199         438
 rsp                                     0.003547           2
 proj                                    0.002267         608
 pothar                                  0.002090          15
 set_dd_paw                              0.001576          15
 setg0                                   0.001527          15
 brmix                                   0.001261          11
 wavpre_noio                             0.001119           1
 forhar                                  0.000967           4
 chggra                                  0.000833           2
 fewald                                  0.000818           2
 set_charge                              0.000677          12
 broyd                                   0.000662          11
 shift_bands_between_low_high            0.000595        5472
 stufak                                  0.000484           2
 map_backward                            0.000481         460
 brgrid                                  0.000463           1
 proall                                  0.000433           2
 map_forward                             0.000398         416
 forloc                                  0.000277           2
 fft_gq                                  0.000212          12
 fftbrc_mpi                              0.000177         438
 brpre                                   0.000154          22
 brget                                   0.000146         212
 brsav                                   0.000075          81
 fordep                                  0.000067           2
 rcp                                     0.000038           2
 set_rsgf_all                            0.000035          15
 crpa_reader                             0.000029           1
 FERMAT_RAZOR                            0.000008           1
 potlok_metagga                          0.000002          13
 rotate_active_occupied_orbital          0.000002           2
 vectorpot                               0.000001          12
 set_dd_magatom                          0.000000          15
 redis_pw_over_bands                     0.000000           2
  summed up times     155.0863718986511

 Accumulative profile

 total_time                            155.086372           1
 elmin                                 133.535912           2
 eddav                                  48.815271           2
 eddiag                                 39.875206           9
 pdssyex_zheevx                         36.233379        6688
 eddrmm                                 32.026257           9
 lapack                                 21.368740       10191
 hamiltmu                               19.560190       24796
 fft3d                                  17.247047      120100
 m_alltoall_d                           16.590576      287331
 m_sumb_d                               13.480797       50002
 kinhamil                               12.484703       47282
 fftext_mpi                             12.300484       47282
 fftwav_mpi                             11.780252       72818
 fftwav                                 11.750422       72818
 set_dd_paw                              8.232431          15
 vnlac0                                  7.016532       36338
 fft3d_mpi                               6.929261       47720
 redis_pw                                6.781962       60365
 i2                                      6.172929       14605
 orthch                                  5.877806          11
 redis_proj                              5.687190       74812
 gemm                                    5.666884      363380
 force_and_stress                        5.135097           2
 m_bcast_z                               3.566876       49105
 fornl                                   3.454686           2
 i3                                      3.364422       14605
 newband                                 3.178084       31484
 phase                                   3.125014        7906
 set_charge                              2.765121          12
 soft_charge                             2.697437          12
 proj1                                   2.552431       36338
 w1_projall                              2.415531       22364
 hamilt_local                            2.347282       10944
 vhamil                                  2.158608       47282
 eccp                                    1.729061       50467
 w1_copy                                 1.175849      109014
 orth1                                   1.133322       42733
 work_mul_crexp                          1.123204      363380
 w1_dscal                                0.847580       71756
 w1_daxpy                                0.819251       52294
 sphpro_fast                             0.804780           3
 choleski                                0.687795        6688
 lincom                                  0.624025       13376
 w1_gaxpy                                0.502575       46832
 densta                                  0.487528          12
 w1_gemv                                 0.485268       71424
 crexp_mul_wave                          0.477882       72676
 proall                                  0.406203           2
 ggemm                                   0.357328       12623
 potlok                                  0.355863          13
 m_bcast_d                               0.336434       20419
 pw_charge                               0.308478       14592
 spher                                   0.238564           1
 apply_precond                           0.207101       65535
 cnorma                                  0.194088       37091
 overl1                                  0.174692       72050
 proj                                    0.168022         608
 i1                                      0.160505       14605
 eccp_nl                                 0.103875       37091
 fftbrc_mpi                              0.103071         438
 fftbas_plan_mpi                         0.102894         438
 overl                                   0.095092       30110
 setdij_                                 0.094923          28
 setup_precond                           0.071804       13376
 m_alltoallv_z                           0.071187         488
 zhegv                                   0.065754       15203
 map_backward                            0.044626         460
 depsum                                  0.039973          12
 map_forward                             0.036762         416
 w1_dot                                  0.033287       10944
 augmentation_charge                     0.027033          12
 fordep                                  0.025725           2
 dfftw_execute                           0.017307        1314
 fft_gq                                  0.016059          12
 brmix                                   0.005683          11
 fewald                                  0.005036           2
 truncate_high_frequency_w1              0.004977       49714
 map_scatter                             0.004670         488
 map_gather                              0.004652         488
 rsp                                     0.003547           2
 pothar                                  0.003284          15
 chggra                                  0.002524           2
 broyd                                   0.001763          11
 setg0                                   0.001527          15
 wavpre_noio                             0.001213           1
 forhar                                  0.001145           4
 shift_bands_between_low_high            0.000595        5472
 stufak                                  0.000484           2
 brgrid                                  0.000463           1
 forloc                                  0.000429           2
 brpre                                   0.000154          22
 brget                                   0.000146         212
 brsav                                   0.000075          81
 rcp                                     0.000038           2
 set_rsgf_all                            0.000035          15
 crpa_reader                             0.000029           1
 FERMAT_RAZOR                            0.000008           1
 potlok_metagga                          0.000002          13
 rotate_active_occupied_orbital          0.000002           2
 vectorpot                               0.000001          12
 set_dd_magatom                          0.000000          15
 redis_pw_over_bands                     0.000000           2

Profiling took   0.348517  0.237590  0.003541  0.003454 seconds
Profiling took   0.274885 seconds