 vasp.6.3.2 27Jun22 (build Jul  3 2023 11:46:21) complex
 executed on    LinuxNV_CrayMPICH date 2024.04.18  19:34:48

 INCAR:
   ADDGRID = True
   ALGO = Normal
   EDIFF = 0.0018
   ENCUT = 520.0
   IBRION = -1
   ICHARG = 0
   ISIF = 3
   ISMEAR = -5
   ISPIN = 2
   KPOINT_BSE = -1 0 0 0
   LAECHG = True
   LASPH = True
   LCHARG = True
   LELF = True
   LORBIT = 11
   LREAL = Auto
   LVHAR = True
   LWAVE = False
   MAGMOM = 8*0.6 4*7.0 24*0.6
   NELM = 1000
   NSW = 0
   PREC = accurate
   SIGMA = 0.05

 POTCAR:    PAW_PBE Sr_sv 07Sep2000
 POTCAR:    PAW_PBE Gd 23Dec2003
 POTCAR:    PAW_PBE Be_sv 06Sep2000
 POTCAR:    PAW_PBE O 08Apr2002
 POTCAR:    PAW_PBE Sr_sv 07Sep2000
   VRHFIN =Sr: 4s4p5s

   TITEL  = PAW_PBE Sr_sv 07Sep2000
   POMASS =   87.620; ZVAL   =   10.000    mass and valenz
   ENMAX  =  229.353; ENMIN  =  172.014 eV

   TITEL  = PAW_PBE Gd 23Dec2003
   POMASS =  157.250; ZVAL   =   18.000    mass and valenz
   ENMAX  =  256.472; ENMIN  =  192.354 eV

   TITEL  = PAW_PBE Be_sv 06Sep2000
   POMASS =    9.013; ZVAL   =    4.000    mass and valenz
   ENMAX  =  308.768; ENMIN  =  231.576 eV

   TITEL  = PAW_PBE O 08Apr2002
   POMASS =   16.000; ZVAL   =    6.000    mass and valenz
   ENMAX  =  400.000; ENMIN  =  300.000 eV

 Optimization of the real space projectors (new method)

 maximal supplied QI-value         = 15.12
 optimisation between [QCUT,QGAM] = [ 11.64, 23.28] = [ 37.95,151.78] Ry
 Optimized for a Real-space Cutoff    1.58 Angstroem

   l    n(q)    QCUT    max X(q) W(low)/X(q) W(high)/X(q)  e(spline)
   0     11    11.641    11.565    0.25E-04    0.45E-05    0.87E-07
   0     11    11.641    10.214    0.38E-04    0.85E-05    0.18E-06
   1     11    11.641   189.983    0.18E-03    0.75E-04    0.37E-06
   1     11    11.641   193.105    0.18E-03    0.75E-04    0.37E-06
   2     10    11.641   115.941    0.51E-04    0.22E-03    0.56E-06
   2     10    11.641    76.444    0.49E-04    0.21E-03    0.55E-06
 Optimization of the real space projectors (new method)

[...]

   l    n(q)    QCUT    max X(q) W(low)/X(q) W(high)/X(q)  e(spline)
   0      8    11.537    59.662    0.19E-03    0.12E-02    0.74E-06
   0      8    11.537    72.827    0.19E-03    0.12E-02    0.75E-06
   0      8    11.537    15.192    0.20E-03    0.13E-02    0.77E-06
   1      8    11.537    35.807    0.17E-03    0.21E-03    0.13E-06
   1      8    11.537    16.477    0.15E-03    0.18E-03    0.12E-06
 Optimization of the real space projectors (new method)

 maximal supplied QI-value         = 24.76
 optimisation between [QCUT,QGAM] = [ 11.64, 23.27] = [ 37.91,151.63] Ry
 Optimized for a Real-space Cutoff    1.14 Angstroem

   l    n(q)    QCUT    max X(q) W(low)/X(q) W(high)/X(q)  e(spline)
   0      8    11.635    20.381    0.10E-03    0.33E-03    0.24E-06
   0      8    11.635    15.268    0.11E-03    0.35E-03    0.26E-06
   1      7    11.635     5.964    0.24E-03    0.31E-03    0.30E-06
   1      7    11.635     5.382    0.22E-03    0.25E-03    0.26E-06
  PAW_PBE Sr_sv 07Sep2000               :
  PAW_PBE Gd 23Dec2003                  :
  PAW_PBE Be_sv 06Sep2000               :
  PAW_PBE O 08Apr2002                   :

 POSCAR: Sr8 Gd4 Be4 O20
  positions in direct lattice
 exchange correlation table for  LEXCH =        8
   RHO(1)=    0.500       N(1)  =     2000
   RHO(2)=  100.500       N(2)  =     4000

 VTST: version 4.2, (08/11/21)

 CHAIN: initializing optimizer

 OPT: Using VASP Dynamics algorithm
 CHAIN: Read ICHAIN             0

 POSCAR: Sr8 Gd4 Be4 O20
  positions in direct lattice

 ion  position               nearest neighbor table
   1  0.588  0.524  0.826-  36 2.56  35 2.57  21 2.58  19 2.60  23 2.62  17 2.62  25 2.64  29 2.74
                            15 2.79  27 2.92  13 3.11  16 3.20   6 3.32  10 3.51  11 3.54   2 3.56
   2  0.412  0.476  0.174-  35 2.56  36 2.57  22 2.58  20 2.60  24 2.62  18 2.62  26 2.64  27 2.74
                            16 2.79  29 2.92  14 3.11  15 3.20   4 3.32   9 3.51  12 3.54   1 3.56
   3  0.088  0.476  0.674-  34 2.56  33 2.57  23 2.58  17 2.60  21 2.62  19 2.62  27 2.64  26 2.74
                            13 2.79  25 2.92  15 3.11  14 3.20   8 3.32  12 3.51   9 3.54   5 3.56
   4  0.412  0.024  0.174-  35 2.56  36 2.57  22 2.58  20 2.60  24 2.62  18 2.62  28 2.64  32 2.74
                            16 2.79  31 2.92  14 3.11  15 3.20   2 3.32   9 3.51  12 3.54   6 3.56
   5  0.912  0.524  0.326-  33 2.56  34 2.57  24 2.58  18 2.60  22 2.62  20 2.62  29 2.64  25 2.74
                            14 2.79  26 2.92  16 3.11  13 3.20   7 3.32  11 3.51  10 3.54   3 3.56
   6  0.588  0.976  0.826-  36 2.56  35 2.57  21 2.58  19 2.60  23 2.62  17 2.62  30 2.64  31 2.74
                            15 2.79  32 2.92  13 3.11  16 3.20   1 3.32  10 3.51  11 3.54   4 3.56
   7  0.912  0.976  0.326-  33 2.56  34 2.57  24 2.58  18 2.60  22 2.62  20 2.62  31 2.64  30 2.74
                            14 2.79  28 2.92  16 3.11  13 3.20   5 3.32  11 3.51  10 3.54   8 3.56
   8  0.088  0.024  0.674-  34 2.56  33 2.57  23 2.58  17 2.60  21 2.62  19 2.62  32 2.64  28 2.74
                            13 2.79  30 2.92  15 3.11  14 3.20   3 3.32  12 3.51   9 3.54   7 3.56
   9  0.087  0.750  0.975-  20 2.31  21 2.41  29 2.42  31 2.42  27 2.42  32 2.42  36 2.54  16 2.90
                             2 3.51   4 3.51   3 3.54   8 3.54   7 3.95   5 3.95   1 3.95   6 3.95
  10  0.913  0.250  0.025-  19 2.31  22 2.41  27 2.42  32 2.42  31 2.42  29 2.42  35 2.54  15 2.90
                             1 3.51   6 3.51   5 3.54   7 3.54   3 3.95   8 3.95   2 3.95   4 3.95
  11  0.587  0.250  0.525-  18 2.31  23 2.41  26 2.42  28 2.42  25 2.42  30 2.42  34 2.54  14 2.90
                             5 3.51   7 3.51   6 3.54   1 3.54   4 3.95   2 3.95   3 3.95   8 3.95
  12  0.413  0.750  0.475-  17 2.31  24 2.41  25 2.42  30 2.42  28 2.42  26 2.42  33 2.54  13 2.90
                             3 3.51   8 3.51   4 3.54   2 3.54   6 3.95   1 3.95   7 3.95   5 3.95
  13  0.813  0.750  0.602-  25 1.65  30 1.65  33 1.68  21 1.69   3 2.79   8 2.79  12 2.90   1 3.11
                             6 3.11   5 3.20   7 3.20
  14  0.187  0.250  0.398-  26 1.65  28 1.65  34 1.68  22 1.69   5 2.79   7 2.79  11 2.90   4 3.11
                             2 3.11   8 3.20   3 3.20
  15  0.313  0.250  0.898-  27 1.65  32 1.65  35 1.68  23 1.69   1 2.79   6 2.79  10 2.90   8 3.11
                             3 3.11   4 3.20   2 3.20
  16  0.687  0.750  0.102-  29 1.65  31 1.65  36 1.68  24 1.69   2 2.79   4 2.79   9 2.90   7 3.11
                             5 3.11   1 3.20   6 3.20
  17  0.333  0.750  0.708-  12 2.31   8 2.60   3 2.60   1 2.62   6 2.62
  18  0.667  0.250  0.292-  11 2.31   7 2.60   5 2.60   4 2.62   2 2.62
  19  0.833  0.250  0.792-  10 2.31   6 2.60   1 2.60   8 2.62   3 2.62
  20  0.167  0.750  0.208-   9 2.31   4 2.60   2 2.60   7 2.62   5 2.62
  21  0.877  0.750  0.771-  13 1.69   9 2.41   1 2.58   6 2.58   3 2.62   8 2.62
  22  0.123  0.250  0.229-  14 1.69  10 2.41   2 2.58   4 2.58   5 2.62   7 2.62
  23  0.377  0.250  0.729-  15 1.69  11 2.41   3 2.58   8 2.58   6 2.62   1 2.62
  24  0.623  0.750  0.271-  16 1.69  12 2.41   5 2.58   7 2.58   2 2.62   4 2.62
  25  0.686  0.563  0.563-  13 1.65  12 2.42  11 2.42   1 2.64   5 2.74   3 2.92
  26  0.314  0.437  0.437-  14 1.65  11 2.42  12 2.42   2 2.64   3 2.74   5 2.92
  27  0.186  0.437  0.937-  15 1.65  10 2.42   9 2.42   3 2.64   2 2.74   1 2.92
  28  0.314  0.063  0.437-  14 1.65  11 2.42  12 2.42   4 2.64   8 2.74   7 2.92
  29  0.814  0.563  0.063-  16 1.65   9 2.42  10 2.42   5 2.64   1 2.74   2 2.92
  30  0.686  0.937  0.563-  13 1.65  12 2.42  11 2.42   6 2.64   7 2.74   8 2.92
  31  0.814  0.937  0.063-  16 1.65   9 2.42  10 2.42   7 2.64   6 2.74   4 2.92
  32  0.186  0.063  0.937-  15 1.65  10 2.42   9 2.42   8 2.64   4 2.74   6 2.92
  33  0.031  0.750  0.511-  13 1.68  12 2.54   5 2.56   7 2.56   3 2.57   8 2.57
  34  0.969  0.250  0.489-  14 1.68  11 2.54   3 2.56   8 2.56   7 2.57   5 2.57
  35  0.531  0.250  0.989-  15 1.68  10 2.54   2 2.56   4 2.56   1 2.57   6 2.57
  36  0.469  0.750  0.011-  16 1.68   9 2.54   1 2.56   6 2.56   4 2.57   2 2.57

  LATTYP: Found a simple orthorhombic cell.
 ALAT       =     6.5842420000
 B/A-ratio  =     1.1152144772
 C/A-ratio  =     1.4657369823

  Lattice vectors:

 A1 = (   6.5842420000,   0.0000000000,   0.0000000000)
 A2 = (   0.0000000000,   7.3428420000,   0.0000000000)
 A3 = (   0.0000000000,   0.0000000000,   9.6507670000)

Analysis of symmetry for initial positions (statically):
 Subroutine PRICEL returns:
 Original cell was already a primitive cell.

 Routine SETGRP: Setting up the symmetry group for a
 simple orthorhombic supercell.

 Subroutine GETGRP returns: Found  8 space group operations
 (whereof  2 operations were pure point group operations)
 out of a pool of  8 trial point group operations.

The static configuration has the point symmetry S_2 .
 The point group associated with its full space group is D_2h.

Analysis of symmetry for dynamics (positions and initial velocities):
 Subroutine PRICEL returns:
 Original cell was already a primitive cell.

[...]

The dynamic configuration has the point symmetry S_2 .
 The point group associated with its full space group is D_2h.

Analysis of structural, dynamic, and magnetic symmetry:
 Subroutine PRICEL returns:
 Original cell was already a primitive cell.

 Routine SETGRP: Setting up the symmetry group for a
 simple orthorhombic supercell.

 Subroutine GETGRP returns: Found  8 space group operations
 (whereof  2 operations were pure point group operations)
 out of a pool of  8 trial point group operations.

The overall configuration has the point symmetry S_2 .
 The point group associated with its full space group is D_2h.

 Subroutine INISYM returns: Found  8 space group operations
 (whereof  2 operations are pure point group operations),
 and found     1 'primitive' translations

                                     Primitive cell

  volume of cell :     466.5861

  direct lattice vectors                    reciprocal lattice vectors
     6.584242000  0.000000000  0.000000000     0.151877771  0.000000000  0.000000000
     0.000000000  7.342842000  0.000000000     0.000000000  0.136187051  0.000000000
     0.000000000  0.000000000  9.650767000     0.000000000  0.000000000  0.103618707

  length of vectors
     6.584242000  7.342842000  9.650767000     0.151877771  0.136187051  0.103618707

  position of ions in fractional coordinates (direct lattice)
     0.587967000  0.523643000  0.826418000
     0.412033000  0.476357000  0.173582000
     0.087967000  0.476357000  0.673582000
     0.412033000  0.023643000  0.173582000
     0.912033000  0.523643000  0.326418000
     0.587967000  0.976357000  0.826418000
     0.912033000  0.976357000  0.326418000
     0.087967000  0.023643000  0.673582000
     0.086575000  0.750000000  0.975322000
     0.913425000  0.250000000  0.024678000
     0.586575000  0.250000000  0.524678000
     0.413425000  0.750000000  0.475322000
     0.812645000  0.750000000  0.601822000
     0.187355000  0.250000000  0.398178000
     0.312645000  0.250000000  0.898178000
[...]
  318                map_forward                           0.000247                    4   7
  319                  map_gather                            0.000047                  2   8
  320                  m_alltoallv_z                         0.000027                  2   8
  321                  map_scatter                           0.000137                  2   8
  322                map_backward                          0.000102                    2   7
  323                  map_gather                            0.000025                  1   8
  324                  m_alltoallv_z                         0.000012                  1   8
  325                  map_scatter                           0.000049                  1   8
  326          m_sumb_d                              0.000009                          2   4
  327          pothar                                0.000088                          1   4
  328            m_sumb_d                              0.000012                        1   5
  329        brmix                                 0.013418                            1   3
  330          m_sumb_d                              0.000104                          6   4
  331          brpre                                 0.000039                          2   4
  332          setg0                                 0.001415                          1   4
  333          broyd                                 0.010133                          1   4
  334            brget                                 0.002700                      326   5
  335            brsav                                 0.001252                      163   5
  336            m_sumb_d                              0.000284                       47   5
  337        m_bcast_d                             0.000027                            2   3
  338      potlok                                0.050521                              2   2
  339        fft3d_mpi                             0.030269                           36   3
  340          fftbrc_mpi                            0.026204                         36   4
  341            fftbas_plan_mpi                       0.026189                       36   5
  342              map_forward                           0.007453                     40   6
  343                map_gather                            0.002194                   24   7
  344                m_alltoallv_z                         0.002931                   24   7
  345                map_scatter                           0.002125                   24   7
  346              map_backward                          0.006863                     32   6
  347                map_gather                            0.002043                   16   7
  348                m_alltoallv_z                         0.002821                   16   7
  349                map_scatter                           0.001809                   16   7
  350              dfftw_execute                         0.010046                     30   6
  351        m_sumb_d                              0.000031                            5   3
  352        pothar                                0.001981                            2   3
  353          m_sumb_d                              0.000145                          2   4
  354        m_bcast_d                             0.003380                            4   3
  355      potlok_metagga                        0.000000                              1   2
  356      set_dd_magatom                        0.000004                              1   2
  357      set_dd_paw                            3.210890                              1   2
  358        m_sumb_d                              0.000505                            7   3
  359      augmentation_charge                   0.187379                              1   2
  360        fft3d_mpi                             0.075415                            2   3
  361          fftbrc_mpi                            0.061907                          2   4
  362            fftbas_plan_mpi                       0.061905                        2   5
  363              dfftw_execute                         0.031448                      6   6
  364              map_backward                          0.030214                      4   6
  365                map_gather                            0.007552                    2   7
  366                m_alltoallv_z                         0.015695                    2   7
  367                map_scatter                           0.006953                    2   7
  368      fftwav_mpi                            4.589034                           3528   2
  369        fftwav                                4.584661                         3528   3
  370          fft3d                                 4.212199                       3528   4
  371      densta                               11.591083                              1   2

 Flat profile

 set_dd_paw                            971.214522         303
 eddav                                 382.803380         305
 lapack                                350.195293      733092
 raccmu_                               313.954416      733092
 redis_pw                              183.293384     3946077
 m_sumb_d                              161.373469     2231802
 m_alltoall_d                           72.928335    10374721
 densta                                 52.511665         306
 orth1                                  38.885284     2199444
 eccp                                   38.468751      358680
 phaser                                 38.036184        7476
 fft3d                                  36.472093     4214889
 setdij_                                34.623190         329
 augmentation_charge                    34.466977         303
 redis_proj                             33.424723     5017444
 dfftw_execute                          26.624959        7716
 fftwav                                 26.390037     2784866
 hamiltmu                               23.390191      733092
 racc0mu_acc                            21.510124      733092
 w1_copy                                20.902894     4290069
 overl                                  20.625419     2501390
 total_time                             17.321312           1
 rpromu_acc                             16.789004      554148
 m_bcast_z                              16.229133      737796
 soft_charge                            14.494034         302
 setup_precond                          13.013697      358680
 m_bcast_d                              11.834512     1466795
 ggemm                                  11.546218      916092
 overl_mu                               11.307700      733092
 init_acc                               10.379837           1
 pw_charge                               8.975268      264684
 vhamil                                  6.529318     1430023
 kinhamil                                6.522389     1430023
 m_alltoallv_z                           6.281121       11679
 fftext_mpi                              6.077101     1430023
 apply_precond                           5.969756     1071343
 depsum                                  5.869567         302
 newband                                 5.649169      740412
 map_scatter                             5.506827       11679
 fft3d_mpi                               5.250695     1440472
 map_gather                              4.418923       11679
 fftwav_mpi                              3.777286     2784866
 set_charge                              3.650540         302
 acc_init_cublas                         2.437087           1
 broyd                                   1.834633         301
 potlok                                  1.579466         303
 rpro_isp                                0.800864         156
 acc_init_cusolver                       0.789448           1
 brmix                                   0.785756         301
 elmin                                   0.623274           1
 w1_projall                              0.558584      550092
 brget                                   0.558112       67487
 fftbas_plan_mpi                         0.552041       10449
 setg0                                   0.432197         303
 sphpro_fast                             0.322542           2
 rspher_all                              0.319121          14
 lincom                                  0.296270        7344
 brsav                                   0.156142       19389
 truncate_high_frequency_w1              0.139458     1788703
 acc_cufft_makeplan                      0.133990          19
 proall                                  0.091311           1
 map_forward                             0.066352        9856
 map_backward                            0.065487       11042
 orthch                                  0.043702           1
 fft_gq                                  0.035672         302
 force_and_stress                        0.027383           1
 pothar                                  0.027248         304
 stufak                                  0.023605           1
 choleski                                0.014466          24
 brpre                                   0.012625         602
 fftbrc_mpi                              0.006279       10449
 strnlr                                  0.006013           1
 inisym                                  0.004729           1
 forhar                                  0.002582           2
 strelo                                  0.002569           1
 fornlr                                  0.002116           1
 strkin                                  0.002027           1
 strehar                                 0.001976           1
 forloc                                  0.001517           1
 set_dd_magatom                          0.001412         303
 rsp                                     0.001340           1
 vectorpot                               0.001308         302
 fewald                                  0.000345           1
 brgrid                                  0.000270           1
 chggra                                  0.000259           1
 fordep                                  0.000183           1
 posmap                                  0.000112           2
 rcp                                     0.000049           1
 potlok_metagga                          0.000037         302
 crpa_reader                             0.000027           1
 acc_cufft_makeplans                     0.000010           3
 rotate_active_occupied_orbital          0.000000           1
 redis_pw_over_bands                     0.000000           1
  summed up times     3092.250694036484

 Accumulative profile

 total_time                           3092.250694           1
 elmin                                3026.153927           1
 eddav                                1857.661598         305
 set_dd_paw                            973.337325         303
 hamiltmu                              399.829537      733092
 lapack                                350.195293      733092
 raccmu_                               346.772241      733092
 redis_pw                              219.651855     3946077
 m_sumb_d                              161.373469     2231802
 set_charge                             98.885125         302
 newband                                85.532978      740412
 m_alltoall_d                           72.928335    10374721
 redis_proj                             69.994586     5017444
 setdij_                                61.051354         329
 fft3d_mpi                              58.886843     1440472
 fftwav_mpi                             56.525255     2784866
 augmentation_charge                    54.027542         303
 fftwav                                 52.747969     2784866
 densta                                 52.511665         306
 fftbrc_mpi                             43.521987       10449
 fftbas_plan_mpi                        43.515709       10449
 orth1                                  38.885284     2199444
 eccp                                   38.468751      358680
 phaser                                 38.036184        7476
 fft3d                                  36.472093     4214889
 soft_charge                            34.788901         302
 dfftw_execute                          26.624959        7716
 kinhamil                               23.137788     1430023
 racc0mu_acc                            21.510124      733092
 w1_copy                                20.902894     4290069
 overl                                  20.625419     2501390
 rpromu_acc                             16.789004      554148
 fftext_mpi                             16.615399     1430023
 w1_projall                             16.375283      550092
 m_bcast_z                              16.229133      737796
 setup_precond                          13.013697      358680
 m_bcast_d                              11.834512     1466795
 force_and_stress                       11.639507           1
 ggemm                                  11.546218      916092
 overl_mu                               11.307700      733092
 init_acc                               10.379837           1
 map_backward                            9.103398       11042
 pw_charge                               8.975268      264684
 map_forward                             7.235312        9856
 vhamil                                  6.529318     1430023
 m_alltoallv_z                           6.281121       11679
 depsum                                  5.986720         302
 apply_precond                           5.969756     1071343
 map_scatter                             5.506827       11679
 map_gather                              4.418923       11679
 brmix                                   3.900886         301
 potlok                                  3.204435         303
 broyd                                   2.644152         301
 acc_init_cublas                         2.437087           1
 strnlr                                  2.413298           1
 rpro_isp                                2.239867         156
 fordep                                  1.119062           1
 fft_gq                                  0.845825         302
 fornlr                                  0.814735           1
 acc_init_cusolver                       0.789448           1
 brget                                   0.558112       67487
 setg0                                   0.432197         303
 orthch                                  0.354138           1
 sphpro_fast                             0.336404           2
 rspher_all                              0.319121          14
 lincom                                  0.296270        7344
 proall                                  0.224036           1
 brsav                                   0.156142       19389
 truncate_high_frequency_w1              0.139458     1788703
 acc_cufft_makeplans                     0.134000           3
 acc_cufft_makeplan                      0.133990          19
 pothar                                  0.030051         304
 stufak                                  0.023605           1
 choleski                                0.014466          24
 brpre                                   0.012625         602
 inisym                                  0.004841           1
 fewald                                  0.002895           1
 forhar                                  0.002641           2
 strelo                                  0.002631           1
 strkin                                  0.002048           1
 strehar                                 0.001985           1
 forloc                                  0.001554           1
 set_dd_magatom                          0.001412         303
 rsp                                     0.001340           1
 vectorpot                               0.001308         302
 chggra                                  0.000896           1
 brgrid                                  0.000270           1
 posmap                                  0.000112           2
 rcp                                     0.000049           1
 potlok_metagga                          0.000037         302
 crpa_reader                             0.000027           1
 rotate_active_occupied_orbital          0.000000           1
 redis_pw_over_bands                     0.000000           1

Profiling took   8.867119  4.338423  0.003443  0.003328 seconds
Profiling took   5.589580 seconds