 vasp.6.3.2 27Jun22 (build Jun 29 2023 15:24:44) complex
 executed on    LinuxNV_CrayMPICH date 2024.04.25  12:49:55

 INCAR:
   ALGO = Fast
   EDIFF = 0.0001
   EDIFFG = -0.05
   ENCUT = 500
   GGA = Pe
   IBRION = 2
   ISIF = 0
   ISMEAR = 1
   ISPIN = 2
   ISTART = 1
   ISYM = 0
   LASPH = True
   LCHARG = False
   LDAU = True
   LDAUJ = 0 0
   LDAUL = 2 0
   LDAUPRINT = 0
   LDAUTYPE = 2
   LDAUU = 5.3 0
   LMAXMIX = 4
   LORBIT = 11
   LREAL = False
   LVTOT = False
   LWAVE = True
   MAGMOM = 2*-4.262 2*4.262 6*0.0
   NCORE = 4
   NELM = 80
   NSW = 300
   PREC = Accurate
   SIGMA = 0.14
   SYMPREC = 1e-10

 POTCAR:    PAW_PBE Fe_pv 02Aug2007
 POTCAR:    PAW_PBE O 08Apr2002
 POTCAR:    PAW_PBE Fe_pv 02Aug2007
   VRHFIN =Fe:  3pd7s1

   TITEL  = PAW_PBE Fe_pv 02Aug2007
   POMASS =   55.847; ZVAL   =   14.000    mass and valenz
   ENMAX  =  293.238; ENMIN  =  219.928 eV

   TITEL  = PAW_PBE O 08Apr2002
   POMASS =   16.000; ZVAL   =    6.000    mass and valenz
   ENMAX  =  400.000; ENMIN  =  300.000 eV

  PAW_PBE Fe_pv 02Aug2007               :
  PAW_PBE O 08Apr2002                   :

 POSCAR: Fe4 O6
  positions in direct lattice
 exchange correlation table for  LEXCH =        8
   RHO(1)=    0.500       N(1)  =     2000
   RHO(2)=  100.500       N(2)  =     4000

 VTST: version 4.2, (08/11/21)

 CHAIN: initializing optimizer

 OPT: Using VASP Conjugate-Gradient optimizer
 CHAIN: Read ICHAIN             0

 POSCAR: Fe4 O6
  positions in direct lattice

 ion  position               nearest neighbor table
   1  0.063  0.646  0.063-  10 1.98   6 1.98   8 1.98   7 2.13   5 2.13   9 2.13
   2  0.937  0.354  0.937-   9 1.98   5 1.98   7 1.98   8 2.13   6 2.13  10 2.13
   3  0.437  0.854  0.437-  10 1.98   8 1.98   6 1.98   5 2.13   7 2.13   9 2.13
   4  0.563  0.146  0.563-   9 1.98   7 1.98   5 1.98   6 2.13   8 2.13  10 2.13
   5  0.750  0.445  0.360-   2 1.98   4 1.98   3 2.13   1 2.13
   6  0.250  0.555  0.640-   1 1.98   3 1.98   4 2.13   2 2.13
   7  0.750  0.750  0.445-   4 1.98   2 1.98   3 2.13   1 2.13
   8  0.250  0.250  0.555-   3 1.98   1 1.98   4 2.13   2 2.13
   9  0.750  0.055  0.445-   2 1.98   4 1.98   3 2.13   1 2.13
  10  0.250  0.945  0.555-   1 1.98   3 1.98   4 2.13   2 2.13

IMPORTANT INFORMATION: All symmetrisations will be switched off!
NOSYMM: (Re-)initialisation of all symmetry stuff for point group C_1.

                                     Primitive cell

  volume of cell :     104.6680

  direct lattice vectors                    reciprocal lattice vectors
    -2.552438000  1.473653000  4.637793000     0.000001774 -0.000000927  0.215621071
    -0.000141000 -8.842041000 -0.000038000    -0.195891054 -0.113092627 -0.071874808
     2.552353000 -4.420980000 -0.000040000     0.391786288 -0.000007174  0.215624281

  length of vectors
     5.495062950  8.842041001  5.104857491     0.215621071  0.237337808  0.447202780

  position of ions in fractional coordinates (direct lattice)
     0.062526000  0.645825000  0.062523000
     0.937474000  0.354175000  0.937476000
     0.437484000  0.854170000  0.437489000
     0.562516000  0.145830000  0.562511000
     0.750007000  0.445121000  0.359759000
     0.249994000  0.554879000  0.640241000
     0.749995000  0.749999000  0.445123000
     0.250005000  0.250001000  0.554878000
     0.750001000  0.054890000  0.445110000
     0.249999000  0.945110000  0.554890000

  ion indices of the primitive-cell ions
   primitive index   ion index
                 1           1
                 2           2
                 3           3
                 4           4
                 5           5
                 6           6
                 7           7
                 8           8
                 9           9
                10          10

 KPOINTS: Automatic kpoint scheme

Automatic generation of k-mesh.
 Grid dimensions read from file:
 generate k-points for:   10    6   10

 Generating k-lattice:

  Cartesian coordinates                     Fractional coordinates (reciprocal lattice)
     0.000000177 -0.000000093  0.021562107     0.100000000 -0.000000000 -0.000000000
    -0.032648509 -0.018848771 -0.011979135     0.000000000  0.166666667 -0.000000000
     0.039178629 -0.000000717  0.021562428    -0.000000000  0.000000000  0.100000000

  Length of vectors
     0.021562107  0.039556301  0.044720278

  Shift w.r.t. Gamma in fractional coordinates (k-lattice)
     0.000000000  0.000000000  0.000000000

 Subroutine IBZKPT returns following result:

 Found    304 irreducible k-points:

 Following reciprocal coordinates:
            Coordinates               Weight
  0.000000  0.000000  0.000000      1.000000
  0.100000  0.000000  0.000000      2.000000
  0.200000  0.000000  0.000000      2.000000
  0.300000  0.000000  0.000000      2.000000
  0.400000  0.000000  0.000000      2.000000
  0.500000  0.000000  0.000000      1.000000
  0.000000  0.166667  0.000000      2.000000
  0.100000  0.166667  0.000000      2.000000
  0.200000  0.166667  0.000000      2.000000
  0.300000  0.166667  0.000000      2.000000
  0.400000  0.166667  0.000000      2.000000
  0.500000  0.166667  0.000000      2.000000
 -0.400000  0.166667  0.000000      2.000000
 -0.300000  0.166667  0.000000      2.000000
 -0.200000  0.166667  0.000000      2.000000
 -0.100000  0.166667  0.000000      2.000000
  0.000000  0.333333  0.000000      2.000000
  0.100000  0.333333  0.000000      2.000000
  0.200000  0.333333  0.000000      2.000000
  0.300000  0.333333  0.000000      2.000000
  0.400000  0.333333  0.000000      2.000000
  0.500000  0.333333  0.000000      2.000000
 -0.400000  0.333333  0.000000      2.000000
 -0.300000  0.333333  0.000000      2.000000
 -0.200000  0.333333  0.000000      2.000000
 -0.100000  0.333333  0.000000      2.000000
  0.000000  0.500000  0.000000      1.000000
  0.100000  0.500000  0.000000      2.000000
  0.200000  0.500000  0.000000      2.000000
  0.300000  0.500000  0.000000      2.000000
  0.400000  0.500000  0.000000      2.000000
  0.500000  0.500000  0.000000      1.000000
  0.000000  0.000000  0.100000      2.000000
  0.100000  0.000000  0.100000      2.000000
  0.200000  0.000000  0.100000      2.000000
  0.300000  0.000000  0.100000      2.000000
  0.400000  0.000000  0.100000      2.000000
  0.500000  0.000000  0.100000      2.000000
 -0.400000  0.000000  0.100000      2.000000
 -0.300000  0.000000  0.100000      2.000000
 -0.200000  0.000000  0.100000      2.000000
 -0.100000  0.000000  0.100000      2.000000
  0.000000  0.166667  0.100000      2.000000
  0.100000  0.166667  0.100000      2.000000
  0.200000  0.166667  0.100000      2.000000
  0.300000  0.166667  0.100000      2.000000
  0.400000  0.166667  0.100000      2.000000
  0.500000  0.166667  0.100000      2.000000
 -0.400000  0.166667  0.100000      2.000000
 -0.300000  0.166667  0.100000      2.000000
 -0.200000  0.166667  0.100000      2.000000
 -0.100000  0.166667  0.100000      2.000000
  0.000000  0.333333  0.100000      2.000000
  0.100000  0.333333  0.100000      2.000000
  0.200000  0.333333  0.100000      2.000000
  0.300000  0.333333  0.100000      2.000000
  0.400000  0.333333  0.100000      2.000000
  0.500000  0.333333  0.100000      2.000000
 -0.400000  0.333333  0.100000      2.000000
 -0.300000  0.333333  0.100000      2.000000
[...]
  0.100000  0.333333  0.500000      2.000000
  0.200000  0.333333  0.500000      2.000000
  0.300000  0.333333  0.500000      2.000000
  0.400000  0.333333  0.500000      2.000000
  0.500000  0.333333  0.500000      2.000000
 -0.400000  0.333333  0.500000      2.000000
 -0.300000  0.333333  0.500000      2.000000
 -0.200000  0.333333  0.500000      2.000000
 -0.100000  0.333333  0.500000      2.000000
  0.000000  0.500000  0.500000      1.000000
  0.100000  0.500000  0.500000      2.000000
  0.200000  0.500000  0.500000      2.000000
  0.300000  0.500000  0.500000      2.000000
  0.400000  0.500000  0.500000      2.000000
  0.500000  0.500000  0.500000      1.000000

 Following cartesian coordinates:
            Coordinates               Weight
  0.000000 -0.000000  0.000000      1.000000
  0.000000 -0.000000  0.021562      2.000000
  0.000000 -0.000000  0.043124      2.000000
  0.000001 -0.000000  0.064686      2.000000
  0.000001 -0.000000  0.086248      2.000000
  0.000001 -0.000000  0.107811      1.000000
 -0.032649 -0.018849 -0.011979      2.000000
 -0.032648 -0.018849  0.009583      2.000000
 -0.032648 -0.018849  0.031145      2.000000
 -0.032648 -0.018849  0.052707      2.000000
 -0.032648 -0.018849  0.074269      2.000000
 -0.032648 -0.018849  0.095831      2.000000
 -0.032649 -0.018848 -0.098228      2.000000
 -0.032649 -0.018848 -0.076665      2.000000
 -0.032649 -0.018849 -0.055103      2.000000
 -0.032649 -0.018849 -0.033541      2.000000
 -0.065297 -0.037698 -0.023958      2.000000
 -0.065297 -0.037698 -0.002396      2.000000
 -0.065297 -0.037698  0.019166      2.000000
 -0.065296 -0.037698  0.040728      2.000000
 -0.065296 -0.037698  0.062290      2.000000
 -0.065296 -0.037698  0.083852      2.000000
 -0.065298 -0.037697 -0.110207      2.000000
 -0.065298 -0.037697 -0.088645      2.000000
 -0.065297 -0.037697 -0.067082      2.000000
 -0.065297 -0.037697 -0.045520      2.000000
 -0.097946 -0.056546 -0.035937      1.000000
 -0.097945 -0.056546 -0.014375      2.000000
 -0.097945 -0.056546  0.007187      2.000000
 -0.097945 -0.056547  0.028749      2.000000
 -0.097945 -0.056547  0.050311      2.000000
 -0.097945 -0.056547  0.071873      1.000000
  0.039179 -0.000001  0.021562      2.000000
  0.039179 -0.000001  0.043125      2.000000
  0.039179 -0.000001  0.064687      2.000000
  0.039179 -0.000001  0.086249      2.000000
  0.039179 -0.000001  0.107811      2.000000
  0.039180 -0.000001  0.129373      2.000000
  0.039178 -0.000000 -0.064686      2.000000
  0.039178 -0.000000 -0.043124      2.000000
  0.039178 -0.000001 -0.021562      2.000000
  0.039178 -0.000001  0.000000      2.000000
  0.006530 -0.018849  0.009583      2.000000
  0.006530 -0.018850  0.031145      2.000000
  0.006530 -0.018850  0.052708      2.000000
  0.006531 -0.018850  0.074270      2.000000
  0.006531 -0.018850  0.095832      2.000000
  0.006531 -0.018850  0.117394      2.000000
  0.006529 -0.018849 -0.076665      2.000000
  0.006530 -0.018849 -0.055103      2.000000
  0.006530 -0.018849 -0.033541      2.000000
  0.006530 -0.018849 -0.011979      2.000000
 -0.026118 -0.037698 -0.002396      2.000000
 -0.026118 -0.037698  0.019166      2.000000
 -0.026118 -0.037698  0.040728      2.000000
 -0.026118 -0.037699  0.062290      2.000000
 -0.026118 -0.037699  0.083853      2.000000
 -0.026118 -0.037699  0.105415      2.000000
 -0.026119 -0.037698 -0.088644      2.000000
 -0.026119 -0.037698 -0.067082      2.000000
[...]
  0.130596 -0.037701  0.105416      2.000000
  0.130596 -0.037701  0.126978      2.000000
  0.130597 -0.037701  0.148540      2.000000
  0.130597 -0.037702  0.170102      2.000000
  0.130597 -0.037702  0.191664      2.000000
  0.130595 -0.037701 -0.002395      2.000000
  0.130596 -0.037701  0.019168      2.000000
  0.130596 -0.037701  0.040730      2.000000
  0.130596 -0.037701  0.062292      2.000000
[...]
  329                  map_gather                            0.000012                  2   8
  330                  m_alltoallv_z                         0.000245                  2   8
  331                  map_scatter                           0.000016                  2   8
  332          m_sumb_d                              0.000018                          2   4
  333          pothar                                0.000152                          1   4
  334            m_sumb_d                              0.000022                        1   5
  335        brmix                                 0.000532                            1   3
  336          m_sumb_d                              0.000051                          6   4
  337          brpre                                 0.000016                          2   4
  338          setg0                                 0.000124                          1   4
  339          broyd                                 0.000232                          1   4
  340            m_sumb_d                              0.000098                        9   5
  341            brget                                 0.000017                       19   5
  342            brsav                                 0.000007                        7   5
  343        m_bcast_d                             0.000061                            2   3
  344      potlok                                0.024781                              1   2
  345        fft3d_mpi                             0.005394                           26   3
  346          fftbrc_mpi                            0.004517                         26   4
  347            fftbas_plan_mpi                       0.004503                       26   5
  348              dfftw_execute                         0.001052                     78   6
  349              map_forward                           0.001695                     28   6
  350                map_gather                            0.000089                   16   7
  351                m_alltoallv_z                         0.001443                   16   7
  352                map_scatter                           0.000128                   16   7
  353              map_backward                          0.001544                     24   6
  354                map_gather                            0.000069                   12   7
  355                m_alltoallv_z                         0.001354                   12   7
  356                map_scatter                           0.000102                   12   7
  357        m_sumb_d                              0.000084                            5   3
  358        pothar                                0.000140                            1   3
  359          m_sumb_d                              0.000010                          1   4
  360        m_bcast_d                             0.001289                            2   3
  361      potlok_metagga                        0.000000                              1   2
  362      set_dd_magatom                        0.000000                              1   2
  363      set_dd_paw                            0.557369                              1   2
  364        set_rsgf_all                          0.000001                            1   3
  365        m_sumb_d                              0.557254                            7   3
  366      m_sumb_d                              2.379979                          38915   2
  367      densta                                0.487325                              1   2
  368        m_sumb_d                              0.159598                           36   3
  369        m_alltoall_d                          0.321363                            4   3
  370      m_alltoall_d                          0.000305                              2   2

 Flat profile

 lapack                                 11.283481        5224
 pdssyex_zheevx                          9.986062        1824
 m_alltoall_d                            6.810947      102518
 total_time                              6.744675           1
 m_sumb_d                                6.005739       44432
 fft3d                                   4.582851       32140
 m_bcast_z                               2.886995       44138
 fornl                                   1.612316           1
 fftext_mpi                              1.532877       12422
 gemm                                    1.482907       99900
 phase                                   0.949735        2433
 sphpro_fast                             0.671777           2
 vhamil                                  0.575949       12422
 proj1                                   0.562449        9990
 orth1                                   0.458725       18712
 redis_pw                                0.457672       22968
 eddav                                   0.411753           1
 fftwav                                  0.387462       19718
 eccp                                    0.370624       10846
 work_mul_crexp                          0.327613       99900
 w1_copy                                 0.258638       29970
 spher                                   0.234719           1
 choleski                                0.189328        1824
 m_bcast_d                               0.184818       10463
 ggemm                                   0.178305        6440
 w1_daxpy                                0.176381        9532
 lincom                                  0.171887        3648
 crexp_mul_wave                          0.153449       19980
 w1_dscal                                0.147061       11768
 pw_charge                               0.117808        4864
 eddiag                                  0.096383           2
 potlok                                  0.074574           4
 w1_gaxpy                                0.071003        6981
 vnlac0                                  0.061928        9990
 w1_gemv                                 0.060550       10878
 orthch                                  0.050951           3
 kinhamil                                0.049615       12422
 apply_precond                           0.044490       13421
 hamiltmu                                0.042406        8166
 overl1                                  0.042385       15429
 i2                                      0.037480        2942
 overl                                   0.037007       12272
 redis_proj                              0.031314       28800
 m_alltoallv_z                           0.026030         162
 setdij_                                 0.023035          12
 elmin                                   0.022615           1
 setup_precond                           0.019767        3648
 eccp_nl                                 0.018966        7198
 force_and_stress                        0.018414           1
 cnorma                                  0.017609        7198
 soft_charge                             0.013676           4
 fft3d_mpi                               0.012543       12568
 eddrmm                                  0.011918           2
 i3                                      0.011668        2942
 newband                                 0.011555        9990
 zhegv                                   0.011311        2334
 depsum                                  0.011233           4
 densta                                  0.010863           4
 w1_projall                              0.008670        6950
 fftwav_mpi                              0.007954       19718
 w1_dot                                  0.007602        2432
 augmentation_charge                     0.006825           4
 dfftw_execute                           0.006307         438
 hamilt_local                            0.002122        2432
 i1                                      0.002049        2942
 fftbas_plan_mpi                         0.001777         146
 rsp                                     0.001710           1
 map_gather                              0.001638         162
 map_scatter                             0.001609         162
 truncate_high_frequency_w1              0.001465       13638
 proj                                    0.001306         304
 brgrid                                  0.001070           1
 fewald                                  0.000813           1
 pothar                                  0.000681           5
 set_dd_paw                              0.000601           5
 forhar                                  0.000535           2
 chggra                                  0.000441           1
 setg0                                   0.000397           5
 brmix                                   0.000346           3
 stufak                                  0.000316           1
 broyd                                   0.000255           3
 proall                                  0.000224           1
 set_charge                              0.000219           4
 forloc                                  0.000187           1
 map_backward                            0.000157         154
 shift_bands_between_low_high            0.000156        1216
 map_forward                             0.000149         138
 fft_gq                                  0.000086           4
 brpre                                   0.000056           6
 fftbrc_mpi                              0.000048         146
 crpa_reader                             0.000031           1
 fordep                                  0.000030           1
 brget                                   0.000028          36
 brsav                                   0.000020          18
 rcp                                     0.000020           1
 FERMAT_RAZOR                            0.000008           1
 set_rsgf_all                            0.000006           5
 potlok_metagga                          0.000001           4
 rotate_active_occupied_orbital          0.000001           1
 redis_pw_over_bands                     0.000001           1
 vectorpot                               0.000000           4
 set_dd_magatom                          0.000000           5
  summed up times     60.91420698165894

 Accumulative profile

 total_time                             60.914207           1
 elmin                                  43.495164           1
 eddav                                  25.388797           1
 lapack                                 11.283481        5224
 pdssyex_zheevx                          9.986069        1824
 eddiag                                  8.942049           2
 m_alltoall_d                            6.810947      102518
 m_sumb_d                                6.005739       44432
 eddrmm                                  5.932581           2
 hamiltmu                                5.341145        8166
 fft3d                                   4.582851       32140
 kinhamil                                3.348001       12422
 fftext_mpi                              3.298386       12422
 fftwav_mpi                              3.218152       19718
 fftwav                                  3.210198       19718
 m_bcast_z                               2.886995       44138
 set_dd_paw                              2.738674           5
 redis_pw                                2.666332       22968
 force_and_stress                        2.562785           1
 redis_proj                              2.171277       28800
 orthch                                  2.097718           3
 vnlac0                                  1.872448        9990
 fft3d_mpi                               1.810373       12568
 fornl                                   1.724944           1
 gemm                                    1.482907       99900
 i2                                      1.076401        2942
 newband                                 0.951964        9990
 phase                                   0.949735        2433
 set_charge                              0.943915           4
 soft_charge                             0.920088           4
 sphpro_fast                             0.736689           2
 proj1                                   0.715899        9990
 i3                                      0.643335        2942
 w1_projall                              0.636416        6950
 vhamil                                  0.575949       12422
 hamilt_local                            0.529769        2432
 densta                                  0.500695           4
 orth1                                   0.458725       18712
 eccp                                    0.370624       10846
 work_mul_crexp                          0.327613       99900
 w1_copy                                 0.258638       29970
 spher                                   0.234719           1
 proall                                  0.209280           1
 choleski                                0.189328        1824
 m_bcast_d                               0.184818       10463
 ggemm                                   0.178305        6440
 w1_daxpy                                0.176381        9532
 lincom                                  0.171887        3648
 crexp_mul_wave                          0.153449       19980
 w1_dscal                                0.147061       11768
 pw_charge                               0.117808        4864
 potlok                                  0.113460           4
 proj                                    0.089459         304
 w1_gemv                                 0.072946       10878
 w1_gaxpy                                0.071003        6981
 setdij_                                 0.053344          12
 apply_precond                           0.044490       13421
 overl1                                  0.042385       15429
 fftbrc_mpi                              0.037714         146
 fftbas_plan_mpi                         0.037666         146
 overl                                   0.037007       12272
 cnorma                                  0.036575        7198
 i1                                      0.028696        2942
 m_alltoallv_z                           0.026030         162
 setup_precond                           0.019767        3648
 eccp_nl                                 0.018966        7198
 map_backward                            0.015574         154
 map_forward                             0.014008         138
 fordep                                  0.013089           1
 depsum                                  0.013022           4
 zhegv                                   0.011311        2334
 augmentation_charge                     0.010586           4
 w1_dot                                  0.007602        2432
 fft_gq                                  0.006621           4
 dfftw_execute                           0.006307         438
 fewald                                  0.002819           1
 rsp                                     0.001710           1
 brmix                                   0.001671           3
 map_gather                              0.001638         162
 map_scatter                             0.001609         162
 truncate_high_frequency_w1              0.001465       13638
 chggra                                  0.001174           1
 brgrid                                  0.001070           1
 pothar                                  0.000911           5
 forhar                                  0.000586           2
 broyd                                   0.000577           3
 setg0                                   0.000397           5
 stufak                                  0.000316           1
 forloc                                  0.000216           1
 shift_bands_between_low_high            0.000156        1216
 brpre                                   0.000056           6
 crpa_reader                             0.000031           1
 brget                                   0.000028          36
 brsav                                   0.000020          18
 rcp                                     0.000020           1
 FERMAT_RAZOR                            0.000008           1
 set_rsgf_all                            0.000006           5
 potlok_metagga                          0.000001           4
 rotate_active_occupied_orbital          0.000001           1
 redis_pw_over_bands                     0.000001           1
 vectorpot                               0.000000           4
 set_dd_magatom                          0.000000           5

Profiling took   0.127693  0.073009  0.003495  0.003421 seconds
Profiling took   0.084880 seconds