 vasp.6.3.2 27Jun22 (build Jul  3 2023 11:46:21) complex
 executed on    LinuxNV_CrayMPICH date 2024.04.22  03:28:49

 INCAR:
   ADDGRID = True
   ALGO = Normal
   EDIFF = 0.0002
   ENCUT = 520.0
   IBRION = -1
   ICHARG = 0
   ISIF = 3
   ISMEAR = -5
   ISPIN = 2
   ISTART = 1
   KPOINT_BSE = -1 0 0 0
   LAECHG = True
   LASPH = True
   LCHARG = True
   LELF = True
   LORBIT = 11
   LREAL = Auto
   LVHAR = True
   LWAVE = False
   MAGMOM = 2*7.0 2*0.6
   NELM = 1000
   NSW = 0
   PREC = accurate
   SIGMA = 0.05

 POTCAR:    PAW_PBE Gd 23Dec2003
 POTCAR:    PAW_PBE Ru_pv 28Jan2005
 POTCAR:    PAW_PBE Rh_pv 25Jan2005
 POTCAR:    PAW_PBE Gd 23Dec2003
   VRHFIN =Gd : [core=Xe4]

   TITEL  = PAW_PBE Gd 23Dec2003
   POMASS =  157.250; ZVAL   =   18.000    mass and valenz
   ENMAX  =  256.472; ENMIN  =  192.354 eV

   TITEL  = PAW_PBE Ru_pv 28Jan2005
   POMASS =  101.070; ZVAL   =   14.000    mass and valenz
   ENMAX  =  240.049; ENMIN  =  180.037 eV

   TITEL  = PAW_PBE Rh_pv 25Jan2005
   POMASS =  102.906; ZVAL   =   15.000    mass and valenz
   ENMAX  =  247.408; ENMIN  =  185.556 eV

 Optimization of the real space projectors (new method)

 maximal supplied QI-value         = 13.42
 optimisation between [QCUT,QGAM] = [ 11.67, 23.35] = [ 38.16,152.62] Ry
 Optimized for a Real-space Cutoff    1.63 Angstroem

   l    n(q)    QCUT    max X(q) W(low)/X(q) W(high)/X(q)  e(spline)
   0     11    11.673    10.501    0.14E-04    0.17E-05    0.21E-07
   0     11    11.673     9.148    0.21E-04    0.32E-05    0.45E-07
   1     11    11.673     4.035    0.33E-05    0.11E-04    0.84E-07
   1     11    11.673     4.388    0.11E-04    0.47E-04    0.34E-06
   2     10    11.673    20.656    0.12E-04    0.28E-04    0.54E-06
   2     10    11.673    12.651    0.11E-04    0.26E-04    0.51E-06
   3     10    11.673    61.921    0.19E-03    0.22E-03    0.23E-06
   3     10    11.673    48.328    0.20E-03    0.23E-03    0.23E-06
 Optimization of the real space projectors (new method)

[...]

   l    n(q)    QCUT    max X(q) W(low)/X(q) W(high)/X(q)  e(spline)
   1     10    11.641     3.180    0.30E-04    0.36E-05    0.54E-07
   1     10    11.641     5.351    0.12E-03    0.51E-04    0.30E-06
   2      9    11.641    66.565    0.22E-03    0.78E-04    0.20E-06
   2      9    11.641    63.466    0.22E-03    0.79E-04    0.20E-06
   0     10    11.641    85.644    0.61E-04    0.23E-04    0.12E-06
   0     10    11.641    44.119    0.56E-04    0.21E-04    0.11E-06
 Optimization of the real space projectors (new method)

 maximal supplied QI-value         = 15.68
 optimisation between [QCUT,QGAM] = [ 11.61, 23.21] = [ 37.72,150.90] Ry
 Optimized for a Real-space Cutoff    1.45 Angstroem

   l    n(q)    QCUT    max X(q) W(low)/X(q) W(high)/X(q)  e(spline)
   1     10    11.607     3.143    0.27E-04    0.48E-04    0.10E-06
   1     10    11.607     5.034    0.71E-04    0.17E-03    0.32E-06
   2      9    11.607    64.180    0.22E-03    0.59E-04    0.28E-06
   2      9    11.607    61.342    0.22E-03    0.61E-04    0.29E-06
   0     10    11.607    55.593    0.52E-04    0.32E-04    0.17E-06
   0     10    11.607    26.178    0.47E-04    0.29E-04    0.15E-06
  PAW_PBE Gd 23Dec2003                  :
  PAW_PBE Ru_pv 28Jan2005               :
  PAW_PBE Rh_pv 25Jan2005               :

 POSCAR: Gd2 Ru1 Rh1
  positions in direct lattice
 exchange correlation table for  LEXCH =        8
   RHO(1)=    0.500       N(1)  =     2000
   RHO(2)=  100.500       N(2)  =     4000

 VTST: version 4.2, (08/11/21)

 CHAIN: initializing optimizer

 OPT: Using VASP Dynamics algorithm
 CHAIN: Read ICHAIN             0

 POSCAR: Gd2 Ru1 Rh1
  positions in direct lattice

 ion  position               nearest neighbor table
   1  0.250  0.250  0.250-   3 2.99   3 2.99   3 2.99   3 2.99   4 2.99   4 2.99   4 2.99   4 2.99
                             2 3.45   2 3.45   2 3.45   2 3.45   2 3.45   2 3.45
   2  0.750  0.750  0.750-   4 2.99   4 2.99   4 2.99   3 2.99   4 2.99   3 2.99   3 2.99   3 2.99
                             1 3.45   1 3.45   1 3.45   1 3.45   1 3.45   1 3.45
   3  0.000  0.000  0.000-   2 2.99   2 2.99   2 2.99   1 2.99   2 2.99   1 2.99   1 2.99   1 2.99

   4  0.500  0.500  0.500-   1 2.99   1 2.99   1 2.99   1 2.99   2 2.99   2 2.99   2 2.99   2 2.99

  LATTYP: Found a face centered cubic cell.
 ALAT       =     6.9044340000

  Lattice vectors:

 A1 = (   0.0000000000,   3.4522170000,   3.4522170000)
 A2 = (   3.4522170000,   0.0000000000,   3.4522170000)
 A3 = (   3.4522170000,   3.4522170000,   0.0000000000)

Analysis of symmetry for initial positions (statically):
 Subroutine PRICEL returns:
 Original cell was already a primitive cell.

 Routine SETGRP: Setting up the symmetry group for a
 face centered cubic supercell.

 Subroutine GETGRP returns: Found 48 space group operations
 (whereof 48 operations were pure point group operations)
 out of a pool of 48 trial point group operations.

The static configuration has the point symmetry O_h .

Analysis of symmetry for dynamics (positions and initial velocities):
 Subroutine PRICEL returns:
 Original cell was already a primitive cell.

[...]

The dynamic configuration has the point symmetry O_h .

Analysis of structural, dynamic, and magnetic symmetry:
 Subroutine PRICEL returns:
 Original cell was already a primitive cell.

 Routine SETGRP: Setting up the symmetry group for a
 face centered cubic supercell.

 Subroutine GETGRP returns: Found 48 space group operations
 (whereof 48 operations were pure point group operations)
 out of a pool of 48 trial point group operations.

The overall configuration has the point symmetry O_h .

 Subroutine INISYM returns: Found 48 space group operations
 (whereof 48 operations are pure point group operations),
 and found     1 'primitive' translations

                                     Primitive cell

  volume of cell :      82.2857

  direct lattice vectors                    reciprocal lattice vectors
     0.000000000  3.452217000  3.452217000    -0.144834464  0.144834464  0.144834464
     3.452217000  0.000000000  3.452217000     0.144834464 -0.144834464  0.144834464
     3.452217000  3.452217000  0.000000000     0.144834464  0.144834464 -0.144834464

  length of vectors
     4.882172102  4.882172102  4.882172102     0.250860651  0.250860651  0.250860651

  position of ions in fractional coordinates (direct lattice)
     0.250000000  0.250000000  0.250000000
     0.750000000  0.750000000  0.750000000
     0.000000000  0.000000000  0.000000000
     0.500000000  0.500000000  0.500000000

  ion indices of the primitive-cell ions
   primitive index   ion index
                 1           1
                 2           2
                 3           3
                 4           4

 KPOINTS: Kpoints from vasprun.xml

Automatic generation of k-mesh.
 Grid dimensions read from file:
 generate k-points for:    6    6    6

 Generating k-lattice:

  Cartesian coordinates                     Fractional coordinates (reciprocal lattice)
    -0.024139077  0.024139077  0.024139077     0.166666667  0.000000000  0.000000000
     0.024139077 -0.024139077  0.024139077     0.000000000  0.166666667 -0.000000000
     0.024139077  0.024139077 -0.024139077    -0.000000000 -0.000000000  0.166666667

  Length of vectors
     0.041810108  0.041810108  0.041810108

  Shift w.r.t. Gamma in fractional coordinates (k-lattice)
     0.000000000  0.000000000  0.000000000

 TETIRR: Found     35 inequivalent tetrahedra from     1296

 Subroutine IBZKPT returns following result:

 Found     16 irreducible k-points:

 Following reciprocal coordinates:
            Coordinates               Weight
  0.000000  0.000000  0.000000      1.000000
  0.166667  0.000000  0.000000      8.000000
  0.333333  0.000000  0.000000      8.000000
  0.500000  0.000000  0.000000      4.000000
  0.166667  0.166667  0.000000      6.000000
  0.333333  0.166667  0.000000     24.000000
  0.500000  0.166667  0.000000     24.000000
 -0.333333  0.166667  0.000000     24.000000
 -0.166667  0.166667  0.000000     12.000000
  0.333333  0.333333  0.000000      6.000000
  0.500000  0.333333  0.000000     24.000000
 -0.333333  0.333333  0.000000     12.000000
  0.500000  0.500000  0.000000      3.000000
  0.500000  0.333333  0.166667     24.000000
 -0.333333  0.333333  0.166667     24.000000
 -0.333333  0.500000  0.166667     12.000000

 Following cartesian coordinates:
            Coordinates               Weight
  0.000000  0.000000  0.000000      1.000000
 -0.024139  0.024139  0.024139      8.000000
 -0.048278  0.048278  0.048278      8.000000
 -0.072417  0.072417  0.072417      4.000000
  0.000000  0.000000  0.048278      6.000000
 -0.024139  0.024139  0.072417     24.000000
 -0.048278  0.048278  0.096556     24.000000
  0.072417 -0.072417 -0.024139     24.000000
  0.048278 -0.048278  0.000000     12.000000
  0.000000  0.000000  0.096556      6.000000
 -0.024139  0.024139  0.120695     24.000000
  0.096556 -0.096556  0.000000     12.000000
  0.000000  0.000000  0.144834      3.000000
  0.000000  0.048278  0.096556     24.000000
  0.120695 -0.072417 -0.024139     24.000000
  0.144834 -0.096556  0.000000     12.000000

 SYSTEM =  unknown system
 POSCAR =  Gd2 Ru1 Rh1

 Startparameter for this run:
   NWRITE =      2    write-flag & timer
   PREC   = accura    normal or accurate (medium, high low for compatibility)
   ISTART =      0    job   : 0-new  1-cont  2-samecut
   ICHARG =      2    charge: 1-file 2-atom 10-const
   ISPIN  =      2    spin polarized calculation?
   LNONCOLLINEAR =      F non collinear calculations
   LSORBIT =      F    spin-orbit coupling
   INIWAV =      1    electr: 0-lowe 1-rand  2-diag
   LASPH  =      T    aspherical Exc in radial PAW
 Electronic Relaxation 1
   ENCUT  =  520.0 eV  38.22 Ry    6.18 a.u.   9.08  9.08  9.08*2*pi/ulx,y,z
   ENINI  =  520.0     initial cutoff
   ENAUG  =  537.2 eV  augmentation charge cutoff
   NELM   =   1000;   NELMIN=  2; NELMDL=  0     # of ELM steps
   EDIFF  = 0.2E-03   stopping-criterion for ELM
   LREAL  =      T    real-space projection
   NLSPLINE    = F    spline interpolate recip. space projectors
   LCOMPAT=      F    compatible to vasp.4.4
   GGA_COMPAT  = T    GGA compatible to vasp.4.4-vasp.4.6
   LMAXPAW     = -100 max onsite density
   LMAXMIX     =    2 max onsite mixed and CHGCAR
   VOSKOWN=      0    Vosko Wilk Nusair interpolation
   ROPT   =   -0.00025  -0.00025  -0.00025
 Ionic relaxation
   EDIFFG = 0.2E-02   stopping-criterion for IOM
   NSW    =      0    number of steps for IOM
   NBLOCK =      1;   KBLOCK =      1    inner block; outer block
   IBRION =     -1    ionic relax: 0-MD 1-quasi-New 2-CG
   NFREE  =      0    steps in history (QN), initial steepest desc. (CG)
   ISIF   =      3    stress and relaxation
   IWAVPR =     10    prediction:  0-non 1-charg 2-wave 3-comb
   ISYM   =      2    0-nonsym 1-usesym 2-fastsym
   LCORR  =      T    Harris-Foulkes like correction to forces

   POTIM  = 0.5000    time-step for ionic-motion
   TEIN   =    0.0    initial temperature
   TEBEG  =    0.0;   TEEND  =   0.0 temperature during run
   SMASS  =  -3.00    Nose mass-parameter (am)
[...]
  290                map_forward                           0.000171                    4   7
  291                  map_gather                            0.000039                  2   8
  292                  m_alltoallv_z                         0.000023                  2   8
  293                  map_scatter                           0.000083                  2   8
  294                map_backward                          0.000073                    2   7
  295                  map_gather                            0.000018                  1   8
  296                  m_alltoallv_z                         0.000010                  1   8
  297                  map_scatter                           0.000032                  1   8
  298          m_sumb_d                              0.000012                          2   4
  299          pothar                                0.000075                          1   4
  300            m_sumb_d                              0.000009                        1   5
  301        brmix                                 0.001431                            1   3
  302          m_sumb_d                              0.000026                          6   4
  303          brpre                                 0.000015                          2   4
  304          setg0                                 0.000348                          1   4
  305          broyd                                 0.000649                          1   4
  306            m_sumb_d                              0.000081                       20   5
  307            brget                                 0.000180                       74   5
  308            brsav                                 0.000045                       18   5
  309        m_bcast_d                             0.000017                            2   3
  310      potlok                                0.015612                              2   2
  311        fft3d_mpi                             0.010444                           36   3
  312          fftbrc_mpi                            0.008954                         36   4
  313            fftbas_plan_mpi                       0.008933                       36   5
  314              map_forward                           0.002605                     40   6
  315                map_gather                            0.000888                   24   7
  316                m_alltoallv_z                         0.000690                   24   7
  317                map_scatter                           0.000855                   24   7
  318              map_backward                          0.002124                     32   6
  319                map_gather                            0.000740                   16   7
  320                m_alltoallv_z                         0.000494                   16   7
  321                map_scatter                           0.000729                   16   7
  322              dfftw_execute                         0.002658                     30   6
  323        m_sumb_d                              0.000022                            5   3
  324        pothar                                0.000597                            2   3
  325          m_sumb_d                              0.000063                          2   4
  326        m_bcast_d                             0.000862                            4   3
  327      potlok_metagga                        0.000000                              1   2
  328      set_dd_magatom                        0.000004                              1   2
  329      set_dd_paw                            0.939696                              1   2
  330        m_sumb_d                              0.461965                            7   3
  331      augmentation_charge                   0.063964                              1   2
  332        fft3d_mpi                             0.014653                            2   3
  333          fftbrc_mpi                            0.013053                          2   4
  334            fftbas_plan_mpi                       0.013051                        2   5
  335              dfftw_execute                         0.008600                      6   6
  336              map_backward                          0.004232                      4   6
  337                map_gather                            0.001073                    2   7
  338                m_alltoallv_z                         0.002272                    2   7
  339                map_scatter                           0.000881                    2   7
  340      fftwav_mpi                            0.402039                           1152   2
  341        fftwav                                0.400570                         1152   3
  342          fft3d                                 0.383123                       1152   4
  343      densta                                0.336326                              1   2

 Flat profile

 init_acc                               11.472680           1
 m_sumb_d                               10.412490       42680
 set_dd_paw                              7.537462          16
 total_time                              6.856207           1
 lapack                                  6.244734       13480
 eddav                                   6.208709          18
 raccmu_                                 3.828391       13480
 acc_init_cublas                         2.426354           1
 redis_pw                                2.416041       75184
 setdij_                                 1.964711          42
 m_alltoall_d                            1.475439      197552
 phaser                                  0.983267         784
 fft3d                                   0.981793       83931
 acc_init_cusolver                       0.788528           1
 augmentation_charge                     0.758505          15
 dfftw_execute                           0.685284         816
 redis_proj                              0.637165       95264
 eccp                                    0.580291        6912
 fftwav                                  0.576742       56971
 densta                                  0.574914          19
 rpromu_acc                              0.490236       11272
 orth1                                   0.441806       40504
 racc0mu_acc                             0.394028       13480
 overl                                   0.385952       47040
 w1_copy                                 0.385757       80880
 m_alltoallv_z                           0.311136         767
 m_bcast_z                               0.299562       15016
 rpro_isp                                0.296268         208
 soft_charge                             0.290660          14
 hamiltmu                                0.271204       13480
 setup_precond                           0.248545        6912
 m_bcast_d                               0.226264       26997
 overl_mu                                0.204145       13480
 ggemm                                   0.170108       16936
 acc_cufft_makeplan                      0.151972          19
 newband                                 0.139872       14056
 vhamil                                  0.121873       26960
 kinhamil                                0.121582       26960
 fft3d_mpi                               0.121530       27647
 fftext_mpi                              0.114179       26960
 apply_precond                           0.108846       20048
 rspher_all                              0.099274          14
 pw_charge                               0.091725        3819
 depsum                                  0.088205          14
 map_gather                              0.085798         767
 map_scatter                             0.079175         767
 fftwav_mpi                              0.075984       56971
 set_charge                              0.055034          14
 fftbas_plan_mpi                         0.053770         687
 potlok                                  0.051789          16
 proall                                  0.040951           1
 elmin                                   0.037921           1
 sphpro_fast                             0.027926           2
 lincom                                  0.021614         608
 w1_projall                              0.009845       10024
 force_and_stress                        0.008146           1
 orthch                                  0.007869           1
 choleski                                0.007491          32
 brmix                                   0.005914          14
 broyd                                   0.005005          14
 setg0                                   0.004872          16
 inisym                                  0.004806           1
 strnlr                                  0.004148           1
 map_backward                            0.003042         702
 map_forward                             0.002983         672
 truncate_high_frequency_w1              0.002708       33872
 pothar                                  0.001606          17
 stufak                                  0.001476           1
 fornlr                                  0.001441           1
 brget                                   0.001385         575
 forhar                                  0.000925           2
 strelo                                  0.000836           1
 strehar                                 0.000631           1
 forloc                                  0.000506           1
 fftbrc_mpi                              0.000399         687
 brsav                                   0.000398         163
 fewald                                  0.000326           1
 brpre                                   0.000243          28
 chggra                                  0.000230           1
 fft_gq                                  0.000212          14
 strkin                                  0.000204           1
 brgrid                                  0.000088           1
 set_dd_magatom                          0.000067          16
 vectorpot                               0.000061          15
 rsp                                     0.000049           1
 fordep                                  0.000044           1
 posmap                                  0.000034           2
 crpa_reader                             0.000028           1
 acc_cufft_makeplans                     0.000011           3
 rcp                                     0.000011           1
 rotate_active_occupied_orbital          0.000000           1
 redis_pw_over_bands                     0.000000           1
 potlok_metagga                          0.000000          15
  summed up times     73.59243679046631

 Accumulative profile

 total_time                             73.592437           1
 elmin                                  45.750112           1
 eddav                                  29.782189          18
 set_dd_paw                             14.895701          16
 init_acc                               11.472680           1
 m_sumb_d                               10.412490       42680
 lapack                                  6.244734       13480
 hamiltmu                                5.250656       13480
 raccmu_                                 4.426563       13480
 force_and_stress                        3.753451           1
 redis_pw                                3.080589       75184
 setdij_                                 2.785515          42
 acc_init_cublas                         2.426354           1
 set_charge                              1.594347          14
 fft3d_mpi                               1.530059       27647
 m_alltoall_d                            1.475439      197552
 newband                                 1.467426       14056
 redis_proj                              1.448056       95264
 fftwav_mpi                              1.447576       56971
 fftwav                                  1.371593       56971
 fftbrc_mpi                              1.221587         687
 fftbas_plan_mpi                         1.221188         687
 augmentation_charge                     0.983494          15
 phaser                                  0.983267         784
 fft3d                                   0.981793       83931
 acc_init_cusolver                       0.788528           1
 strnlr                                  0.723375           1
 dfftw_execute                           0.685284         816
 rpro_isp                                0.648808         208
 eccp                                    0.580291        6912
 densta                                  0.574914          19
 soft_charge                             0.523037          14
 rpromu_acc                              0.490236       11272
 orth1                                   0.441806       40504
 kinhamil                                0.431016       26960
 fordep                                  0.398710           1
 racc0mu_acc                             0.394028       13480
 overl                                   0.385952       47040
 w1_copy                                 0.385757       80880
 map_forward                             0.341015         672
 m_alltoallv_z                           0.311136         767
 fftext_mpi                              0.309434       26960
 m_bcast_z                               0.299562       15016
 w1_projall                              0.295181       10024
 potlok                                  0.262824          16
 setup_precond                           0.248545        6912
 fornlr                                  0.242009           1
 m_bcast_d                               0.226264       26997
 orthch                                  0.221821           1
 overl_mu                                0.204145       13480
 ggemm                                   0.170108       16936
 acc_cufft_makeplans                     0.151983           3
 acc_cufft_makeplan                      0.151972          19
 map_backward                            0.141119         702
 vhamil                                  0.121873       26960
 apply_precond                           0.108846       20048
 rspher_all                              0.099274          14
 pw_charge                               0.091725        3819
 depsum                                  0.089030          14
 map_gather                              0.085798         767
 proall                                  0.083731           1
 map_scatter                             0.079175         767
 sphpro_fast                             0.028691           2
 lincom                                  0.021614         608
 brmix                                   0.019123          14
 fft_gq                                  0.011150          14
 broyd                                   0.007638          14
 choleski                                0.007491          32
 setg0                                   0.004872          16
 inisym                                  0.004840           1
 truncate_high_frequency_w1              0.002708       33872
 pothar                                  0.001786          17
 stufak                                  0.001476           1
 brget                                   0.001385         575
 forhar                                  0.000934           2
 strelo                                  0.000846           1
 chggra                                  0.000739           1
 strehar                                 0.000711           1
 forloc                                  0.000556           1
 fewald                                  0.000442           1
 brsav                                   0.000398         163
 brpre                                   0.000243          28
 strkin                                  0.000209           1
 brgrid                                  0.000088           1
 set_dd_magatom                          0.000067          16
 vectorpot                               0.000061          15
 rsp                                     0.000049           1
 posmap                                  0.000034           2
 crpa_reader                             0.000028           1
 rcp                                     0.000011           1
 rotate_active_occupied_orbital          0.000000           1
 redis_pw_over_bands                     0.000000           1
 potlok_metagga                          0.000000          15

Profiling took   0.172858  0.087044  0.003486  0.003404 seconds
Profiling took   0.108368 seconds