 vasp.6.3.2 27Jun22 (build Jul  3 2023 11:46:21) complex
 executed on    LinuxNV_CrayMPICH date 2024.04.22  00:29:43

 INCAR:
   ADDGRID = True
   ALGO = Normal
   EDIFF = 0.0002
   ENCUT = 520.0
   IBRION = -1
   ICHARG = 0
   ISIF = 3
   ISMEAR = -5
   ISPIN = 2
   ISTART = 1
   KPOINT_BSE = -1 0 0 0
   LAECHG = True
   LASPH = True
   LCHARG = True
   LELF = True
   LORBIT = 11
   LREAL = Auto
   LVHAR = True
   LWAVE = False
   MAGMOM = 1*7.0 3*0.6
   NELM = 1000
   NSW = 0
   PREC = accurate
   SIGMA = 0.05

 POTCAR:    PAW_PBE Gd 23Dec2003
 POTCAR:    PAW_PBE Y_sv 25May2007
 POTCAR:    PAW_PBE Ir 06Sep2000
 POTCAR:    PAW_PBE Gd 23Dec2003
   VRHFIN =Gd : [core=Xe4]

   TITEL  = PAW_PBE Gd 23Dec2003
   POMASS =  157.250; ZVAL   =   18.000    mass and valenz
   ENMAX  =  256.472; ENMIN  =  192.354 eV

   TITEL  = PAW_PBE Y_sv 25May2007
   POMASS =   88.906; ZVAL   =   11.000    mass and valenz
   ENMAX  =  202.626; ENMIN  =  151.970 eV

   TITEL  = PAW_PBE Ir 06Sep2000
   POMASS =  192.220; ZVAL   =    9.000    mass and valenz
   ENMAX  =  210.864; ENMIN  =  158.148 eV

 Optimization of the real space projectors (new method)

 maximal supplied QI-value         = 13.42
 optimisation between [QCUT,QGAM] = [ 11.67, 23.35] = [ 38.16,152.62] Ry
 Optimized for a Real-space Cutoff    1.63 Angstroem

   l    n(q)    QCUT    max X(q) W(low)/X(q) W(high)/X(q)  e(spline)
   0     11    11.673    10.501    0.14E-04    0.17E-05    0.21E-07
   0     11    11.673     9.148    0.21E-04    0.32E-05    0.45E-07
   1     11    11.673     4.035    0.33E-05    0.11E-04    0.84E-07
   1     11    11.673     4.388    0.11E-04    0.47E-04    0.34E-06
   2     10    11.673    20.656    0.12E-04    0.28E-04    0.54E-06
   2     10    11.673    12.651    0.11E-04    0.26E-04    0.51E-06
   3     10    11.673    61.921    0.19E-03    0.22E-03    0.23E-06
   3     10    11.673    48.328    0.20E-03    0.23E-03    0.23E-06
 Optimization of the real space projectors (new method)

[...]

   l    n(q)    QCUT    max X(q) W(low)/X(q) W(high)/X(q)  e(spline)
   0     12    11.673    14.902    0.22E-04    0.24E-05    0.52E-07
   0     12    11.673     9.294    0.34E-04    0.58E-05    0.89E-07
   1     11    11.673    69.520    0.10E-04    0.47E-04    0.49E-06
   1     11    11.673    72.085    0.10E-04    0.48E-04    0.50E-06
   2     11    11.673    62.934    0.94E-04    0.14E-04    0.82E-06
   2     11    11.673    49.749    0.91E-04    0.13E-04    0.79E-06
   3     10    11.673     8.311    0.92E-04    0.21E-04    0.59E-06
 Optimization of the real space projectors (new method)

 maximal supplied QI-value         = 14.36
 optimisation between [QCUT,QGAM] = [ 11.63, 23.27] = [ 37.90,151.59] Ry
 Optimized for a Real-space Cutoff    1.63 Angstroem

   l    n(q)    QCUT    max X(q) W(low)/X(q) W(high)/X(q)  e(spline)
   2     10    11.633   134.116    0.23E-03    0.25E-04    0.92E-06
   2     10    11.633   130.192    0.23E-03    0.25E-04    0.92E-06
   0     11    11.633    60.310    0.44E-04    0.29E-04    0.76E-06
   0     11    11.633    39.218    0.38E-04    0.27E-04    0.71E-06
   1     11    11.633    18.439    0.37E-04    0.62E-04    0.19E-06
   1     11    11.633    12.760    0.29E-04    0.50E-04    0.16E-06
  PAW_PBE Gd 23Dec2003                  :
  PAW_PBE Y_sv 25May2007                :
  PAW_PBE Ir 06Sep2000                  :

 POSCAR: Gd1 Y1 Ir2
  positions in direct lattice
 exchange correlation table for  LEXCH =        8
   RHO(1)=    0.500       N(1)  =     2000
   RHO(2)=  100.500       N(2)  =     4000

 VTST: version 4.2, (08/11/21)

 CHAIN: initializing optimizer

 OPT: Using VASP Dynamics algorithm
 CHAIN: Read ICHAIN             0

 POSCAR: Gd1 Y1 Ir2
  positions in direct lattice

 ion  position               nearest neighbor table
   1  0.500  0.500  0.500-   3 2.99   3 2.99   3 2.99   3 2.99   4 2.99   4 2.99   4 2.99   4 2.99
                             2 3.45   2 3.45   2 3.45   2 3.45   2 3.45   2 3.45
   2  0.000  0.000  0.000-   4 2.99   4 2.99   4 2.99   3 2.99   4 2.99   3 2.99   3 2.99   3 2.99
                             1 3.45   1 3.45   1 3.45   1 3.45   1 3.45   1 3.45
   3  0.250  0.250  0.250-   2 2.99   2 2.99   2 2.99   1 2.99   2 2.99   1 2.99   1 2.99   1 2.99

   4  0.750  0.750  0.750-   1 2.99   1 2.99   1 2.99   1 2.99   2 2.99   2 2.99   2 2.99   2 2.99

  LATTYP: Found a face centered cubic cell.
 ALAT       =     6.8988360000

  Lattice vectors:

 A1 = (   0.0000000000,   3.4494180000,   3.4494180000)
 A2 = (   3.4494180000,   0.0000000000,   3.4494180000)
 A3 = (   3.4494180000,   3.4494180000,   0.0000000000)

Analysis of symmetry for initial positions (statically):
 Subroutine PRICEL returns:
 Original cell was already a primitive cell.

 Routine SETGRP: Setting up the symmetry group for a
 face centered cubic supercell.

 Subroutine GETGRP returns: Found 48 space group operations
 (whereof 48 operations were pure point group operations)
 out of a pool of 48 trial point group operations.

The static configuration has the point symmetry O_h .

Analysis of symmetry for dynamics (positions and initial velocities):
 Subroutine PRICEL returns:
 Original cell was already a primitive cell.

[...]

The dynamic configuration has the point symmetry O_h .

Analysis of structural, dynamic, and magnetic symmetry:
 Subroutine PRICEL returns:
 Original cell was already a primitive cell.

 Routine SETGRP: Setting up the symmetry group for a
 face centered cubic supercell.

 Subroutine GETGRP returns: Found 48 space group operations
 (whereof 48 operations were pure point group operations)
 out of a pool of 48 trial point group operations.

The overall configuration has the point symmetry O_h .

 Subroutine INISYM returns: Found 48 space group operations
 (whereof 48 operations are pure point group operations),
 and found     1 'primitive' translations

                                     Primitive cell

  volume of cell :      82.0857

  direct lattice vectors                    reciprocal lattice vectors
     0.000000000  3.449418000  3.449418000    -0.144951989  0.144951989  0.144951989
     3.449418000  0.000000000  3.449418000     0.144951989 -0.144951989  0.144951989
     3.449418000  3.449418000  0.000000000     0.144951989  0.144951989 -0.144951989

  length of vectors
     4.878213718  4.878213718  4.878213718     0.251064210  0.251064210  0.251064210

  position of ions in fractional coordinates (direct lattice)
     0.500000000  0.500000000  0.500000000
     0.000000000  0.000000000  0.000000000
     0.250000000  0.250000000  0.250000000
     0.750000000  0.750000000  0.750000000

  ion indices of the primitive-cell ions
   primitive index   ion index
                 1           1
                 2           2
                 3           3
                 4           4

 KPOINTS: Kpoints from vasprun.xml

Automatic generation of k-mesh.
 Grid dimensions read from file:
 generate k-points for:    6    6    6

 Generating k-lattice:

  Cartesian coordinates                     Fractional coordinates (reciprocal lattice)
    -0.024158665  0.024158665  0.024158665     0.166666667 -0.000000000 -0.000000000
     0.024158665 -0.024158665  0.024158665    -0.000000000  0.166666667  0.000000000
     0.024158665  0.024158665 -0.024158665     0.000000000  0.000000000  0.166666667

  Length of vectors
     0.041844035  0.041844035  0.041844035

  Shift w.r.t. Gamma in fractional coordinates (k-lattice)
     0.000000000  0.000000000  0.000000000

 TETIRR: Found     35 inequivalent tetrahedra from     1296

 Subroutine IBZKPT returns following result:

 Found     16 irreducible k-points:

 Following reciprocal coordinates:
            Coordinates               Weight
  0.000000  0.000000  0.000000      1.000000
  0.166667  0.000000  0.000000      8.000000
  0.333333  0.000000  0.000000      8.000000
  0.500000  0.000000  0.000000      4.000000
  0.166667  0.166667  0.000000      6.000000
  0.333333  0.166667  0.000000     24.000000
  0.500000  0.166667  0.000000     24.000000
 -0.333333  0.166667  0.000000     24.000000
 -0.166667  0.166667  0.000000     12.000000
  0.333333  0.333333  0.000000      6.000000
  0.500000  0.333333  0.000000     24.000000
 -0.333333  0.333333  0.000000     12.000000
  0.500000  0.500000  0.000000      3.000000
  0.500000  0.333333  0.166667     24.000000
 -0.333333  0.333333  0.166667     24.000000
 -0.333333  0.500000  0.166667     12.000000

 Following cartesian coordinates:
            Coordinates               Weight
  0.000000  0.000000  0.000000      1.000000
 -0.024159  0.024159  0.024159      8.000000
 -0.048317  0.048317  0.048317      8.000000
 -0.072476  0.072476  0.072476      4.000000
  0.000000  0.000000  0.048317      6.000000
 -0.024159  0.024159  0.072476     24.000000
 -0.048317  0.048317  0.096635     24.000000
  0.072476 -0.072476 -0.024159     24.000000
  0.048317 -0.048317  0.000000     12.000000
  0.000000  0.000000  0.096635      6.000000
 -0.024159  0.024159  0.120793     24.000000
  0.096635 -0.096635  0.000000     12.000000
  0.000000  0.000000  0.144952      3.000000
  0.000000  0.048317  0.096635     24.000000
  0.120793 -0.072476 -0.024159     24.000000
  0.144952 -0.096635  0.000000     12.000000

 SYSTEM =  unknown system
 POSCAR =  Gd1 Y1 Ir2

 Startparameter for this run:
   NWRITE =      2    write-flag & timer
   PREC   = accura    normal or accurate (medium, high low for compatibility)
   ISTART =      0    job   : 0-new  1-cont  2-samecut
   ICHARG =      2    charge: 1-file 2-atom 10-const
   ISPIN  =      2    spin polarized calculation?
   LNONCOLLINEAR =      F non collinear calculations
   LSORBIT =      F    spin-orbit coupling
   INIWAV =      1    electr: 0-lowe 1-rand  2-diag
   LASPH  =      T    aspherical Exc in radial PAW
 Electronic Relaxation 1
   ENCUT  =  520.0 eV  38.22 Ry    6.18 a.u.   9.07  9.07  9.07*2*pi/ulx,y,z
   ENINI  =  520.0     initial cutoff
   ENAUG  =  537.2 eV  augmentation charge cutoff
   NELM   =   1000;   NELMIN=  2; NELMDL=  0     # of ELM steps
   EDIFF  = 0.2E-03   stopping-criterion for ELM
   LREAL  =      T    real-space projection
   NLSPLINE    = F    spline interpolate recip. space projectors
   LCOMPAT=      F    compatible to vasp.4.4
   GGA_COMPAT  = T    GGA compatible to vasp.4.4-vasp.4.6
   LMAXPAW     = -100 max onsite density
   LMAXMIX     =    2 max onsite mixed and CHGCAR
   VOSKOWN=      0    Vosko Wilk Nusair interpolation
   ROPT   =   -0.00025  -0.00025  -0.00025
 Ionic relaxation
   EDIFFG = 0.2E-02   stopping-criterion for IOM
   NSW    =      0    number of steps for IOM
   NBLOCK =      1;   KBLOCK =      1    inner block; outer block
   IBRION =     -1    ionic relax: 0-MD 1-quasi-New 2-CG
   NFREE  =      0    steps in history (QN), initial steepest desc. (CG)
   ISIF   =      3    stress and relaxation
   IWAVPR =     10    prediction:  0-non 1-charg 2-wave 3-comb
   ISYM   =      2    0-nonsym 1-usesym 2-fastsym
   LCORR  =      T    Harris-Foulkes like correction to forces

   POTIM  = 0.5000    time-step for ionic-motion
   TEIN   =    0.0    initial temperature
   TEBEG  =    0.0;   TEEND  =   0.0 temperature during run
[...]
  290                map_forward                           0.000161                    4   7
  291                  map_gather                            0.000040                  2   8
  292                  m_alltoallv_z                         0.000022                  2   8
  293                  map_scatter                           0.000073                  2   8
  294                map_backward                          0.000071                    2   7
  295                  map_gather                            0.000019                  1   8
  296                  m_alltoallv_z                         0.000010                  1   8
  297                  map_scatter                           0.000030                  1   8
  298          m_sumb_d                              0.000009                          2   4
  299          pothar                                0.000076                          1   4
  300            m_sumb_d                              0.000010                        1   5
  301        brmix                                 0.001506                            1   3
  302          m_sumb_d                              0.000046                          6   4
  303          brpre                                 0.000015                          2   4
  304          setg0                                 0.000330                          1   4
  305          broyd                                 0.000710                          1   4
  306            m_sumb_d                              0.000098                       21   5
  307            brget                                 0.000188                       79   5
  308            brsav                                 0.000044                       19   5
  309        m_bcast_d                             0.000023                            2   3
  310      potlok                                0.014833                              2   2
  311        fft3d_mpi                             0.009809                           36   3
  312          fftbrc_mpi                            0.008373                         36   4
  313            fftbas_plan_mpi                       0.008359                       36   5
  314              map_forward                           0.002426                     40   6
  315                map_gather                            0.000839                   24   7
  316                m_alltoallv_z                         0.000667                   24   7
  317                map_scatter                           0.000747                   24   7
  318              map_backward                          0.002030                     32   6
  319                map_gather                            0.000685                   16   7
  320                m_alltoallv_z                         0.000529                   16   7
  321                map_scatter                           0.000653                   16   7
  322              dfftw_execute                         0.002388                     30   6
  323        m_sumb_d                              0.000022                            5   3
  324        pothar                                0.000534                            2   3
  325          m_sumb_d                              0.000048                          2   4
  326        m_bcast_d                             0.000855                            4   3
  327      potlok_metagga                        0.000000                              1   2
  328      set_dd_magatom                        0.000004                              1   2
  329      set_dd_paw                            0.949761                              1   2
  330        m_sumb_d                              0.488373                            7   3
  331      augmentation_charge                   0.076073                              1   2
  332        fft3d_mpi                             0.015024                            2   3
  333          fftbrc_mpi                            0.013266                          2   4
  334            fftbas_plan_mpi                       0.013264                        2   5
  335              dfftw_execute                         0.008560                      6   6
  336              map_backward                          0.004485                      4   6
  337                map_gather                            0.000998                    2   7
  338                m_alltoallv_z                         0.002585                    2   7
  339                map_scatter                           0.000894                    2   7
  340      fftwav_mpi                            0.273087                            768   2
  341        fftwav                                0.272128                          768   3
  342          fft3d                                 0.260423                        768   4
  343      densta                                0.232567                              1   2

 Flat profile

 init_acc                               11.461854           1
 m_sumb_d                               10.415382       30932
 set_dd_paw                              7.896350          17
 total_time                              6.493053           1
 lapack                                  4.476488        9536
 eddav                                   4.278218          19
 raccmu_                                 2.713599        9536
 setdij_                                 2.525501          43
 acc_init_cublas                         2.449851           1
 redis_pw                                1.643558       53632
 phaser                                  1.196157         816
 m_alltoall_d                            1.093731      139648
 augmentation_charge                     1.005935          16
 acc_init_cusolver                       0.786092           1
 dfftw_execute                           0.712130         840
 fft3d                                   0.693635       59542
 redis_proj                              0.452505       67872
 fftwav                                  0.414111       40470
 densta                                  0.412055          20
 eccp                                    0.411129        4864
 m_alltoallv_z                           0.364973         805
 rpromu_acc                              0.340823        7936
 orth1                                   0.322480       28640
 w1_copy                                 0.281183       57216
 overl                                   0.280123       33312
 racc0mu_acc                             0.278994        9536
 soft_charge                             0.241784          15
 rpro_isp                                0.223810         208
 m_bcast_z                               0.214292       10560
 hamiltmu                                0.191486        9536
 setup_precond                           0.176339        4864
 m_bcast_d                               0.157769       19111
 overl_mu                                0.146526        9536
 fft3d_mpi                               0.139962       19793
 acc_cufft_makeplan                      0.133899          19
 ggemm                                   0.124659       11968
 rspher_all                              0.110194          14
 newband                                 0.109247       10144
 map_scatter                             0.107788         805
 kinhamil                                0.087472       19072
 vhamil                                  0.087207       19072
 map_gather                              0.086430         805
 fftext_mpi                              0.081388       19072
 apply_precond                           0.078519       14208
 pw_charge                               0.074775        3094
 depsum                                  0.063977          15
 set_charge                              0.058432          15
 proall                                  0.056169           1
 fftwav_mpi                              0.054579       40470
 fftbas_plan_mpi                         0.050178         721
 potlok                                  0.049329          17
 elmin                                   0.034431           1
 sphpro_fast                             0.021288           2
 lincom                                  0.019380         640
 force_and_stress                        0.007565           1
 orthch                                  0.007016           1
 w1_projall                              0.006759        7104
 brmix                                   0.006308          15
 choleski                                0.006215          32
 broyd                                   0.005465          15
 setg0                                   0.005116          17
 inisym                                  0.004925           1
 strnlr                                  0.004037           1
 map_forward                             0.003213         704
 map_backward                            0.003213         738
 truncate_high_frequency_w1              0.001913       23936
 pothar                                  0.001649          18
 brget                                   0.001571         654
 stufak                                  0.001424           1
 fornlr                                  0.001405           1
 forhar                                  0.000904           2
 strelo                                  0.000816           1
 strehar                                 0.000616           1
 forloc                                  0.000510           1
 brsav                                   0.000444         182
 fftbrc_mpi                              0.000398         721
 fewald                                  0.000327           1
 brpre                                   0.000257          30
 fft_gq                                  0.000216          15
 chggra                                  0.000215           1
 strkin                                  0.000201           1
 brgrid                                  0.000088           1
 set_dd_magatom                          0.000071          17
 vectorpot                               0.000068          16
 rsp                                     0.000049           1
 fordep                                  0.000046           1
 posmap                                  0.000033           2
 crpa_reader                             0.000026           1
 acc_cufft_makeplans                     0.000013           3
 rcp                                     0.000011           1
 rotate_active_occupied_orbital          0.000001           1
 redis_pw_over_bands                     0.000001           1
 potlok_metagga                          0.000001          16
  summed up times     66.45432901382446

 Accumulative profile

 total_time                             66.454329           1
 elmin                                  38.967200           1
 eddav                                  21.407288          19
 set_dd_paw                             16.125080          17
 init_acc                               11.461854           1
 m_sumb_d                               10.415382       30932
 lapack                                  4.476488        9536
 force_and_stress                        3.944274           1
 hamiltmu                                3.727617        9536
 setdij_                                 3.379964          43
 raccmu_                                 3.139119        9536
 acc_init_cublas                         2.449851           1
 redis_pw                                2.125869       53632
 set_charge                              1.750617          15
 fft3d_mpi                               1.603482       19793
 fftbrc_mpi                              1.328323         721
 fftbas_plan_mpi                         1.327925         721
 augmentation_charge                     1.257571          16
 phaser                                  1.196157         816
 m_alltoall_d                            1.093731      139648
 redis_proj                              1.063926       67872
 newband                                 1.052644       10144
 fftwav_mpi                              1.027127       40470
 fftwav                                  0.972548       40470
 acc_init_cusolver                       0.786092           1
 dfftw_execute                           0.712130         840
 fft3d                                   0.693635       59542
 strnlr                                  0.621204           1
 fordep                                  0.474812           1
 rpro_isp                                0.457032         208
 soft_charge                             0.437915          15
 densta                                  0.412055          20
 eccp                                    0.411129        4864
 map_forward                             0.378731         704
 m_alltoallv_z                           0.364973         805
 rpromu_acc                              0.340823        7936
 orth1                                   0.322480       28640
 kinhamil                                0.309805       19072
 potlok                                  0.295799          17
 w1_copy                                 0.281183       57216
 overl                                   0.280123       33312
 racc0mu_acc                             0.278994        9536
 fftext_mpi                              0.222334       19072
 m_bcast_z                               0.214292       10560
 w1_projall                              0.213401        7104
 fornlr                                  0.208157           1
 orthch                                  0.204389           1
 map_backward                            0.186886         738
 setup_precond                           0.176339        4864
 m_bcast_d                               0.157769       19111
 overl_mu                                0.146526        9536
 acc_cufft_makeplans                     0.133912           3
 acc_cufft_makeplan                      0.133899          19
 ggemm                                   0.124659       11968
 rspher_all                              0.110194          14
 map_scatter                             0.107788         805
 proall                                  0.096538           1
 vhamil                                  0.087207       19072
 map_gather                              0.086430         805
 apply_precond                           0.078519       14208
 pw_charge                               0.074775        3094
 depsum                                  0.064852          15
 sphpro_fast                             0.021861           2
 brmix                                   0.020522          15
 lincom                                  0.019380         640
 fft_gq                                  0.011923          15
 broyd                                   0.008388          15
 choleski                                0.006215          32
 setg0                                   0.005116          17
 inisym                                  0.004958           1
 truncate_high_frequency_w1              0.001913       23936
 pothar                                  0.001813          18
 brget                                   0.001571         654
 stufak                                  0.001424           1
 forhar                                  0.000913           2
 strelo                                  0.000860           1
 strehar                                 0.000714           1
 chggra                                  0.000710           1
 forloc                                  0.000522           1
 fewald                                  0.000482           1
 brsav                                   0.000444         182
 brpre                                   0.000257          30
 strkin                                  0.000217           1
 brgrid                                  0.000088           1
 set_dd_magatom                          0.000071          17
 vectorpot                               0.000068          16
 rsp                                     0.000049           1
 posmap                                  0.000033           2
 crpa_reader                             0.000026           1
 rcp                                     0.000011           1
 rotate_active_occupied_orbital          0.000001           1
 redis_pw_over_bands                     0.000001           1
 potlok_metagga                          0.000001          16

Profiling took   0.128171  0.065122  0.003320  0.003221 seconds
Profiling took   0.082100 seconds