 vasp.6.3.2 27Jun22 (build Jul  3 2023 11:46:21) complex
 executed on    LinuxNV_CrayMPICH date 2024.04.21  21:29:40

 INCAR:
   ADDGRID = True
   ALGO = Normal
   EDIFF = 0.0006
   ENCUT = 520.0
   IBRION = -1
   ICHARG = 0
   ISIF = 3
   ISMEAR = -5
   ISPIN = 2
   KPOINT_BSE = -1 0 0 0
   LAECHG = True
   LASPH = True
   LCHARG = True
   LELF = True
   LORBIT = 11
   LREAL = Auto
   LVHAR = True
   LWAVE = False
   MAGMOM = 4*7.0 8*0.6
   NELM = 1000
   NSW = 0
   PREC = accurate
   SIGMA = 0.05

 POTCAR:    PAW_PBE Gd 23Dec2003
 POTCAR:    PAW_PBE Re_pv 06Sep2000
 POTCAR:    PAW_PBE Gd 23Dec2003
   VRHFIN =Gd : [core=Xe4]

   TITEL  = PAW_PBE Gd 23Dec2003
   POMASS =  157.250; ZVAL   =   18.000    mass and valenz
   ENMAX  =  256.472; ENMIN  =  192.354 eV

   TITEL  = PAW_PBE Re_pv 06Sep2000
   POMASS =  186.207; ZVAL   =   13.000    mass and valenz
   ENMAX  =  226.216; ENMIN  =  169.662 eV

 Optimization of the real space projectors (new method)

 maximal supplied QI-value         = 13.42
 optimisation between [QCUT,QGAM] = [ 11.67, 23.35] = [ 38.16,152.62] Ry
 Optimized for a Real-space Cutoff    1.63 Angstroem

   l    n(q)    QCUT    max X(q) W(low)/X(q) W(high)/X(q)  e(spline)
   0     11    11.673    10.501    0.14E-04    0.17E-05    0.21E-07
   0     11    11.673     9.148    0.21E-04    0.32E-05    0.45E-07
   1     11    11.673     4.035    0.33E-05    0.11E-04    0.84E-07
   1     11    11.673     4.388    0.11E-04    0.47E-04    0.34E-06
   2     10    11.673    20.656    0.12E-04    0.28E-04    0.54E-06
   2     10    11.673    12.651    0.11E-04    0.26E-04    0.51E-06
   3     10    11.673    61.921    0.19E-03    0.22E-03    0.23E-06
   3     10    11.673    48.328    0.20E-03    0.23E-03    0.23E-06
 Optimization of the real space projectors (new method)

 maximal supplied QI-value         = 15.12
 optimisation between [QCUT,QGAM] = [ 11.64, 23.28] = [ 37.95,151.78] Ry
 Optimized for a Real-space Cutoff    1.53 Angstroem

   l    n(q)    QCUT    max X(q) W(low)/X(q) W(high)/X(q)  e(spline)
   1     10    11.641     4.536    0.53E-04    0.11E-04    0.10E-06
   1     10    11.641     5.174    0.11E-03    0.39E-04    0.25E-06
   2     10    11.641   884.986    0.18E-03    0.55E-03    0.12E-05
   2     10    11.641   788.248    0.18E-03    0.55E-03    0.12E-05
   0     11    11.641    79.269    0.41E-04    0.98E-04    0.47E-06
   0     11    11.641    46.212    0.38E-04    0.91E-04    0.44E-06
  PAW_PBE Gd 23Dec2003                  :
  PAW_PBE Re_pv 06Sep2000               :

 POSCAR: Gd4 Re8
  positions in direct lattice
 exchange correlation table for  LEXCH =        8
   RHO(1)=    0.500       N(1)  =     2000
   RHO(2)=  100.500       N(2)  =     4000

 VTST: version 4.2, (08/11/21)

 CHAIN: initializing optimizer

 OPT: Using VASP Dynamics algorithm
 CHAIN: Read ICHAIN             0

 POSCAR: Gd4 Re8
  positions in direct lattice

 ion  position               nearest neighbor table
   1  0.333  0.667  0.437-  10 3.17  11 3.17  12 3.17   9 3.19   8 3.19   7 3.19   7 3.19   9 3.19
                             8 3.19   5 3.20   5 3.20   5 3.20   4 3.32   2 3.34   2 3.34   2 3.34
   2  0.667  0.333  0.563-   7 3.17   8 3.17   9 3.17  11 3.19  12 3.19  10 3.19  10 3.19  11 3.19
                            12 3.19   5 3.20   5 3.20   5 3.20   3 3.32   1 3.34   1 3.34   1 3.34
   3  0.667  0.333  0.937-   7 3.17   8 3.17   9 3.17  11 3.19  12 3.19  10 3.19  10 3.19  11 3.19
                            12 3.19   6 3.20   6 3.20   6 3.20   2 3.32   4 3.34   4 3.34   4 3.34
   4  0.333  0.667  0.063-  10 3.17  11 3.17  12 3.17   9 3.19   8 3.19   7 3.19   7 3.19   9 3.19
                             8 3.19   6 3.20   6 3.20   6 3.20   1 3.32   3 3.34   3 3.34   3 3.34
   5  0.000  0.000  0.500-   7 2.74  10 2.74   9 2.74  12 2.74  11 2.74   8 2.74   1 3.20   2 3.20
                             2 3.20   1 3.20   2 3.20   1 3.20
   6  0.000  0.000  0.000-   7 2.74  10 2.74   9 2.74  12 2.74  11 2.74   8 2.74   3 3.20   4 3.20
                             3 3.20   4 3.20   3 3.20   4 3.20
   7  0.829  0.171  0.250-   8 2.66   9 2.66   5 2.74   6 2.74   9 2.80   8 2.80   3 3.17   2 3.17
                             1 3.19   1 3.19   4 3.19   4 3.19
   8  0.829  0.658  0.250-   7 2.66   9 2.66   5 2.74   6 2.74   7 2.80   9 2.80   2 3.17   3 3.17
                             4 3.19   1 3.19   1 3.19   4 3.19
   9  0.342  0.171  0.250-   7 2.66   8 2.66   5 2.74   6 2.74   7 2.80   8 2.80   2 3.17   3 3.17
                             1 3.19   4 3.19   1 3.19   4 3.19
  10  0.171  0.829  0.750-  11 2.66  12 2.66   5 2.74   6 2.74  11 2.80  12 2.80   4 3.17   1 3.17
                             2 3.19   2 3.19   3 3.19   3 3.19
  11  0.171  0.342  0.750-  10 2.66  12 2.66   5 2.74   6 2.74  10 2.80  12 2.80   1 3.17   4 3.17
                             3 3.19   2 3.19   3 3.19   2 3.19
  12  0.658  0.829  0.750-  10 2.66  11 2.66   5 2.74   6 2.74  10 2.80  11 2.80   1 3.17   4 3.17
                             2 3.19   3 3.19   3 3.19   2 3.19

  LATTYP: Found a hexagonal cell.
 ALAT       =     5.4545595441
 C/A-ratio  =     1.6267386813

  Lattice vectors:

 A1 = (   2.7272800000,  -4.7237870000,   0.0000000000)
 A2 = (   2.7272800000,   4.7237870000,   0.0000000000)
 A3 = (   0.0000000000,   0.0000000000,   8.8731430000)

Analysis of symmetry for initial positions (statically):
 Subroutine PRICEL returns:
 Original cell was already a primitive cell.

 Routine SETGRP: Setting up the symmetry group for a
 hexagonal supercell.

 Subroutine GETGRP returns: Found 24 space group operations
 (whereof 12 operations were pure point group operations)
 out of a pool of 24 trial point group operations.

The static configuration has the point symmetry D_3d.
 The point group associated with its full space group is D_6h.

Analysis of symmetry for dynamics (positions and initial velocities):
 Subroutine PRICEL returns:
 Original cell was already a primitive cell.

[...]

The dynamic configuration has the point symmetry D_3d.
 The point group associated with its full space group is D_6h.

Analysis of structural, dynamic, and magnetic symmetry:
 Subroutine PRICEL returns:
 Original cell was already a primitive cell.

 Routine SETGRP: Setting up the symmetry group for a
 hexagonal supercell.

 Subroutine GETGRP returns: Found 24 space group operations
 (whereof 12 operations were pure point group operations)
 out of a pool of 24 trial point group operations.

The overall configuration has the point symmetry D_3d.
 The point group associated with its full space group is D_6h.

 Subroutine INISYM returns: Found 24 space group operations
 (whereof 12 operations are pure point group operations),
 and found     1 'primitive' translations

                                     Primitive cell

  volume of cell :     228.6270

  direct lattice vectors                    reciprocal lattice vectors
     2.727280000 -4.723787000  0.000000000     0.183332844 -0.105847279  0.000000000
     2.727280000  4.723787000  0.000000000     0.183332844  0.105847279 -0.000000000
     0.000000000  0.000000000  8.873143000    -0.000000000  0.000000000  0.112699638

  length of vectors
     5.454559544  5.454559544  8.873143000     0.211694540  0.211694540  0.112699638

  position of ions in fractional coordinates (direct lattice)
     0.333333000  0.666667000  0.437294000
     0.666667000  0.333333000  0.562706000
     0.666667000  0.333333000  0.937294000
     0.333333000  0.666667000  0.062706000
     0.000000000  0.000000000  0.500000000
     0.000000000  0.000000000  0.000000000
     0.829140000  0.170860000  0.250000000
     0.829140000  0.658280000  0.250000000
     0.341720000  0.170860000  0.250000000
     0.170860000  0.829140000  0.750000000
     0.170860000  0.341720000  0.750000000
     0.658280000  0.829140000  0.750000000

  ion indices of the primitive-cell ions
   primitive index   ion index
                 1           1
                 2           2
                 3           3
                 4           4
                 5           5
                 6           6
                 7           7
                 8           8
                 9           9
                10          10
                11          11
                12          12

 KPOINTS: Kpoints from vasprun.xml

Automatic generation of k-mesh.
 Grid dimensions read from file:
 generate k-points for:    5    5    3

 Generating k-lattice:

  Cartesian coordinates                     Fractional coordinates (reciprocal lattice)
     0.036666569 -0.021169456  0.000000000     0.200000000  0.000000000  0.000000000
     0.036666569  0.021169456 -0.000000000     0.000000000  0.200000000  0.000000000
    -0.000000000  0.000000000  0.037566546     0.000000000  0.000000000  0.333333333

  Length of vectors
     0.042338908  0.042338908  0.037566546

  Shift w.r.t. Gamma in fractional coordinates (k-lattice)
     0.000000000  0.000000000  0.000000000

 TETIRR: Found     70 inequivalent tetrahedra from      450

 Subroutine IBZKPT returns following result:

 Found     10 irreducible k-points:

 Following reciprocal coordinates:
            Coordinates               Weight
  0.000000  0.000000  0.000000      1.000000
  0.200000  0.000000  0.000000      6.000000
  0.400000  0.000000  0.000000      6.000000
  0.200000  0.200000  0.000000      6.000000
  0.400000  0.200000  0.000000      6.000000
  0.000000  0.000000  0.333333      2.000000
  0.200000  0.000000  0.333333     12.000000
  0.400000  0.000000  0.333333     12.000000
  0.200000  0.200000  0.333333     12.000000
  0.400000  0.200000  0.333333     12.000000

 Following cartesian coordinates:
            Coordinates               Weight
  0.000000  0.000000  0.000000      1.000000
  0.036667 -0.021169  0.000000      6.000000
  0.073333 -0.042339  0.000000      6.000000
  0.073333  0.000000  0.000000      6.000000
  0.110000 -0.021169  0.000000      6.000000
  0.000000  0.000000  0.037567      2.000000
  0.036667 -0.021169  0.037567     12.000000
  0.073333 -0.042339  0.037567     12.000000
  0.073333  0.000000  0.037567     12.000000
  0.110000 -0.021169  0.037567     12.000000

 SYSTEM =  unknown system
 POSCAR =  Gd4 Re8

 Startparameter for this run:
   NWRITE =      2    write-flag & timer
   PREC   = accura    normal or accurate (medium, high low for compatibility)
   ISTART =      0    job   : 0-new  1-cont  2-samecut
   ICHARG =      0    charge: 1-file 2-atom 10-const
   ISPIN  =      2    spin polarized calculation?
   LNONCOLLINEAR =      F non collinear calculations
   LSORBIT =      F    spin-orbit coupling
   INIWAV =      1    electr: 0-lowe 1-rand  2-diag
   LASPH  =      T    aspherical Exc in radial PAW
 Electronic Relaxation 1
   ENCUT  =  520.0 eV  38.22 Ry    6.18 a.u.  10.14 10.14 16.50*2*pi/ulx,y,z
   ENINI  =  520.0     initial cutoff
   ENAUG  =  537.2 eV  augmentation charge cutoff
   NELM   =   1000;   NELMIN=  2; NELMDL= -5     # of ELM steps
   EDIFF  = 0.6E-03   stopping-criterion for ELM
   LREAL  =      T    real-space projection
   NLSPLINE    = F    spline interpolate recip. space projectors
   LCOMPAT=      F    compatible to vasp.4.4
[...]
  318                map_forward                           0.000217                    4   7
  319                  map_gather                            0.000042                  2   8
  320                  m_alltoallv_z                         0.000029                  2   8
  321                  map_scatter                           0.000118                  2   8
  322                map_backward                          0.000088                    2   7
  323                  map_gather                            0.000020                  1   8
  324                  m_alltoallv_z                         0.000013                  1   8
  325                  map_scatter                           0.000039                  1   8
  326          m_sumb_d                              0.000009                          2   4
  327          pothar                                0.000082                          1   4
  328            m_sumb_d                              0.000012                        1   5
  329        brmix                                 0.007746                            1   3
  330          m_sumb_d                              0.000062                          6   4
  331          brpre                                 0.000025                          2   4
  332          setg0                                 0.000868                          1   4
  333          broyd                                 0.005818                          1   4
  334            m_sumb_d                              0.000614                       50   5
  335            brget                                 0.001137                      224   5
  336            brsav                                 0.000244                       48   5
  337        m_bcast_d                             0.000022                            2   3
  338      potlok                                0.030080                              2   2
  339        fft3d_mpi                             0.020724                           36   3
  340          fftbrc_mpi                            0.017791                         36   4
  341            fftbas_plan_mpi                       0.017767                       36   5
  342              map_forward                           0.004992                     40   6
  343                map_gather                            0.001656                   24   7
  344                m_alltoallv_z                         0.001747                   24   7
  345                map_scatter                           0.001399                   24   7
  346              map_backward                          0.004396                     32   6
  347                map_gather                            0.001373                   16   7
  348                m_alltoallv_z                         0.001611                   16   7
  349                map_scatter                           0.001212                   16   7
  350              dfftw_execute                         0.006791                     30   6
  351        m_sumb_d                              0.000028                            5   3
  352        pothar                                0.001213                            2   3
  353          m_sumb_d                              0.000056                          2   4
  354        m_bcast_d                             0.002065                            4   3
  355      potlok_metagga                        0.000000                              1   2
  356      set_dd_magatom                        0.000004                              1   2
  357      set_dd_paw                            1.877449                              1   2
  358        m_sumb_d                              0.026662                            7   3
  359      augmentation_charge                   0.158697                              1   2
  360        fft3d_mpi                             0.040241                            2   3
  361          fftbrc_mpi                            0.036622                          2   4
  362            fftbas_plan_mpi                       0.036618                        2   5
  363              dfftw_execute                         0.024450                      6   6
  364              map_backward                          0.011888                      4   6
  365                map_gather                            0.002745                    2   7
  366                m_alltoallv_z                         0.005919                    2   7
  367                map_scatter                           0.003216                    2   7
  368      fftwav_mpi                            1.548069                           1860   2
  369        fftwav                                1.545783                         1860   3
  370          fft3d                                 1.475459                       1860   4
  371      densta                                1.318498                              1   2

 Flat profile

 set_dd_paw                            354.649621         191
 eddav                                 140.393984         193
 lapack                                137.871695      272867
 raccmu_                               132.682564      272867
 m_sumb_d                              103.351352      838559
 redis_pw                               59.067011     1468773
 m_alltoall_d                           26.472406     3810997
 setdij_                                24.244139         217
 augmentation_charge                    22.625518         191
 phaser                                 14.091315        3990
 densta                                 14.043632         194
 fft3d                                  13.399032     1556999
 redis_proj                             12.265514     1876024
 eccp                                   11.802164      119660
 dfftw_execute                          11.781650        5028
 init_acc                               11.690724           1
 total_time                             11.576233           1
 fftwav                                  9.426158     1030108
 orth1                                   8.999901      818681
 racc0mu_acc                             8.089350      272867
 overl                                   7.722259      934142
 hamiltmu                                7.552037      272867
 w1_copy                                 7.531478     1580673
 rpromu_acc                              6.510122      213187
 m_bcast_z                               5.973009      275347
 soft_charge                             5.127155         190
 m_bcast_d                               4.721163      546121
 setup_precond                           4.313479      119660
 overl_mu                                4.173040      272867
 ggemm                                   3.631855      334627
 acc_init_cublas                         3.344090           1
 m_alltoallv_z                           2.869112        7423
 pw_charge                               2.598700       86066
 vhamil                                  2.396647      526891
 kinhamil                                2.378397      526891
 fftext_mpi                              2.238200      526891
 apply_precond                           2.213287      407231
 newband                                 1.987075      276727
 fft3d_mpi                               1.956140      533532
 depsum                                  1.933950         190
 map_scatter                             1.634457        7423
 set_charge                              1.601405         190
 map_gather                              1.401898        7423
 fftwav_mpi                              1.355892     1030108
 acc_init_cusolver                       1.054599           1
 potlok                                  0.710922         191
 broyd                                   0.626837         189
 rpro_isp                                0.413977         130
 elmin                                   0.351975           1
 fftbas_plan_mpi                         0.344635        6641
 acc_cufft_makeplan                      0.293569          19
 rspher_all                              0.259233          14
 brmix                                   0.255839         189
 w1_projall                              0.202028      211107
 brget                                   0.201441       40268
 setg0                                   0.167445         191
 lincom                                  0.144545        3880
 sphpro_fast                             0.080332           2
 proall                                  0.056590           1
 brsav                                   0.054731       11411
 truncate_high_frequency_w1              0.051641      646551
 map_backward                            0.042494        7010
 map_forward                             0.037019        6272
 choleski                                0.020196          20
 pothar                                  0.015463         192
 orthch                                  0.013741           1
 force_and_stress                        0.013258           1
 fft_gq                                  0.010767         190
 stufak                                  0.005366           1
 brpre                                   0.005081         378
 inisym                                  0.004643           1
 fftbrc_mpi                              0.004071        6641
 strnlr                                  0.003225           1
 strelo                                  0.001804           1
 strehar                                 0.001286           1
 fornlr                                  0.001138           1
 forhar                                  0.001030           2
 set_dd_magatom                          0.000865         191
 vectorpot                               0.000779         190
 strkin                                  0.000702           1
 forloc                                  0.000574           1
 fewald                                  0.000339           1
 chggra                                  0.000234           1
 rsp                                     0.000192           1
 brgrid                                  0.000184           1
 fordep                                  0.000099           1
 posmap                                  0.000059           2
 crpa_reader                             0.000026           1
 rcp                                     0.000019           1
 potlok_metagga                          0.000016         190
 acc_cufft_makeplans                     0.000009           3
 rotate_active_occupied_orbital          0.000001           1
 redis_pw_over_bands                     0.000000           1
  summed up times     1221.143831014633

 Accumulative profile

 total_time                           1221.143831           1
 elmin                                1178.141287           1
 eddav                                 731.744883         193
 set_dd_paw                            358.666646         191
 hamiltmu                              163.404040      272867
 raccmu_                               144.944954      272867
 lapack                                137.871695      272867
 m_sumb_d                              103.351352      838559
 redis_pw                               72.146604     1468773
 set_charge                             45.817540         190
 setdij_                                34.782558         217
 augmentation_charge                    30.645615         191
 newband                                27.267410      276727
 m_alltoall_d                           26.472406     3810997
 redis_proj                             25.658326     1876024
 fft3d_mpi                              23.807665      533532
 fftwav_mpi                             20.444895     1030108
 fftwav                                 19.089003     1030108
 fftbrc_mpi                             18.115338        6641
 fftbas_plan_mpi                        18.111266        6641
 phaser                                 14.091315        3990
 densta                                 14.043632         194
 fft3d                                  13.399032     1556999
 eccp                                   11.802164      119660
 dfftw_execute                          11.781650        5028
 init_acc                               11.690724           1
 soft_charge                            11.521816         190
 orth1                                   8.999901      818681
 kinhamil                                8.510402      526891
 force_and_stress                        8.089996           1
 racc0mu_acc                             8.089350      272867
 overl                                   7.722259      934142
 w1_copy                                 7.531478     1580673
 rpromu_acc                              6.510122      213187
 w1_projall                              6.222192      211107
 fftext_mpi                              6.132005      526891
 m_bcast_z                               5.973009      275347
 m_bcast_d                               4.721163      546121
 setup_precond                           4.313479      119660
 overl_mu                                4.173040      272867
 ggemm                                   3.631855      334627
 acc_init_cublas                         3.344090           1
 map_backward                            3.254364        7010
 m_alltoallv_z                           2.869112        7423
 map_forward                             2.730617        6272
 pw_charge                               2.598700       86066
 vhamil                                  2.396647      526891
 apply_precond                           2.213287      407231
 depsum                                  1.962450         190
 potlok                                  1.714803         191
 map_scatter                             1.634457        7423
 brmix                                   1.446046         189
 map_gather                              1.401898        7423
 strnlr                                  1.332556           1
 rpro_isp                                1.143937         130
 acc_init_cusolver                       1.054599           1
 broyd                                   1.001267         189
 fordep                                  0.968531           1
 fornlr                                  0.445888           1
 orthch                                  0.383279           1
 fft_gq                                  0.350757         190
 acc_cufft_makeplans                     0.293578           3
 acc_cufft_makeplan                      0.293569          19
 rspher_all                              0.259233          14
 brget                                   0.201441       40268
 setg0                                   0.167445         191
 lincom                                  0.144545        3880
 proall                                  0.125487           1
 sphpro_fast                             0.083024           2
 brsav                                   0.054731       11411
 truncate_high_frequency_w1              0.051641      646551
 choleski                                0.020196          20
 pothar                                  0.017332         192
 stufak                                  0.005366           1
 brpre                                   0.005081         378
 inisym                                  0.004702           1
 strelo                                  0.001812           1
 strehar                                 0.001309           1
 forhar                                  0.001078           2
 forloc                                  0.000972           1
 set_dd_magatom                          0.000865         191
 chggra                                  0.000819           1
 vectorpot                               0.000779         190
 strkin                                  0.000715           1
 fewald                                  0.000624           1
 rsp                                     0.000192           1
 brgrid                                  0.000184           1
 posmap                                  0.000059           2
 crpa_reader                             0.000026           1
 rcp                                     0.000019           1
 potlok_metagga                          0.000016         190
 rotate_active_occupied_orbital          0.000001           1
 redis_pw_over_bands                     0.000000           1

Profiling took   3.343651  1.640408  0.003430  0.003333 seconds
Profiling took   2.114043 seconds