 vasp.6.3.2 27Jun22 (build Jul  3 2023 11:46:21) complex
 executed on    LinuxNV_CrayMPICH date 2024.04.21  23:31:02

 INCAR:
   ADDGRID = True
   ALGO = Normal
   EDIFF = 0.0002
   ENCUT = 520.0
   IBRION = -1
   ICHARG = 0
   ISIF = 3
   ISMEAR = 0
   ISPIN = 2
   ISTART = 1
   KPOINT_BSE = -1 0 0 0
   LAECHG = True
   LASPH = True
   LCHARG = True
   LELF = True
   LORBIT = 11
   LREAL = Auto
   LVHAR = True
   LWAVE = False
   MAGMOM = 1*7.0 3*0.6
   NELM = 1000
   NSW = 0
   PREC = accurate
   SIGMA = 0.05

 POTCAR:    PAW_PBE Gd 23Dec2003
 POTCAR:    PAW_PBE Tm_3 20Jan2003
 POTCAR:    PAW_PBE Rh_pv 25Jan2005
 POTCAR:    PAW_PBE Gd 23Dec2003
   VRHFIN =Gd : [core=Xe4]

   TITEL  = PAW_PBE Gd 23Dec2003
   POMASS =  157.250; ZVAL   =   18.000    mass and valenz
   ENMAX  =  256.472; ENMIN  =  192.354 eV

   TITEL  = PAW_PBE Tm_3 20Jan2003
   POMASS =  168.930; ZVAL   =    9.000    mass and valenz
   ENMAX  =  149.221; ENMIN  =  111.916 eV

   TITEL  = PAW_PBE Rh_pv 25Jan2005
   POMASS =  102.906; ZVAL   =   15.000    mass and valenz
   ENMAX  =  247.408; ENMIN  =  185.556 eV

 Optimization of the real space projectors (new method)

 maximal supplied QI-value         = 13.42
 optimisation between [QCUT,QGAM] = [ 11.67, 23.35] = [ 38.16,152.62] Ry
 Optimized for a Real-space Cutoff    1.63 Angstroem

   l    n(q)    QCUT    max X(q) W(low)/X(q) W(high)/X(q)  e(spline)
   0     11    11.673    10.501    0.14E-04    0.17E-05    0.21E-07
   0     11    11.673     9.148    0.21E-04    0.32E-05    0.45E-07
   1     11    11.673     4.035    0.33E-05    0.11E-04    0.84E-07
   1     11    11.673     4.388    0.11E-04    0.47E-04    0.34E-06
   2     10    11.673    20.656    0.12E-04    0.28E-04    0.54E-06
   2     10    11.673    12.651    0.11E-04    0.26E-04    0.51E-06
   3     10    11.673    61.921    0.19E-03    0.22E-03    0.23E-06
   3     10    11.673    48.328    0.20E-03    0.23E-03    0.23E-06
 Optimization of the real space projectors (new method)

[...]

   l    n(q)    QCUT    max X(q) W(low)/X(q) W(high)/X(q)  e(spline)
   0     13    11.669    41.517    0.41E-04    0.49E-05    0.86E-06
   0     13    11.669    21.051    0.34E-04    0.39E-05    0.72E-06
   1     12    11.669    35.571    0.32E-04    0.40E-05    0.88E-06
   1     12    11.669    36.101    0.34E-04    0.47E-05    0.92E-06
   2     12    11.669   153.624    0.23E-03    0.16E-03    0.98E-06
   2     12    11.669   123.221    0.22E-03    0.16E-03    0.98E-06
 Optimization of the real space projectors (new method)

 maximal supplied QI-value         = 15.68
 optimisation between [QCUT,QGAM] = [ 11.61, 23.21] = [ 37.72,150.90] Ry
 Optimized for a Real-space Cutoff    1.45 Angstroem

   l    n(q)    QCUT    max X(q) W(low)/X(q) W(high)/X(q)  e(spline)
   1     10    11.607     3.143    0.27E-04    0.48E-04    0.10E-06
   1     10    11.607     5.034    0.71E-04    0.17E-03    0.32E-06
   2      9    11.607    64.180    0.22E-03    0.59E-04    0.28E-06
   2      9    11.607    61.342    0.22E-03    0.61E-04    0.29E-06
   0     10    11.607    55.593    0.52E-04    0.32E-04    0.17E-06
   0     10    11.607    26.178    0.47E-04    0.29E-04    0.15E-06
  PAW_PBE Gd 23Dec2003                  :
  PAW_PBE Tm_3 20Jan2003                :
  PAW_PBE Rh_pv 25Jan2005               :

 POSCAR: Gd1 Tm1 Rh2
  positions in direct lattice
 exchange correlation table for  LEXCH =        8
   RHO(1)=    0.500       N(1)  =     2000
   RHO(2)=  100.500       N(2)  =     4000

 VTST: version 4.2, (08/11/21)

 CHAIN: initializing optimizer

 OPT: Using VASP Dynamics algorithm
 CHAIN: Read ICHAIN             0

 POSCAR: Gd1 Tm1 Rh2
  positions in direct lattice

 ion  position               nearest neighbor table
   1  0.500  0.500  0.500-   3 2.97   3 2.97   3 2.97   3 2.97   4 2.97   4 2.97   4 2.97   4 2.97
                             2 3.43   2 3.43   2 3.43   2 3.43   2 3.43   2 3.43
   2  0.000  0.000  0.000-   4 2.97   4 2.97   4 2.97   3 2.97   4 2.97   3 2.97   3 2.97   3 2.97
                             1 3.43   1 3.43   1 3.43   1 3.43   1 3.43   1 3.43
   3  0.250  0.250  0.250-   2 2.97   2 2.97   2 2.97   1 2.97   2 2.97   1 2.97   1 2.97   1 2.97

   4  0.750  0.750  0.750-   1 2.97   1 2.97   1 2.97   1 2.97   2 2.97   2 2.97   2 2.97   2 2.97

  LATTYP: Found a face centered cubic cell.
 ALAT       =     6.8507040000

  Lattice vectors:

 A1 = (   0.0000000000,   3.4253520000,   3.4253520000)
 A2 = (   3.4253520000,   0.0000000000,   3.4253520000)
 A3 = (   3.4253520000,   3.4253520000,   0.0000000000)

Analysis of symmetry for initial positions (statically):
 Subroutine PRICEL returns:
 Original cell was already a primitive cell.

 Routine SETGRP: Setting up the symmetry group for a
 face centered cubic supercell.

 Subroutine GETGRP returns: Found 48 space group operations
 (whereof 48 operations were pure point group operations)
 out of a pool of 48 trial point group operations.

The static configuration has the point symmetry O_h .

Analysis of symmetry for dynamics (positions and initial velocities):
 Subroutine PRICEL returns:
 Original cell was already a primitive cell.

[...]

The dynamic configuration has the point symmetry O_h .

Analysis of structural, dynamic, and magnetic symmetry:
 Subroutine PRICEL returns:
 Original cell was already a primitive cell.

 Routine SETGRP: Setting up the symmetry group for a
 face centered cubic supercell.

 Subroutine GETGRP returns: Found 48 space group operations
 (whereof 48 operations were pure point group operations)
 out of a pool of 48 trial point group operations.

The overall configuration has the point symmetry O_h .

 Subroutine INISYM returns: Found 48 space group operations
 (whereof 48 operations are pure point group operations),
 and found     1 'primitive' translations

                                     Primitive cell

  volume of cell :      80.3796

  direct lattice vectors                    reciprocal lattice vectors
     0.000000000  3.425352000  3.425352000    -0.145970400  0.145970400  0.145970400
     3.425352000  0.000000000  3.425352000     0.145970400 -0.145970400  0.145970400
     3.425352000  3.425352000  0.000000000     0.145970400  0.145970400 -0.145970400

  length of vectors
     4.844179254  4.844179254  4.844179254     0.252828148  0.252828148  0.252828148

  position of ions in fractional coordinates (direct lattice)
     0.500000000  0.500000000  0.500000000
     0.000000000  0.000000000  0.000000000
     0.250000000  0.250000000  0.250000000
     0.750000000  0.750000000  0.750000000

  ion indices of the primitive-cell ions
   primitive index   ion index
                 1           1
                 2           2
                 3           3
                 4           4

 KPOINTS: Kpoints from vasprun.xml

Automatic generation of k-mesh.
 Grid dimensions read from file:
 generate k-points for:    6    6    6

 Generating k-lattice:

  Cartesian coordinates                     Fractional coordinates (reciprocal lattice)
    -0.024328400  0.024328400  0.024328400     0.166666667  0.000000000  0.000000000
     0.024328400 -0.024328400  0.024328400     0.000000000  0.166666667 -0.000000000
     0.024328400  0.024328400 -0.024328400    -0.000000000 -0.000000000  0.166666667

  Length of vectors
     0.042138025  0.042138025  0.042138025

  Shift w.r.t. Gamma in fractional coordinates (k-lattice)
     0.000000000  0.000000000  0.000000000

 Subroutine IBZKPT returns following result:

 Found     16 irreducible k-points:

 Following reciprocal coordinates:
            Coordinates               Weight
  0.000000  0.000000  0.000000      1.000000
  0.166667  0.000000  0.000000      8.000000
  0.333333  0.000000  0.000000      8.000000
  0.500000  0.000000  0.000000      4.000000
  0.166667  0.166667  0.000000      6.000000
  0.333333  0.166667  0.000000     24.000000
  0.500000  0.166667  0.000000     24.000000
 -0.333333  0.166667  0.000000     24.000000
 -0.166667  0.166667  0.000000     12.000000
  0.333333  0.333333  0.000000      6.000000
  0.500000  0.333333  0.000000     24.000000
 -0.333333  0.333333  0.000000     12.000000
  0.500000  0.500000  0.000000      3.000000
  0.500000  0.333333  0.166667     24.000000
 -0.333333  0.333333  0.166667     24.000000
 -0.333333  0.500000  0.166667     12.000000

 Following cartesian coordinates:
            Coordinates               Weight
  0.000000  0.000000  0.000000      1.000000
 -0.024328  0.024328  0.024328      8.000000
 -0.048657  0.048657  0.048657      8.000000
 -0.072985  0.072985  0.072985      4.000000
  0.000000  0.000000  0.048657      6.000000
 -0.024328  0.024328  0.072985     24.000000
 -0.048657  0.048657  0.097314     24.000000
  0.072985 -0.072985 -0.024328     24.000000
  0.048657 -0.048657  0.000000     12.000000
  0.000000  0.000000  0.097314      6.000000
 -0.024328  0.024328  0.121642     24.000000
  0.097314 -0.097314  0.000000     12.000000
  0.000000  0.000000  0.145970      3.000000
  0.000000  0.048657  0.097314     24.000000
  0.121642 -0.072985 -0.024328     24.000000
  0.145970 -0.097314  0.000000     12.000000

 SYSTEM =  unknown system
 POSCAR =  Gd1 Tm1 Rh2

 Startparameter for this run:
   NWRITE =      2    write-flag & timer
   PREC   = accura    normal or accurate (medium, high low for compatibility)
   ISTART =      0    job   : 0-new  1-cont  2-samecut
   ICHARG =      2    charge: 1-file 2-atom 10-const
   ISPIN  =      2    spin polarized calculation?
   LNONCOLLINEAR =      F non collinear calculations
   LSORBIT =      F    spin-orbit coupling
   INIWAV =      1    electr: 0-lowe 1-rand  2-diag
   LASPH  =      T    aspherical Exc in radial PAW
 Electronic Relaxation 1
   ENCUT  =  520.0 eV  38.22 Ry    6.18 a.u.   9.01  9.01  9.01*2*pi/ulx,y,z
   ENINI  =  520.0     initial cutoff
   ENAUG  =  537.2 eV  augmentation charge cutoff
   NELM   =   1000;   NELMIN=  2; NELMDL=  0     # of ELM steps
   EDIFF  = 0.2E-03   stopping-criterion for ELM
   LREAL  =      T    real-space projection
   NLSPLINE    = F    spline interpolate recip. space projectors
   LCOMPAT=      F    compatible to vasp.4.4
   GGA_COMPAT  = T    GGA compatible to vasp.4.4-vasp.4.6
   LMAXPAW     = -100 max onsite density
   LMAXMIX     =    2 max onsite mixed and CHGCAR
   VOSKOWN=      0    Vosko Wilk Nusair interpolation
   ROPT   =   -0.00025  -0.00025  -0.00025
 Ionic relaxation
   EDIFFG = 0.2E-02   stopping-criterion for IOM
   NSW    =      0    number of steps for IOM
   NBLOCK =      1;   KBLOCK =      1    inner block; outer block
   IBRION =     -1    ionic relax: 0-MD 1-quasi-New 2-CG
   NFREE  =      0    steps in history (QN), initial steepest desc. (CG)
   ISIF   =      3    stress and relaxation
   IWAVPR =     10    prediction:  0-non 1-charg 2-wave 3-comb
   ISYM   =      2    0-nonsym 1-usesym 2-fastsym
   LCORR  =      T    Harris-Foulkes like correction to forces

   POTIM  = 0.5000    time-step for ionic-motion
   TEIN   =    0.0    initial temperature
   TEBEG  =    0.0;   TEEND  =   0.0 temperature during run
   SMASS  =  -3.00    Nose mass-parameter (am)
[...]
  292                  map_gather                            0.000040                  2   8
  293                  m_alltoallv_z                         0.000022                  2   8
  294                  map_scatter                           0.000094                  2   8
  295                map_backward                          0.000102                    2   7
  296                  map_gather                            0.000018                  1   8
  297                  m_alltoallv_z                         0.000010                  1   8
  298                  map_scatter                           0.000061                  1   8
  299          m_sumb_d                              0.000008                          2   4
  300          pothar                                0.000093                          1   4
  301            m_sumb_d                              0.000027                        1   5
  302        brmix                                 0.001460                            1   3
  303          m_sumb_d                              0.000028                          6   4
  304          brpre                                 0.000013                          2   4
  305          setg0                                 0.000331                          1   4
  306          broyd                                 0.000693                          1   4
  307            m_sumb_d                              0.000083                       21   5
  308            brget                                 0.000179                       79   5
  309            brsav                                 0.000040                       19   5
  310        m_bcast_d                             0.000018                            2   3
  311      potlok                                0.017174                              2   2
  312        fft3d_mpi                             0.012043                           36   3
  313          fftbrc_mpi                            0.010612                         36   4
  314            fftbas_plan_mpi                       0.010598                       36   5
  315              map_forward                           0.004150                     40   6
  316                map_gather                            0.000853                   24   7
  317                m_alltoallv_z                         0.000704                   24   7
  318                map_scatter                           0.002426                   24   7
  319              map_backward                          0.002443                     32   6
  320                map_gather                            0.000722                   16   7
  321                m_alltoallv_z                         0.000540                   16   7
  322                map_scatter                           0.001012                   16   7
  323              dfftw_execute                         0.002467                     30   6
  324        m_sumb_d                              0.000035                            5   3
  325        pothar                                0.000589                            2   3
  326          m_sumb_d                              0.000060                          2   4
  327        m_bcast_d                             0.000863                            4   3
  328      potlok_metagga                        0.000000                              1   2
  329      set_dd_magatom                        0.000004                              1   2
  330      set_dd_paw                            0.937326                              1   2
  331        m_sumb_d                              0.464388                            7   3
  332      augmentation_charge                   0.064469                              1   2
  333        fft3d_mpi                             0.014977                            2   3
  334          fftbrc_mpi                            0.013265                          2   4
  335            fftbas_plan_mpi                       0.013262                        2   5
  336              dfftw_execute                         0.008827                      6   6
  337              map_backward                          0.004210                      4   6
  338                map_gather                            0.001004                    2   7
  339                m_alltoallv_z                         0.002304                    2   7
  340                map_scatter                           0.000893                    2   7
  341      fftwav_mpi                            0.338075                            960   2
  342        fftwav                                0.336914                          960   3
  343          fft3d                                 0.322527                        960   4
  344      densta                                0.000850                              1   2
  345        m_sumb_d                              0.000461                           38   3

 Flat profile

 m_sumb_d                               11.329865       39493
 init_acc                               11.216104           1
 set_dd_paw                              7.980976          17
 total_time                              6.262979           1
 lapack                                  5.858293       12146
 eddav                                   5.667896          19
 raccmu_                                 3.644123       12146
 redis_pw                                2.946048       68076
 acc_init_cublas                         2.440531           1
 setdij_                                 2.046430          43
 m_alltoall_d                            1.346925      177724
 phaser                                  1.133005         816
 fft3d                                   0.873334       75647
 augmentation_charge                     0.821982          16
 acc_init_cusolver                       0.786631           1
 dfftw_execute                           0.716403         840
 redis_proj                              0.573032       86320
 eccp                                    0.521290        6080
 fftwav                                  0.515075       51355
 rpromu_acc                              0.452040       10354
 orth1                                   0.418822       36502
 overl                                   0.352563       42536
 w1_copy                                 0.349804       72876
 racc0mu_acc                             0.347597       12146
 m_bcast_d                               0.330778       24331
 m_alltoallv_z                           0.322098         805
 soft_charge                             0.275299          15
 m_bcast_z                               0.270095       13426
 rpro_isp                                0.257777         208
 hamiltmu                                0.241061       12146
 setup_precond                           0.219248        6080
 overl_mu                                0.186402       12146
 ggemm                                   0.163228       15186
 acc_cufft_makeplan                      0.136303          19
 newband                                 0.127943       12754
 fft3d_mpi                               0.124938       25013
 vhamil                                  0.111144       24292
 kinhamil                                0.107676       24292
 map_scatter                             0.105481         805
 fftext_mpi                              0.100422       24292
 apply_precond                           0.098969       18212
 rspher_all                              0.097321          14
 pw_charge                               0.090688        3731
 map_gather                              0.087436         805
 depsum                                  0.077264          15
 fftwav_mpi                              0.068283       51355
 set_charge                              0.057948          15
 fftbas_plan_mpi                         0.051518         721
 potlok                                  0.050007          17
 elmin                                   0.040534           1
 proall                                  0.039454           1
 sphpro_fast                             0.022958           2
 lincom                                  0.019474         640
 w1_projall                              0.009281        9106
 force_and_stress                        0.007688           1
 choleski                                0.007453          32
 orthch                                  0.007286           1
 broyd                                   0.007042          15
 brmix                                   0.006587          15
 densta                                  0.005194          20
 setg0                                   0.005169          17
 inisym                                  0.004808           1
 strnlr                                  0.004130           1
 map_backward                            0.003204         738
 map_forward                             0.003109         704
 truncate_high_frequency_w1              0.002491       30372
 pothar                                  0.001649          18
 stufak                                  0.001471           1
 fornlr                                  0.001424           1
 brget                                   0.001329         654
 forhar                                  0.000920           2
 strelo                                  0.000828           1
 strehar                                 0.000735           1
 forloc                                  0.000506           1
 fftbrc_mpi                              0.000377         721
 brsav                                   0.000377         182
 fewald                                  0.000329           1
 brpre                                   0.000237          30
 fft_gq                                  0.000236          15
 chggra                                  0.000226           1
 strkin                                  0.000211           1
 brgrid                                  0.000081           1
 set_dd_magatom                          0.000074          17
 vectorpot                               0.000073          16
 rsp                                     0.000048           1
 fordep                                  0.000044           1
 posmap                                  0.000033           2
 crpa_reader                             0.000028           1
 acc_cufft_makeplans                     0.000012           3
 rcp                                     0.000011           1
 potlok_metagga                          0.000002          16
 rotate_active_occupied_orbital          0.000000           1
 redis_pw_over_bands                     0.000000           1
  summed up times     72.56819605827332

 Accumulative profile

 total_time                             72.568196           1
 elmin                                  45.812443           1
 eddav                                  28.799477          19
 set_dd_paw                             15.868201          17
 m_sumb_d                               11.329865       39493
 init_acc                               11.216104           1
 lapack                                  5.858293       12146
 hamiltmu                                4.917570       12146
 raccmu_                                 4.178122       12146
 force_and_stress                        3.926551           1
 redis_pw                                3.551878       68076
 setdij_                                 2.906806          43
 acc_init_cublas                         2.440531           1
 set_charge                              1.791310          15
 fft3d_mpi                               1.586498       25013
 newband                                 1.347412       12754
 m_alltoall_d                            1.346925      177724
 redis_proj                              1.314127       86320
 fftbrc_mpi                              1.289626         721
 fftbas_plan_mpi                         1.289249         721
 fftwav_mpi                              1.284759       51355
 fftwav                                  1.216476       51355
 phaser                                  1.133005         816
 augmentation_charge                     1.064033          16
 fft3d                                   0.873334       75647
 strnlr                                  0.834660           1
 acc_init_cusolver                       0.786631           1
 dfftw_execute                           0.716403         840
 soft_charge                             0.634927          15
 rpro_isp                                0.570395         208
 eccp                                    0.521290        6080
 rpromu_acc                              0.452040       10354
 orth1                                   0.418822       36502
 fordep                                  0.402012           1
 kinhamil                                0.387244       24292
 overl                                   0.352563       42536
 w1_copy                                 0.349804       72876
 racc0mu_acc                             0.347597       12146
 map_forward                             0.344759         704
 m_bcast_d                               0.330778       24331
 m_alltoallv_z                           0.322098         805
 fftext_mpi                              0.279568       24292
 fornlr                                  0.277357           1
 w1_projall                              0.272425        9106
 m_bcast_z                               0.270095       13426
 potlok                                  0.269136          17
 setup_precond                           0.219248        6080
 orthch                                  0.213173           1
 overl_mu                                0.186402       12146
 map_backward                            0.176570         738
 ggemm                                   0.163228       15186
 acc_cufft_makeplans                     0.136315           3
 acc_cufft_makeplan                      0.136303          19
 vhamil                                  0.111144       24292
 map_scatter                             0.105481         805
 apply_precond                           0.098969       18212
 rspher_all                              0.097321          14
 pw_charge                               0.090688        3731
 depsum                                  0.090673          15
 map_gather                              0.087436         805
 proall                                  0.081390           1
 sphpro_fast                             0.023738           2
 brmix                                   0.021889          15
 lincom                                  0.019474         640
 fft_gq                                  0.011905          15
 broyd                                   0.009452          15
 densta                                  0.009226          20
 choleski                                0.007453          32
 setg0                                   0.005169          17
 inisym                                  0.004841           1
 fewald                                  0.003652           1
 truncate_high_frequency_w1              0.002491       30372
 pothar                                  0.002023          18
 stufak                                  0.001471           1
 brget                                   0.001329         654
 forhar                                  0.000983           2
 strelo                                  0.000938           1
 forloc                                  0.000860           1
 chggra                                  0.000788           1
 strehar                                 0.000738           1
 brsav                                   0.000377         182
 brpre                                   0.000237          30
 strkin                                  0.000232           1
 brgrid                                  0.000081           1
 set_dd_magatom                          0.000074          17
 vectorpot                               0.000073          16
 rsp                                     0.000048           1
 posmap                                  0.000033           2
 crpa_reader                             0.000028           1
 rcp                                     0.000011           1
 potlok_metagga                          0.000002          16
 rotate_active_occupied_orbital          0.000000           1
 redis_pw_over_bands                     0.000000           1

Profiling took   0.156706  0.079096  0.003121  0.003038 seconds
Profiling took   0.098250 seconds