 vasp.6.3.2 27Jun22 (build Jul  3 2023 11:46:21) complex
 executed on    LinuxNV_CrayMPICH date 2024.04.18  19:34:48

 INCAR:
   ADDGRID = True
   ALGO = Normal
   EDIFF = 0.0014
   ENCUT = 520.0
   IBRION = -1
   ICHARG = 0
   ISIF = 3
   ISMEAR = -5
   ISPIN = 2
   KPOINT_BSE = -1 0 0 0
   LAECHG = True
   LASPH = True
   LCHARG = True
   LELF = True
   LORBIT = 11
   LREAL = Auto
   LVHAR = True
   LWAVE = False
   MAGMOM = 4*7.0 24*0.6
   NELM = 1000
   NSW = 0
   PREC = accurate
   SIGMA = 0.05

 POTCAR:    PAW_PBE Eu 23Dec2003
 POTCAR:    PAW_PBE Y_sv 25May2007
 POTCAR:    PAW_PBE O 08Apr2002
 POTCAR:    PAW_PBE Eu 23Dec2003
   VRHFIN =Eu : [core=Kr4d]

   TITEL  = PAW_PBE Eu 23Dec2003
   POMASS =  151.965; ZVAL   =   17.000    mass and valenz
   ENMAX  =  249.668; ENMIN  =  187.251 eV

   TITEL  = PAW_PBE Y_sv 25May2007
   POMASS =   88.906; ZVAL   =   11.000    mass and valenz
   ENMAX  =  202.626; ENMIN  =  151.970 eV

   TITEL  = PAW_PBE O 08Apr2002
   POMASS =   16.000; ZVAL   =    6.000    mass and valenz
   ENMAX  =  400.000; ENMIN  =  300.000 eV

 Optimization of the real space projectors (new method)

 maximal supplied QI-value         = 13.42
 optimisation between [QCUT,QGAM] = [ 11.67, 23.35] = [ 38.16,152.62] Ry
 Optimized for a Real-space Cutoff    1.63 Angstroem

   l    n(q)    QCUT    max X(q) W(low)/X(q) W(high)/X(q)  e(spline)
   0     11    11.673    10.400    0.14E-04    0.18E-05    0.24E-07
   0     11    11.673    10.768    0.21E-04    0.32E-05    0.49E-07
   1     11    11.673     4.094    0.40E-05    0.13E-04    0.93E-07
   1     11    11.673     4.009    0.11E-04    0.46E-04    0.33E-06
   2     10    11.673    29.030    0.79E-04    0.60E-04    0.70E-06
   2     10    11.673    19.941    0.80E-04    0.60E-04    0.71E-06
   3     10    11.673    88.889    0.23E-03    0.29E-03    0.30E-06
   3     10    11.673    76.102    0.23E-03    0.30E-03    0.30E-06
 Optimization of the real space projectors (new method)

[...]

   l    n(q)    QCUT    max X(q) W(low)/X(q) W(high)/X(q)  e(spline)
   0     12    11.673    14.902    0.22E-04    0.24E-05    0.52E-07
   0     12    11.673     9.294    0.34E-04    0.58E-05    0.89E-07
   1     11    11.673    69.520    0.10E-04    0.47E-04    0.49E-06
   1     11    11.673    72.085    0.10E-04    0.48E-04    0.50E-06
   2     11    11.673    62.934    0.94E-04    0.14E-04    0.82E-06
   2     11    11.673    49.749    0.91E-04    0.13E-04    0.79E-06
   3     10    11.673     8.311    0.92E-04    0.21E-04    0.59E-06
 Optimization of the real space projectors (new method)

 maximal supplied QI-value         = 24.76
 optimisation between [QCUT,QGAM] = [ 11.64, 23.27] = [ 37.91,151.63] Ry
 Optimized for a Real-space Cutoff    1.14 Angstroem

   l    n(q)    QCUT    max X(q) W(low)/X(q) W(high)/X(q)  e(spline)
   0      8    11.635    20.381    0.10E-03    0.33E-03    0.24E-06
   0      8    11.635    15.268    0.11E-03    0.35E-03    0.26E-06
   1      7    11.635     5.964    0.24E-03    0.31E-03    0.30E-06
   1      7    11.635     5.382    0.22E-03    0.25E-03    0.26E-06
  PAW_PBE Eu 23Dec2003                  :
  PAW_PBE Y_sv 25May2007                :
  PAW_PBE O 08Apr2002                   :

 POSCAR: Eu4 Y8 O16
  positions in direct lattice
 exchange correlation table for  LEXCH =        8
   RHO(1)=    0.500       N(1)  =     2000
   RHO(2)=  100.500       N(2)  =     4000

 VTST: version 4.2, (08/11/21)

 CHAIN: initializing optimizer

 OPT: Using VASP Dynamics algorithm
 CHAIN: Read ICHAIN             0

 POSCAR: Eu4 Y8 O16
  positions in direct lattice

 ion  position               nearest neighbor table
   1  0.750  0.746  0.149-  15 2.58  15 2.58  19 2.60  19 2.60  16 2.73  16 2.73   5 3.34   9 3.37
                             6 3.52  11 3.75  11 3.75   7 3.81   7 3.81
   2  0.250  0.754  0.649-  18 2.58  18 2.58  14 2.60  14 2.60  17 2.73  17 2.73   8 3.34  12 3.37
                             7 3.52  10 3.75  10 3.75   6 3.81   6 3.81
   3  0.750  0.246  0.351-  23 2.58  23 2.58  27 2.60  27 2.60  24 2.73  24 2.73   9 3.34   5 3.37
                            10 3.52   7 3.75   7 3.75  11 3.81  11 3.81
   4  0.250  0.254  0.851-  26 2.58  26 2.58  22 2.60  22 2.60  25 2.73  25 2.73  12 3.34   8 3.37
                            11 3.52   6 3.75   6 3.75  10 3.81  10 3.81
   5  0.750  0.576  0.387-  28 2.27  14 2.28  16 2.32  16 2.32  27 2.37  27 2.37   1 3.34   3 3.37
                            12 3.55  12 3.55   7 3.89   7 3.89  11 4.07  11 4.07
   6  0.750  0.580  0.891-  13 2.22  13 2.22  17 2.28  26 2.31  15 2.38  15 2.38  11 3.52  11 3.52
                             1 3.52   4 3.75   4 3.75   2 3.81   2 3.81   8 3.89   8 3.89  12 4.07
   7  0.250  0.920  0.391-  20 2.22  20 2.22  16 2.28  23 2.31  18 2.38  18 2.38  10 3.52  10 3.52
                             2 3.52   3 3.75   3 3.75   1 3.81   1 3.81   5 3.89   5 3.89   9 4.07
   8  0.250  0.924  0.887-  21 2.27  19 2.28  17 2.32  17 2.32  22 2.37  22 2.37   2 3.34   4 3.37
                             9 3.55   9 3.55   6 3.89   6 3.89  10 4.07  10 4.07
   9  0.750  0.076  0.113-  20 2.27  22 2.28  24 2.32  24 2.32  19 2.37  19 2.37   3 3.34   1 3.37
                             8 3.55   8 3.55  11 3.89  11 3.89   7 4.07   7 4.07
  10  0.750  0.080  0.609-  21 2.22  21 2.22  25 2.28  18 2.31  23 2.38  23 2.38   7 3.52   7 3.52
                             3 3.52   2 3.75   2 3.75   4 3.81   4 3.81  12 3.89  12 3.89   8 4.07
  11  0.250  0.420  0.109-  28 2.22  28 2.22  24 2.28  15 2.31  26 2.38  26 2.38   6 3.52   6 3.52
                             4 3.52   1 3.75   1 3.75   3 3.81   3 3.81   9 3.89   9 3.89   5 4.07
  12  0.250  0.424  0.613-  13 2.27  27 2.28  25 2.32  25 2.32  14 2.37  14 2.37   4 3.34   2 3.37
                             5 3.55   5 3.55  10 3.89  10 3.89   6 4.07   6 4.07
  13  0.250  0.521  0.783-   6 2.22   6 2.22  12 2.27
  14  0.750  0.580  0.577-   5 2.28  12 2.37  12 2.37   2 2.60   2 2.60
  15  0.250  0.625  0.024-  11 2.31   6 2.38   6 2.38   1 2.58   1 2.58
  16  0.250  0.711  0.323-   7 2.28   5 2.32   5 2.32   1 2.73   1 2.73
  17  0.750  0.789  0.823-   6 2.28   8 2.32   8 2.32   2 2.73   2 2.73
  18  0.750  0.875  0.524-  10 2.31   7 2.38   7 2.38   2 2.58   2 2.58
  19  0.250  0.920  0.077-   8 2.28   9 2.37   9 2.37   1 2.60   1 2.60
  20  0.750  0.979  0.283-   7 2.22   7 2.22   9 2.27
  21  0.250  0.021  0.717-  10 2.22  10 2.22   8 2.27
  22  0.750  0.080  0.923-   9 2.28   8 2.37   8 2.37   4 2.60   4 2.60
  23  0.250  0.125  0.476-   7 2.31  10 2.38  10 2.38   3 2.58   3 2.58
  24  0.250  0.211  0.177-  11 2.28   9 2.32   9 2.32   3 2.73   3 2.73
  25  0.750  0.289  0.677-  10 2.28  12 2.32  12 2.32   4 2.73   4 2.73
  26  0.750  0.375  0.976-   6 2.31  11 2.38  11 2.38   4 2.58   4 2.58
  27  0.250  0.420  0.423-  12 2.28   5 2.37   5 2.37   3 2.60   3 2.60
  28  0.750  0.479  0.217-  11 2.22  11 2.22   5 2.27

  LATTYP: Found a simple orthorhombic cell.
 ALAT       =     3.4218650000
 B/A-ratio  =     2.9631873262
 C/A-ratio  =     3.5082123345

  Lattice vectors:

 A1 = (   3.4218650000,   0.0000000000,   0.0000000000)
 A2 = (   0.0000000000,  10.1396270000,   0.0000000000)
 A3 = (   0.0000000000,   0.0000000000,  12.0046290000)

Analysis of symmetry for initial positions (statically):
 Subroutine PRICEL returns:
 Original cell was already a primitive cell.

 Routine SETGRP: Setting up the symmetry group for a
 simple orthorhombic supercell.

 Subroutine GETGRP returns: Found  8 space group operations
 (whereof  2 operations were pure point group operations)
 out of a pool of  8 trial point group operations.

The static configuration has the point symmetry S_2 .
 The point group associated with its full space group is D_2h.

Analysis of symmetry for dynamics (positions and initial velocities):
 Subroutine PRICEL returns:
 Original cell was already a primitive cell.

[...]

The dynamic configuration has the point symmetry S_2 .
 The point group associated with its full space group is D_2h.

Analysis of structural, dynamic, and magnetic symmetry:
 Subroutine PRICEL returns:
 Original cell was already a primitive cell.

 Routine SETGRP: Setting up the symmetry group for a
 simple orthorhombic supercell.

 Subroutine GETGRP returns: Found  8 space group operations
 (whereof  2 operations were pure point group operations)
 out of a pool of  8 trial point group operations.

The overall configuration has the point symmetry S_2 .
 The point group associated with its full space group is D_2h.

 Subroutine INISYM returns: Found  8 space group operations
 (whereof  2 operations are pure point group operations),
 and found     1 'primitive' translations

                                     Primitive cell

  volume of cell :     416.5178

  direct lattice vectors                    reciprocal lattice vectors
     3.421865000  0.000000000  0.000000000     0.292238297  0.000000000  0.000000000
     0.000000000 10.139627000  0.000000000     0.000000000  0.098622957  0.000000000
     0.000000000  0.000000000 12.004629000     0.000000000  0.000000000  0.083301200

  length of vectors
     3.421865000 10.139627000 12.004629000     0.292238297  0.098622957  0.083301200

  position of ions in fractional coordinates (direct lattice)
     0.750000000  0.745590000  0.148733000
     0.250000000  0.754410000  0.648733000
     0.750000000  0.245590000  0.351267000
     0.250000000  0.254410000  0.851267000
     0.750000000  0.575510000  0.387109000
     0.750000000  0.579770000  0.890914000
     0.250000000  0.920230000  0.390914000
     0.250000000  0.924490000  0.887109000
     0.750000000  0.075510000  0.112891000
     0.750000000  0.079770000  0.609086000
     0.250000000  0.420230000  0.109086000
     0.250000000  0.424490000  0.612891000
     0.250000000  0.521470000  0.783239000
     0.750000000  0.580421000  0.577248000
     0.250000000  0.624854000  0.023857000
     0.250000000  0.710651000  0.323242000
     0.750000000  0.789349000  0.823242000
     0.750000000  0.875146000  0.523857000
     0.250000000  0.919579000  0.077248000
     0.750000000  0.978530000  0.283239000
     0.250000000  0.021470000  0.716761000
     0.750000000  0.080421000  0.922752000
     0.250000000  0.124854000  0.476143000
     0.250000000  0.210651000  0.176758000
     0.750000000  0.289349000  0.676758000
     0.750000000  0.375146000  0.976143000
     0.250000000  0.419579000  0.422752000
     0.750000000  0.478530000  0.216761000

  ion indices of the primitive-cell ions
   primitive index   ion index
                 1           1
                 2           2
                 3           3
                 4           4
                 5           5
                 6           6
                 7           7
                 8           8
                 9           9
                10          10
                11          11
                12          12
                13          13
                14          14
                15          15
                16          16
                17          17
                18          18
                19          19
                20          20
                21          21
[...]
  318                map_forward                           0.000227                    4   7
  319                  map_gather                            0.000046                  2   8
  320                  m_alltoallv_z                         0.000032                  2   8
  321                  map_scatter                           0.000116                  2   8
  322                map_backward                          0.000109                    2   7
  323                  map_gather                            0.000025                  1   8
  324                  m_alltoallv_z                         0.000013                  1   8
  325                  map_scatter                           0.000051                  1   8
  326          m_sumb_d                              0.000010                          2   4
  327          pothar                                0.000091                          1   4
  328            m_sumb_d                              0.000010                        1   5
  329        brmix                                 0.011753                            1   3
  330          m_sumb_d                              0.000246                          6   4
  331          brpre                                 0.000035                          2   4
  332          setg0                                 0.001416                          1   4
  333          broyd                                 0.008454                          1   4
  334            m_sumb_d                              0.001189                       49   5
  335            brget                                 0.001631                      219   5
  336            brsav                                 0.000377                       47   5
  337        m_bcast_d                             0.000026                            2   3
  338      potlok                                0.048659                              2   2
  339        fft3d_mpi                             0.031247                           36   3
  340          fftbrc_mpi                            0.026199                         36   4
  341            fftbas_plan_mpi                       0.026175                       36   5
  342              map_forward                           0.007197                     40   6
  343                map_gather                            0.002273                   24   7
  344                m_alltoallv_z                         0.002608                   24   7
  345                map_scatter                           0.002110                   24   7
  346              map_backward                          0.006380                     32   6
  347                map_gather                            0.002144                   16   7
  348                m_alltoallv_z                         0.002146                   16   7
  349                map_scatter                           0.001853                   16   7
  350              dfftw_execute                         0.010806                     30   6
  351        m_sumb_d                              0.000030                            5   3
  352        pothar                                0.001962                            2   3
  353          m_sumb_d                              0.000022                          2   4
  354        m_bcast_d                             0.003415                            4   3
  355      potlok_metagga                        0.000000                              1   2
  356      set_dd_magatom                        0.000004                              1   2
  357      set_dd_paw                            3.715643                              1   2
  358        m_sumb_d                              0.000454                            7   3
  359      augmentation_charge                   0.246014                              1   2
  360        fft3d_mpi                             0.066843                            2   3
  361          fftbrc_mpi                            0.058453                          2   4
  362            fftbas_plan_mpi                       0.058450                        2   5
  363              dfftw_execute                         0.035453                      6   6
  364              map_backward                          0.022730                      4   6
  365                map_gather                            0.007692                    2   7
  366                m_alltoallv_z                         0.007165                    2   7
  367                map_scatter                           0.007862                    2   7
  368      fftwav_mpi                            7.664570                           5160   2
  369        fftwav                                7.657962                         5160   3
  370          fft3d                                 7.118081                       5160   4
  371      densta                                8.012721                              1   2

 Flat profile

 set_dd_paw                            185.104057          50
 eddav                                 102.642289          52
 lapack                                 92.673687      190163
 raccmu_                                89.753904      190163
 redis_pw                               44.757801     1025556
 m_sumb_d                               42.227940      577950
 total_time                             19.653801           1
 m_alltoall_d                           19.234138     2689804
 fft3d                                  17.081605     1111196
 setdij_                                12.971208          76
 densta                                 12.873154          53
 phaser                                 12.201324        2340
 init_acc                               10.382559           1
 orth1                                   9.918423      570729
 eccp                                    9.704767       89440
 augmentation_charge                     8.914770          50
 redis_proj                              8.715400     1306408
 fftwav                                  7.683150      740944
 hamiltmu                                6.267878      190163
 rpromu_acc                              5.799666      150123
 racc0mu_acc                             5.595329      190163
 w1_copy                                 5.442676     1110756
 dfftw_execute                           5.436924        1644
 overl                                   5.416732      651104
 m_bcast_z                               4.809209      197043
 soft_charge                             3.438832          49
 setup_precond                           3.256582       89440
 m_bcast_d                               3.181802      380431
 ggemm                                   3.115978      235923
 overl_mu                                2.974696      190163
 acc_init_cublas                         2.447953           1
 pw_charge                               2.226063       62360
 vhamil                                  1.708064      370252
 kinhamil                                1.699002      370252
 fftext_mpi                              1.571428      370252
 apply_precond                           1.566675      280812
 newband                                 1.472038      192243
 m_alltoallv_z                           1.412987        2065
 depsum                                  1.368357          49
 rpro_isp                                1.201616         260
 fft3d_mpi                               1.150272      372099
 map_scatter                             1.139997        2065
 fftwav_mpi                              0.976332      740944
 map_gather                              0.935431        2065
 acc_init_cusolver                       0.794469           1
 set_charge                              0.594676          49
 sphpro_fast                             0.391630           2
 rspher_all                              0.386471          14
 potlok                                  0.272350          50
 elmin                                   0.164471           1
 w1_projall                              0.149863      144403
 acc_cufft_makeplan                      0.127169          19
 brmix                                   0.124997          48
 broyd                                   0.122051          48
 fftbas_plan_mpi                         0.120569        1847
 proall                                  0.107224           1
 lincom                                  0.082166        2120
 setg0                                   0.069607          50
 orthch                                  0.057992           1
 brget                                   0.044446        6108
 truncate_high_frequency_w1              0.034983      459692
 force_and_stress                        0.033354           1
 choleski                                0.025569          40
 stufak                                  0.019158           1
 map_backward                            0.012850        1934
 map_forward                             0.011065        1760
 brsav                                   0.010563        1479
 strnlr                                  0.008860           1
 pothar                                  0.006060          51
 fft_gq                                  0.005569          49
 inisym                                  0.004405           1
 fornlr                                  0.003684           1
 forhar                                  0.002869           2
 strelo                                  0.002788           1
 strkin                                  0.002429           1
 strehar                                 0.001995           1
 brpre                                   0.001794          96
 forloc                                  0.001495           1
 fftbrc_mpi                              0.001140        1847
 rsp                                     0.000944           1
 fewald                                  0.000343           1
 brgrid                                  0.000284           1
 chggra                                  0.000263           1
 set_dd_magatom                          0.000261          50
 vectorpot                               0.000220          49
 fordep                                  0.000143           1
 posmap                                  0.000065           2
 rcp                                     0.000030           1
 crpa_reader                             0.000026           1
 acc_cufft_makeplans                     0.000008           3
 rotate_active_occupied_orbital          0.000000           1
 redis_pw_over_bands                     0.000000           1
 potlok_metagga                          0.000000          49
  summed up times     785.9098649024963

 Accumulative profile

 total_time                            785.909865           1
 elmin                                 711.723004           1
 eddav                                 494.609976          52
 set_dd_paw                            185.361072          50
 hamiltmu                              112.316184      190163
 raccmu_                                98.323928      190163
 lapack                                 92.673687      190163
 redis_pw                               54.231304     1025556
 m_sumb_d                               42.227940      577950
 set_charge                             23.970491          49
 fftwav_mpi                             23.107333      740944
 fftwav                                 22.131001      740944
 newband                                21.533979      192243
 m_alltoall_d                           19.234138     2689804
 setdij_                                18.861770          76
 redis_proj                             18.476036     1306408
 fft3d                                  17.081605     1111196
 force_and_stress                       15.767040           1
 densta                                 12.873154          53
 fft3d_mpi                              12.854989      372099
 augmentation_charge                    12.281816          50
 phaser                                 12.201324        2340
 init_acc                               10.382559           1
 orth1                                   9.918423      570729
 soft_charge                             9.848962          49
 eccp                                    9.704767       89440
 fftbrc_mpi                              9.070963        1847
 fftbas_plan_mpi                         9.069823        1847
 kinhamil                                6.016314      370252
 rpromu_acc                              5.799666      150123
 racc0mu_acc                             5.595329      190163
 w1_copy                                 5.442676     1110756
 dfftw_execute                           5.436924        1644
 overl                                   5.416732      651104
 m_bcast_z                               4.809209      197043
 w1_projall                              4.346361      144403
 fftext_mpi                              4.317312      370252
 strnlr                                  3.784258           1
 rpro_isp                                3.504952         260
 setup_precond                           3.256582       89440
 m_bcast_d                               3.181802      380431
 ggemm                                   3.115978      235923
 overl_mu                                2.974696      190163
 acc_init_cublas                         2.447953           1
 pw_charge                               2.226063       62360
 map_forward                             1.883927        1760
 vhamil                                  1.708064      370252
 map_backward                            1.628403        1934
 apply_precond                           1.566675      280812
 fordep                                  1.486408           1
 m_alltoallv_z                           1.412987        2065
 depsum                                  1.383829          49
 fornlr                                  1.256163           1
 map_scatter                             1.139997        2065
 map_gather                              0.935431        2065
 acc_init_cusolver                       0.794469           1
 potlok                                  0.734084          50
 orthch                                  0.566845           1
 sphpro_fast                             0.407861           2
 brmix                                   0.395556          48
 rspher_all                              0.386471          14
 proall                                  0.319461           1
 broyd                                   0.194574          48
 fft_gq                                  0.161734          49
 acc_cufft_makeplans                     0.127177           3
 acc_cufft_makeplan                      0.127169          19
 lincom                                  0.082166        2120
 setg0                                   0.069607          50
 brget                                   0.044446        6108
 truncate_high_frequency_w1              0.034983      459692
 choleski                                0.025569          40
 stufak                                  0.019158           1
 brsav                                   0.010563        1479
 pothar                                  0.006520          51
 inisym                                  0.004470           1
 strelo                                  0.003090           1
 forhar                                  0.002929           2
 strkin                                  0.002437           1
 fewald                                  0.002131           1
 strehar                                 0.002017           1
 forloc                                  0.001868           1
 brpre                                   0.001794          96
 rsp                                     0.000944           1
 chggra                                  0.000914           1
 brgrid                                  0.000284           1
 set_dd_magatom                          0.000261          50
 vectorpot                               0.000220          49
 posmap                                  0.000065           2
 rcp                                     0.000030           1
 crpa_reader                             0.000026           1
 rotate_active_occupied_orbital          0.000000           1
 redis_pw_over_bands                     0.000000           1
 potlok_metagga                          0.000000          49

Profiling took   2.345486  1.166089  0.003370  0.003231 seconds
Profiling took   1.527275 seconds