 vasp.6.3.2 27Jun22 (build Jul  3 2023 11:46:21) complex
 executed on    LinuxNV_CrayMPICH date 2024.04.21  19:58:52

 INCAR:
   ADDGRID = True
   ALGO = Normal
   EDIFF = 0.0001
   ENCUT = 520.0
   IBRION = -1
   ISIF = 3
   ISMEAR = -5
   ISPIN = 2
   LAECHG = True
   LASPH = True
   LCHARG = True
   LORBIT = 11
   LREAL = Auto
   LVHAR = True
   LWAVE = False
   MAGMOM = 1*7.0 4*0.6
   NELM = 1000
   NSW = 0
   PREC = Accurate
   SIGMA = 0.05

 POTCAR:    PAW_PBE Eu 23Dec2003
 POTCAR:    PAW_PBE Si 05Jan2001
 POTCAR:    PAW_PBE Rh_pv 25Jan2005
 POTCAR:    PAW_PBE Eu 23Dec2003
   VRHFIN =Eu : [core=Kr4d]

   TITEL  = PAW_PBE Eu 23Dec2003
   POMASS =  151.965; ZVAL   =   17.000    mass and valenz
   ENMAX  =  249.668; ENMIN  =  187.251 eV

   TITEL  = PAW_PBE Si 05Jan2001
   POMASS =   28.085; ZVAL   =    4.000    mass and valenz
   ENMAX  =  245.345; ENMIN  =  184.009 eV

   TITEL  = PAW_PBE Rh_pv 25Jan2005
   POMASS =  102.906; ZVAL   =   15.000    mass and valenz
   ENMAX  =  247.408; ENMIN  =  185.556 eV

 Optimization of the real space projectors (new method)

 maximal supplied QI-value         = 13.42
 optimisation between [QCUT,QGAM] = [ 11.67, 23.35] = [ 38.16,152.62] Ry
 Optimized for a Real-space Cutoff    1.63 Angstroem

   l    n(q)    QCUT    max X(q) W(low)/X(q) W(high)/X(q)  e(spline)
   0     11    11.673    10.400    0.14E-04    0.18E-05    0.24E-07
   0     11    11.673    10.768    0.21E-04    0.32E-05    0.49E-07
   1     11    11.673     4.094    0.40E-05    0.13E-04    0.93E-07
   1     11    11.673     4.009    0.11E-04    0.46E-04    0.33E-06
   2     10    11.673    29.030    0.79E-04    0.60E-04    0.70E-06
   2     10    11.673    19.941    0.80E-04    0.60E-04    0.71E-06
   3     10    11.673    88.889    0.23E-03    0.29E-03    0.30E-06
   3     10    11.673    76.102    0.23E-03    0.30E-03    0.30E-06
 Optimization of the real space projectors (new method)

[...]

   l    n(q)    QCUT    max X(q) W(low)/X(q) W(high)/X(q)  e(spline)
   0      8    11.508   159.560    0.71E-04    0.15E-03    0.51E-07
   0      8    11.508   115.863    0.70E-04    0.15E-03    0.51E-07
   1      8    11.508    88.339    0.16E-03    0.38E-04    0.82E-07
   1      8    11.508    48.592    0.15E-03    0.36E-04    0.79E-07
 Optimization of the real space projectors (new method)

 maximal supplied QI-value         = 15.68
 optimisation between [QCUT,QGAM] = [ 11.61, 23.21] = [ 37.72,150.90] Ry
 Optimized for a Real-space Cutoff    1.45 Angstroem

   l    n(q)    QCUT    max X(q) W(low)/X(q) W(high)/X(q)  e(spline)
   1     10    11.607     3.143    0.27E-04    0.48E-04    0.10E-06
   1     10    11.607     5.034    0.71E-04    0.17E-03    0.32E-06
   2      9    11.607    64.180    0.22E-03    0.59E-04    0.28E-06
   2      9    11.607    61.342    0.22E-03    0.61E-04    0.29E-06
   0     10    11.607    55.593    0.52E-04    0.32E-04    0.17E-06
   0     10    11.607    26.178    0.47E-04    0.29E-04    0.15E-06
  PAW_PBE Eu 23Dec2003                  :
  PAW_PBE Si 05Jan2001                  :
  PAW_PBE Rh_pv 25Jan2005               :

 POSCAR: Eu1 Si2 Rh2
  positions in direct lattice
 exchange correlation table for  LEXCH =        8
   RHO(1)=    0.500       N(1)  =     2000
   RHO(2)=  100.500       N(2)  =     4000

 VTST: version 4.2, (08/11/21)

 CHAIN: initializing optimizer

 OPT: Using VASP Dynamics algorithm
 CHAIN: Read ICHAIN             0

 POSCAR: Eu1 Si2 Rh2
  positions in direct lattice

 ion  position               nearest neighbor table
   1  0.000  0.000  0.000-   2 3.22   2 3.22   2 3.22   3 3.22   2 3.22   3 3.22   3 3.22   3 3.22
                             5 3.31   4 3.31   5 3.31   4 3.31   4 3.31   4 3.31   5 3.31   5 3.31
   2  0.629  0.629  0.000-   5 2.42   4 2.42   4 2.42   5 2.42   3 2.67   1 3.22   1 3.22   1 3.22
                             1 3.22
   3  0.371  0.371  0.000-   4 2.42   5 2.42   5 2.42   4 2.42   2 2.67   1 3.22   1 3.22   1 3.22
                             1 3.22
   4  0.750  0.250  0.500-   3 2.42   2 2.42   3 2.42   2 2.42   5 2.93   5 2.93   5 2.93   5 2.93
                             1 3.31   1 3.31   1 3.31   1 3.31
   5  0.250  0.750  0.500-   3 2.42   2 2.42   3 2.42   2 2.42   4 2.93   4 2.93   4 2.93   4 2.93
                             1 3.31   1 3.31   1 3.31   1 3.31

  LATTYP: Found a body centered tetragonal cell.
 ALAT       =     4.1471240000
 C/A-ratio  =     2.4911447065

  Lattice vectors:

 A1 = (  -2.0735620000,   2.0735620000,   5.1655430000)
 A2 = (   2.0735620000,  -2.0735620000,   5.1655430000)
 A3 = (   2.0735620000,   2.0735620000,  -5.1655430000)

Analysis of symmetry for initial positions (statically):
 Subroutine PRICEL returns:
 Original cell was already a primitive cell.

 Routine SETGRP: Setting up the symmetry group for a
 body centered tetragonal supercell.

 Subroutine GETGRP returns: Found 16 space group operations
 (whereof 16 operations were pure point group operations)
 out of a pool of 16 trial point group operations.

The static configuration has the point symmetry D_4h.

Analysis of symmetry for dynamics (positions and initial velocities):
 Subroutine PRICEL returns:
 Original cell was already a primitive cell.

[...]

The dynamic configuration has the point symmetry D_4h.

Analysis of structural, dynamic, and magnetic symmetry:
 Subroutine PRICEL returns:
 Original cell was already a primitive cell.

 Routine SETGRP: Setting up the symmetry group for a
 body centered tetragonal supercell.

 Subroutine GETGRP returns: Found 16 space group operations
 (whereof 16 operations were pure point group operations)
 out of a pool of 16 trial point group operations.

The overall configuration has the point symmetry D_4h.

 Subroutine INISYM returns: Found 16 space group operations
 (whereof 16 operations are pure point group operations),
 and found     1 'primitive' translations

                                     Primitive cell

  volume of cell :      88.8403

  direct lattice vectors                    reciprocal lattice vectors
    -2.073562000  2.073562000  5.165543000     0.000000000  0.241130962  0.096795245
     2.073562000 -2.073562000  5.165543000     0.241130962  0.000000000  0.096795245
     2.073562000  2.073562000 -5.165543000     0.241130962  0.241130962 -0.000000000

  length of vectors
     5.939878216  5.939878216  5.939878216     0.259833524  0.259833524  0.341010677

  position of ions in fractional coordinates (direct lattice)
     0.000000000  0.000000000  0.000000000
     0.629415000  0.629415000  1.000000000
     0.370585000  0.370585000  1.000000000
     0.750000000  0.250000000  0.500000000
     0.250000000  0.750000000  0.500000000

  ion indices of the primitive-cell ions
   primitive index   ion index
                 1           1
                 2           2
                 3           3
                 4           4
                 5           5

 KPOINTS: Kpoints from vasprun.xml

Automatic generation of k-mesh.
 Grid dimensions read from file:
 generate k-points for:    6    6    6

 Generating k-lattice:

  Cartesian coordinates                     Fractional coordinates (reciprocal lattice)
     0.000000000  0.040188494  0.016132541     0.166666667  0.000000000 -0.000000000
     0.040188494  0.000000000  0.016132541     0.000000000  0.166666667 -0.000000000
     0.040188494  0.040188494 -0.000000000    -0.000000000 -0.000000000  0.166666667

  Length of vectors
     0.043305587  0.043305587  0.056835113

  Shift w.r.t. Gamma in fractional coordinates (k-lattice)
     0.500000000  0.500000000  0.500000000

 TETIRR: Found    278 inequivalent tetrahedra from     1296

 Subroutine IBZKPT returns following result:

 Found     28 irreducible k-points:

 Following reciprocal coordinates:
            Coordinates               Weight
  0.083333  0.083333  0.083333      8.000000
  0.250000  0.083333  0.083333     16.000000
  0.416667  0.083333  0.083333      8.000000
 -0.083333  0.083333  0.083333      4.000000
  0.250000  0.250000  0.083333      8.000000
  0.416667  0.250000  0.083333     16.000000
 -0.416667  0.250000  0.083333      8.000000
 -0.250000  0.250000  0.083333      8.000000
 -0.083333  0.250000  0.083333      8.000000
  0.416667  0.416667  0.083333      4.000000
 -0.416667  0.416667  0.083333      8.000000
 -0.250000  0.416667  0.083333     16.000000
 -0.083333  0.416667  0.083333      8.000000
 -0.416667 -0.416667  0.083333      8.000000
 -0.250000 -0.416667  0.083333     16.000000
 -0.083333 -0.416667  0.083333      8.000000
 -0.250000 -0.250000  0.083333      8.000000
 -0.083333 -0.250000  0.083333      8.000000
 -0.083333 -0.083333  0.083333      2.000000
  0.250000  0.250000  0.250000      2.000000
 -0.250000  0.250000  0.250000      4.000000
 -0.416667  0.416667  0.250000      8.000000
 -0.250000  0.416667  0.250000      8.000000
 -0.416667 -0.416667  0.250000      8.000000
 -0.250000 -0.416667  0.250000      8.000000
 -0.250000 -0.250000  0.250000      2.000000
 -0.416667  0.416667  0.416667      4.000000
 -0.416667 -0.416667  0.416667      2.000000

 Following cartesian coordinates:
            Coordinates               Weight
  0.040188  0.040188  0.016133      8.000000
  0.040188  0.080377  0.032265     16.000000
  0.040188  0.120565  0.048398      8.000000
  0.040188  0.000000  0.000000      4.000000
  0.080377  0.080377  0.048398      8.000000
  0.080377  0.120565  0.064530     16.000000
  0.080377 -0.080377 -0.016133      8.000000
  0.080377 -0.040188  0.000000      8.000000
  0.080377  0.000000  0.016133      8.000000
  0.120565  0.120565  0.080663      4.000000
  0.120565 -0.080377  0.000000      8.000000
  0.120565 -0.040188  0.016133     16.000000
  0.120565  0.000000  0.032265      8.000000
 -0.080377 -0.080377 -0.080663      8.000000
 -0.080377 -0.040188 -0.064530     16.000000
 -0.080377  0.000000 -0.048398      8.000000
 -0.040188 -0.040188 -0.048398      8.000000
 -0.040188  0.000000 -0.032265      8.000000
  0.000000  0.000000 -0.016133      2.000000
  0.120565  0.120565  0.048398      2.000000
  0.120565  0.000000  0.000000      4.000000
  0.160754 -0.040188  0.000000      8.000000
  0.160754  0.000000  0.016133      8.000000
 -0.040188 -0.040188 -0.080663      8.000000
 -0.040188  0.000000 -0.064530      8.000000
  0.000000  0.000000 -0.048398      2.000000
  0.200942  0.000000  0.000000      4.000000
  0.000000  0.000000 -0.080663      2.000000

 SYSTEM =  unknown system
 POSCAR =  Eu1 Si2 Rh2

 Startparameter for this run:
   NWRITE =      2    write-flag & timer
   PREC   = accura    normal or accurate (medium, high low for compatibility)
   ISTART =      0    job   : 0-new  1-cont  2-samecut
   ICHARG =      2    charge: 1-file 2-atom 10-const
   ISPIN  =      2    spin polarized calculation?
   LNONCOLLINEAR =      F non collinear calculations
   LSORBIT =      F    spin-orbit coupling
   INIWAV =      1    electr: 0-lowe 1-rand  2-diag
   LASPH  =      T    aspherical Exc in radial PAW
 Electronic Relaxation 1
   ENCUT  =  520.0 eV  38.22 Ry    6.18 a.u.  11.04 11.04 11.04*2*pi/ulx,y,z
   ENINI  =  520.0     initial cutoff
   ENAUG  =  549.6 eV  augmentation charge cutoff
[...]
  287          fft3d_mpi                             0.000475                          3   4
  288            fftbrc_mpi                            0.000372                        3   5
  289              fftbas_plan_mpi                       0.000372                      3   6
  290                map_forward                           0.000202                    4   7
  291                  map_gather                            0.000043                  2   8
  292                  m_alltoallv_z                         0.000027                  2   8
  293                  map_scatter                           0.000095                  2   8
  294                map_backward                          0.000084                    2   7
  295                  map_gather                            0.000020                  1   8
  296                  m_alltoallv_z                         0.000012                  1   8
  297                  map_scatter                           0.000035                  1   8
  298          m_sumb_d                              0.000010                          2   4
  299          pothar                                0.000080                          1   4
  300            m_sumb_d                              0.000010                        1   5
  301        brmix                                 0.003456                            1   3
  302          m_sumb_d                              0.000038                          6   4
  303          brpre                                 0.000021                          2   4
  304          setg0                                 0.000808                          1   4
  305          broyd                                 0.001707                          1   4
  306            m_sumb_d                              0.000231                       29   5
  307            brget                                 0.000420                      119   5
  308            brsav                                 0.000087                       27   5
  309        m_bcast_d                             0.000017                            2   3
  310      potlok                                0.028184                              2   2
  311        fft3d_mpi                             0.019067                           36   3
  312          fftbrc_mpi                            0.015862                         36   4
  313            fftbas_plan_mpi                       0.015844                       36   5
  314              map_forward                           0.004803                     40   6
  315                map_gather                            0.001533                   24   7
  316                m_alltoallv_z                         0.001748                   24   7
  317                map_scatter                           0.001329                   24   7
  318              map_backward                          0.003981                     32   6
  319                map_gather                            0.001291                   16   7
  320                m_alltoallv_z                         0.001328                   16   7
  321                map_scatter                           0.001177                   16   7
  322              dfftw_execute                         0.005424                     30   6
  323        m_sumb_d                              0.000023                            5   3
  324        pothar                                0.001129                            2   3
  325          m_sumb_d                              0.000094                          2   4
  326        m_bcast_d                             0.001840                            4   3
  327      potlok_metagga                        0.000000                              1   2
  328      set_dd_magatom                        0.000004                              1   2
  329      set_dd_paw                            1.407595                              1   2
  330        m_sumb_d                              0.937969                            7   3
  331      augmentation_charge                   0.124753                              1   2
  332        fft3d_mpi                             0.032461                            2   3
  333          fftbrc_mpi                            0.028415                          2   4
  334            fftbas_plan_mpi                       0.028413                        2   5
  335              dfftw_execute                         0.018719                      6   6
  336              map_backward                          0.009441                      4   6
  337                map_gather                            0.002367                    2   7
  338                m_alltoallv_z                         0.004252                    2   7
  339                map_scatter                           0.002814                    2   7
  340      densta                                0.771254                              1   2

 Flat profile

 m_sumb_d                               31.380811       88771
 raccmu_                                24.239406       28293
 eddav                                  13.428755          27
 lapack                                 12.881759       28293
 set_dd_paw                             11.789330          25
 init_acc                               11.531796           1
 total_time                              9.907146           1
 phaser                                  5.407365        1876
 redis_pw                                4.884542      157774
 setdij_                                 4.496260          51
 densta                                  3.217824          28
 m_alltoall_d                            3.095547      414022
 acc_init_cublas                         2.446185           1
 augmentation_charge                     2.228503          24
 dfftw_execute                           1.857858         972
 eccp                                    1.364137       15120
 redis_proj                              1.349589      199296
 fft3d                                   1.294169      171508
 fftwav                                  1.156935      114922
 rpromu_acc                              0.980734       22917
 orth1                                   0.964035       84991
 racc0mu_acc                             0.839699       28293
 w1_copy                                 0.837525      169758
 overl                                   0.824163       98108
 acc_init_cusolver                       0.798053           1
 soft_charge                             0.735077          23
 m_bcast_z                               0.654258       30533
 hamiltmu                                0.643332       28293
 m_alltoallv_z                           0.608551        1069
 setup_precond                           0.551549       15120
 m_bcast_d                               0.465449       56641
 rpro_isp                                0.456239         364
 overl_mu                                0.442673       28293
 ggemm                                   0.382488       35853
 fft3d_mpi                               0.332508       57559
 map_scatter                             0.289209        1069
 pw_charge                               0.264722        9590
 vhamil                                  0.263180       56586
 kinhamil                                0.262680       56586
 newband                                 0.261302       29805
 fftext_mpi                              0.239762       56586
 map_gather                              0.239435        1069
 apply_precond                           0.229898       41466
 depsum                                  0.211756          23
 set_charge                              0.184654          23
 rspher_all                              0.184115          14
 fftwav_mpi                              0.152028      114922
 acc_cufft_makeplan                      0.124557          19
 potlok                                  0.097753          25
 fftbas_plan_mpi                         0.067878         973
 elmin                                   0.057835           1
 lincom                                  0.047434        1568
 proall                                  0.043770           1
 sphpro_fast                             0.039673           2
 brmix                                   0.022033          23
 w1_projall                              0.021981       20733
 setg0                                   0.018712          25
 orthch                                  0.012744           1
 broyd                                   0.011614          23
 choleski                                0.010619          56
 force_and_stress                        0.009506           1
 strnlr                                  0.007423           1
 truncate_high_frequency_w1              0.005825       71706
 map_backward                            0.005290        1014
 brget                                   0.004995        1466
 map_forward                             0.004853         932
 inisym                                  0.004317           1
 pothar                                  0.002845          26
 stufak                                  0.002558           1
 fornlr                                  0.002544           1
 forhar                                  0.001920           2
 strelo                                  0.001625           1
 brsav                                   0.001293         372
 strehar                                 0.001246           1
 forloc                                  0.001025           1
 fft_gq                                  0.000794          23
 fftbrc_mpi                              0.000666         973
 brpre                                   0.000544          46
 fewald                                  0.000331           1
 strkin                                  0.000320           1
 chggra                                  0.000229           1
 brgrid                                  0.000159           1
 set_dd_magatom                          0.000108          25
 vectorpot                               0.000100          24
 rsp                                     0.000093           1
 fordep                                  0.000057           1
 crpa_reader                             0.000026           1
 posmap                                  0.000021           2
 acc_cufft_makeplans                     0.000011           3
 rcp                                     0.000011           1
 potlok_metagga                          0.000001          24
 rotate_active_occupied_orbital          0.000000           1
 redis_pw_over_bands                     0.000000           1
  summed up times     161.8943319320679

 Accumulative profile

 total_time                            161.894332           1
 elmin                                 124.944955           1
 eddav                                  82.274183          27
 set_dd_paw                             35.068375          25
 m_sumb_d                               31.380811       88771
 hamiltmu                               27.358129       28293
 raccmu_                                25.521778       28293
 lapack                                 12.881759       28293
 init_acc                               11.531796           1
 force_and_stress                        7.219909           1
 setdij_                                 6.669003          51
 redis_pw                                6.334218      157774
 phaser                                  5.407365        1876
 set_charge                              4.723855          23
 fft3d_mpi                               3.816505       57559
 newband                                 3.294773       29805
 densta                                  3.217824          28
 m_alltoall_d                            3.095547      414022
 fftbrc_mpi                              3.073740         973
 fftbas_plan_mpi                         3.073074         973
 augmentation_charge                     3.039045          24
 redis_proj                              2.995460      199296
 acc_init_cublas                         2.446185           1
 fftwav_mpi                              2.192875      114922
 fftwav                                  2.040847      114922
 dfftw_execute                           1.857858         972
 strnlr                                  1.633570           1
 soft_charge                             1.383491          23
 eccp                                    1.364137       15120
 fft3d                                   1.294169      171508
 rpro_isp                                1.051270         364
 rpromu_acc                              0.980734       22917
 orth1                                   0.964035       84991
 kinhamil                                0.929838       56586
 racc0mu_acc                             0.839699       28293
 w1_copy                                 0.837525      169758
 overl                                   0.824163       98108
 acc_init_cusolver                       0.798053           1
 fordep                                  0.789406           1
 map_forward                             0.697283         932
 fftext_mpi                              0.667159       56586
 m_bcast_z                               0.654258       30533
 w1_projall                              0.628566       20733
 m_alltoallv_z                           0.608551        1069
 setup_precond                           0.551549       15120
 fornlr                                  0.545135           1
 m_bcast_d                               0.465449       56641
 map_backward                            0.450055        1014
 overl_mu                                0.442673       28293
 ggemm                                   0.382488       35853
 potlok                                  0.360533          25
 map_scatter                             0.289209        1069
 orthch                                  0.283734           1
 pw_charge                               0.264722        9590
 vhamil                                  0.263180       56586
 map_gather                              0.239435        1069
 apply_precond                           0.229898       41466
 depsum                                  0.213417          23
 rspher_all                              0.184115          14
 proall                                  0.158032           1
 acc_cufft_makeplans                     0.124568           3
 acc_cufft_makeplan                      0.124557          19
 brmix                                   0.063668          23
 lincom                                  0.047434        1568
 sphpro_fast                             0.040771           2
 fft_gq                                  0.038466          23
 broyd                                   0.021159          23
 setg0                                   0.018712          25
 choleski                                0.010619          56
 truncate_high_frequency_w1              0.005825       71706
 brget                                   0.004995        1466
 inisym                                  0.004338           1
 pothar                                  0.003139          26
 stufak                                  0.002558           1
 forhar                                  0.001946           2
 strelo                                  0.001784           1
 brsav                                   0.001293         372
 strehar                                 0.001266           1
 forloc                                  0.001099           1
 chggra                                  0.000794           1
 brpre                                   0.000544          46
 fewald                                  0.000487           1
 strkin                                  0.000339           1
 brgrid                                  0.000159           1
 set_dd_magatom                          0.000108          25
 vectorpot                               0.000100          24
 rsp                                     0.000093           1
 crpa_reader                             0.000026           1
 posmap                                  0.000021           2
 rcp                                     0.000011           1
 potlok_metagga                          0.000001          24
 rotate_active_occupied_orbital          0.000000           1
 redis_pw_over_bands                     0.000000           1

Profiling took   0.360908  0.180600  0.003231  0.003145 seconds
Profiling took   0.224169 seconds