 vasp.6.3.2 27Jun22 (build Jul  3 2023 11:46:21) complex
 executed on    LinuxNV_CrayMPICH date 2024.04.22  03:15:01

 INCAR:
   ALGO = Normal
   EDIFF = 1e-05
   ENCUT = 520.0
   IBRION = -1
   ISIF = 3
   ISMEAR = -5
   ISPIN = 2
   LAECHG = True
   LASPH = True
   LCHARG = True
   LORBIT = 11
   LREAL = Auto
   LVHAR = True
   LWAVE = False
   MAGMOM = 2*0.6 1*7.0 7*0.6
   NELM = 1000
   NSW = 0
   PREC = Accurate
   SIGMA = 0.05

 POTCAR:    PAW_PBE K_sv 06Sep2000
 POTCAR:    PAW_PBE Gd 23Dec2003
 POTCAR:    PAW_PBE Au 04Oct2007
 POTCAR:    PAW_PBE Cl 06Sep2000
 POTCAR:    PAW_PBE K_sv 06Sep2000
   VRHFIN =K:  3s3p4s

   TITEL  = PAW_PBE K_sv 06Sep2000
   POMASS =   39.098; ZVAL   =    9.000    mass and valenz
   ENMAX  =  259.264; ENMIN  =  194.448 eV

   TITEL  = PAW_PBE Gd 23Dec2003
   POMASS =  157.250; ZVAL   =   18.000    mass and valenz
   ENMAX  =  256.472; ENMIN  =  192.354 eV

   TITEL  = PAW_PBE Au 04Oct2007
   POMASS =  196.966; ZVAL   =   11.000    mass and valenz
   ENMAX  =  229.943; ENMIN  =  172.457 eV

   TITEL  = PAW_PBE Cl 06Sep2000
   POMASS =   35.453; ZVAL   =    7.000    mass and valenz
   ENMAX  =  262.472; ENMIN  =  196.854 eV

 Optimization of the real space projectors (new method)

 maximal supplied QI-value         = 16.25
 optimisation between [QCUT,QGAM] = [ 11.54, 23.24] = [ 37.28,151.24] Ry
 Optimized for a Real-space Cutoff    1.32 Angstroem

   l    n(q)    QCUT    max X(q) W(low)/X(q) W(high)/X(q)  e(spline)
   0      9    11.539    11.234    0.52E-04    0.40E-04    0.14E-07
   0      9    11.539    12.505    0.97E-04    0.77E-04    0.27E-07
   1      9    11.539   167.359    0.18E-03    0.11E-02    0.48E-06
   1      9    11.539   168.875    0.18E-03    0.11E-02    0.48E-06
   2      8    11.539     3.435    0.16E-03    0.11E-03    0.38E-07
 Optimization of the real space projectors (new method)

[...]

   l    n(q)    QCUT    max X(q) W(low)/X(q) W(high)/X(q)  e(spline)
   2      9    11.641    60.898    0.24E-03    0.10E-03    0.19E-06
   2      9    11.641    58.894    0.25E-03    0.10E-03    0.19E-06
   0     10    11.641   109.617    0.73E-04    0.33E-04    0.11E-06
   0     10    11.641    75.026    0.71E-04    0.32E-04    0.11E-06
   1     10    11.641    16.344    0.27E-04    0.97E-04    0.16E-06
   1     10    11.641    10.160    0.23E-04    0.77E-04    0.13E-06
 Optimization of the real space projectors (new method)

 maximal supplied QI-value         = 19.84
 optimisation between [QCUT,QGAM] = [ 11.51, 23.22] = [ 37.09,150.92] Ry
 Optimized for a Real-space Cutoff    1.21 Angstroem

   l    n(q)    QCUT    max X(q) W(low)/X(q) W(high)/X(q)  e(spline)
   0      8    11.508   168.010    0.86E-04    0.17E-03    0.49E-07
   0      8    11.508   164.674    0.84E-04    0.16E-03    0.48E-07
   1      8    11.508    69.222    0.18E-03    0.70E-04    0.97E-07
   1      8    11.508    56.786    0.18E-03    0.67E-04    0.95E-07
  PAW_PBE K_sv 06Sep2000                :
  PAW_PBE Gd 23Dec2003                  :
  PAW_PBE Au 04Oct2007                  :
  PAW_PBE Cl 06Sep2000                  :

 POSCAR: K2 Gd1 Au1 Cl6
  positions in direct lattice
 exchange correlation table for  LEXCH =        8
   RHO(1)=    0.500       N(1)  =     2000
   RHO(2)=  100.500       N(2)  =     4000

 VTST: version 4.2, (08/11/21)

 CHAIN: initializing optimizer

 OPT: Using VASP Dynamics algorithm
 CHAIN: Read ICHAIN             0

 POSCAR: K2 Gd1 Au1 Cl6
  positions in direct lattice

 ion  position               nearest neighbor table
   1  0.750  0.750  0.750-
   2  0.250  0.250  0.250-
   3  0.000  0.000  0.000-   5 2.66   6 2.66   7 2.66   8 2.66   9 2.66  10 2.66
   4  0.500  0.500  0.500-   5 2.73   6 2.73   7 2.73   8 2.73   9 2.73  10 2.73
   5  0.754  0.246  0.246-   3 2.66   4 2.73
   6  0.246  0.246  0.754-   3 2.66   4 2.73
   7  0.246  0.754  0.754-   3 2.66   4 2.73
   8  0.246  0.754  0.246-   3 2.66   4 2.73
   9  0.754  0.246  0.754-   3 2.66   4 2.73
  10  0.754  0.754  0.246-   3 2.66   4 2.73

  LATTYP: Found a face centered cubic cell.
 ALAT       =    10.7875400000

  Lattice vectors:

 A1 = (   0.0000000000,   5.3937700000,   5.3937700000)
 A2 = (   5.3937700000,   0.0000000000,   5.3937700000)
 A3 = (   5.3937700000,   5.3937700000,   0.0000000000)

Analysis of symmetry for initial positions (statically):
 Subroutine PRICEL returns:
 Original cell was already a primitive cell.

 Routine SETGRP: Setting up the symmetry group for a
 face centered cubic supercell.

 Subroutine GETGRP returns: Found 48 space group operations
 (whereof 48 operations were pure point group operations)
 out of a pool of 48 trial point group operations.

The static configuration has the point symmetry O_h .

Analysis of symmetry for dynamics (positions and initial velocities):
 Subroutine PRICEL returns:
 Original cell was already a primitive cell.

[...]

The dynamic configuration has the point symmetry O_h .

Analysis of structural, dynamic, and magnetic symmetry:
 Subroutine PRICEL returns:
 Original cell was already a primitive cell.

 Routine SETGRP: Setting up the symmetry group for a
 face centered cubic supercell.

 Subroutine GETGRP returns: Found 48 space group operations
 (whereof 48 operations were pure point group operations)
 out of a pool of 48 trial point group operations.

The overall configuration has the point symmetry O_h .

 Subroutine INISYM returns: Found 48 space group operations
 (whereof 48 operations are pure point group operations),
 and found     1 'primitive' translations

                                     Primitive cell

  volume of cell :     313.8393

  direct lattice vectors                    reciprocal lattice vectors
     0.000000000  5.393770000  5.393770000    -0.092699540  0.092699540  0.092699540
     5.393770000  0.000000000  5.393770000     0.092699540 -0.092699540  0.092699540
     5.393770000  5.393770000  0.000000000     0.092699540  0.092699540 -0.092699540

  length of vectors
     7.627942686  7.627942686  7.627942686     0.160560314  0.160560314  0.160560314

  position of ions in fractional coordinates (direct lattice)
     0.750000000  0.750000000  0.750000000
     0.250000000  0.250000000  0.250000000
     0.000000000  0.000000000  0.000000000
     0.500000000  0.500000000  0.500000000
     0.753504000  0.246496000  0.246496000
     0.246496000  0.246496000  0.753504000
     0.246496000  0.753504000  0.753504000
     0.246496000  0.753504000  0.246496000
     0.753504000  0.246496000  0.753504000
     0.753504000  0.753504000  0.246496000

  ion indices of the primitive-cell ions
   primitive index   ion index
                 1           1
                 2           2
                 3           3
                 4           4
                 5           5
                 6           6
                 7           7
                 8           8
                 9           9
                10          10

 KPOINTS: Kpoints from vasprun.xml

Automatic generation of k-mesh.
 Grid dimensions read from file:
 generate k-points for:    4    4    4

 Generating k-lattice:

  Cartesian coordinates                     Fractional coordinates (reciprocal lattice)
    -0.023174885  0.023174885  0.023174885     0.250000000  0.000000000  0.000000000
     0.023174885 -0.023174885  0.023174885     0.000000000  0.250000000 -0.000000000
     0.023174885  0.023174885 -0.023174885    -0.000000000 -0.000000000  0.250000000

  Length of vectors
     0.040140078  0.040140078  0.040140078

  Shift w.r.t. Gamma in fractional coordinates (k-lattice)
     0.500000000  0.500000000  0.500000000

 TETIRR: Found    102 inequivalent tetrahedra from     1536

 Subroutine IBZKPT returns following result:

 Found     10 irreducible k-points:

 Following reciprocal coordinates:
            Coordinates               Weight
  0.125000  0.125000  0.125000      8.000000
  0.375000  0.125000  0.125000     24.000000
 -0.375000  0.125000  0.125000     24.000000
 -0.125000  0.125000  0.125000     24.000000
  0.375000  0.375000  0.125000     24.000000
 -0.375000  0.375000  0.125000     48.000000
 -0.125000  0.375000  0.125000     48.000000
 -0.375000 -0.375000  0.125000     24.000000
  0.375000  0.375000  0.375000      8.000000
 -0.375000  0.375000  0.375000     24.000000

 Following cartesian coordinates:
            Coordinates               Weight
  0.011587  0.011587  0.011587      8.000000
 -0.011587  0.034762  0.034762     24.000000
  0.057937 -0.034762 -0.034762     24.000000
  0.034762 -0.011587 -0.011587     24.000000
  0.011587  0.011587  0.057937     24.000000
  0.081112 -0.057937 -0.011587     48.000000
  0.057937 -0.034762  0.011587     48.000000
  0.011587  0.011587 -0.081112     24.000000
  0.034762  0.034762  0.034762      8.000000
  0.104287 -0.034762 -0.034762     24.000000

 SYSTEM =  unknown system
 POSCAR =  K2 Gd1 Au1 Cl6

 Startparameter for this run:
   NWRITE =      2    write-flag & timer
   PREC   = accura    normal or accurate (medium, high low for compatibility)
   ISTART =      0    job   : 0-new  1-cont  2-samecut
   ICHARG =      2    charge: 1-file 2-atom 10-const
   ISPIN  =      2    spin polarized calculation?
   LNONCOLLINEAR =      F non collinear calculations
   LSORBIT =      F    spin-orbit coupling
   INIWAV =      1    electr: 0-lowe 1-rand  2-diag
   LASPH  =      T    aspherical Exc in radial PAW
 Electronic Relaxation 1
   ENCUT  =  520.0 eV  38.22 Ry    6.18 a.u.  14.18 14.18 14.18*2*pi/ulx,y,z
   ENINI  =  520.0     initial cutoff
   ENAUG  =  537.2 eV  augmentation charge cutoff
   NELM   =   1000;   NELMIN=  2; NELMDL= -5     # of ELM steps
   EDIFF  = 0.1E-04   stopping-criterion for ELM
   LREAL  =      T    real-space projection
   NLSPLINE    = F    spline interpolate recip. space projectors
   LCOMPAT=      F    compatible to vasp.4.4
   GGA_COMPAT  = T    GGA compatible to vasp.4.4-vasp.4.6
   LMAXPAW     = -100 max onsite density
   LMAXMIX     =    2 max onsite mixed and CHGCAR
   VOSKOWN=      0    Vosko Wilk Nusair interpolation
   ROPT   =   -0.00025  -0.00025  -0.00025  -0.00025
 Ionic relaxation
   EDIFFG = 0.1E-03   stopping-criterion for IOM
   NSW    =      0    number of steps for IOM
   NBLOCK =      1;   KBLOCK =      1    inner block; outer block
   IBRION =     -1    ionic relax: 0-MD 1-quasi-New 2-CG
   NFREE  =      0    steps in history (QN), initial steepest desc. (CG)
   ISIF   =      3    stress and relaxation
   IWAVPR =     10    prediction:  0-non 1-charg 2-wave 3-comb
   ISYM   =      2    0-nonsym 1-usesym 2-fastsym
   LCORR  =      T    Harris-Foulkes like correction to forces

   POTIM  = 0.5000    time-step for ionic-motion
   TEIN   =    0.0    initial temperature
   TEBEG  =    0.0;   TEEND  =   0.0 temperature during run
   SMASS  =  -3.00    Nose mass-parameter (am)
   estimated Nose-frequenzy (Omega)   =  0.10E-29 period in steps = 0.13E+47 mass=  -0.133E-26a.u.
   SCALEE = 1.0000    scale energy and forces
   NPACO  =    256;   APACO  = 10.0  distance and # of slots for P.C.
   PSTRESS=    0.0 pullay stress

  Mass of Ions in am
   POMASS =  39.10157.25196.97 35.45
  Ionic Valenz
   ZVAL   =   9.00 18.00 11.00  7.00
  Atomic Wigner-Seitz radii
[...]
  239          fft3d_mpi                             0.000529                          3   4
  240            fftbrc_mpi                            0.000418                        3   5
  241              fftbas_plan_mpi                       0.000416                      3   6
  242                map_forward                           0.000223                    4   7
  243                  map_gather                            0.000050                  2   8
  244                  m_alltoallv_z                         0.000026                  2   8
  245                  map_scatter                           0.000111                  2   8
  246                map_backward                          0.000108                    2   7
  247                  map_gather                            0.000026                  1   8
  248                  m_alltoallv_z                         0.000011                  1   8
  249                  map_scatter                           0.000054                  1   8
  250          m_sumb_d                              0.000009                          2   4
  251          pothar                                0.000088                          1   4
  252            m_sumb_d                              0.000011                        1   5
  253        brmix                                 0.007783                            1   3
  254          m_sumb_d                              0.000061                          6   4
  255          brpre                                 0.000043                          2   4
  256          setg0                                 0.001561                          1   4
  257          broyd                                 0.004368                          1   4
  258            m_sumb_d                              0.000402                       36   5
  259            brget                                 0.001060                      154   5
  260            brsav                                 0.000232                       34   5
  261        m_bcast_d                             0.000020                            2   3
  262      potlok                                0.052146                              2   2
  263        fft3d_mpi                             0.031718                           36   3
  264          fftbrc_mpi                            0.027369                         36   4
  265            fftbas_plan_mpi                       0.027352                       36   5
  266              map_forward                           0.007845                     40   6
  267                map_gather                            0.002438                   24   7
  268                m_alltoallv_z                         0.002945                   24   7
  269                map_scatter                           0.002230                   24   7
  270              map_backward                          0.006834                     32   6
  271                map_gather                            0.002342                   16   7
  272                m_alltoallv_z                         0.002375                   16   7
  273                map_scatter                           0.001917                   16   7
  274              dfftw_execute                         0.010863                     30   6
  275        m_sumb_d                              0.000027                            5   3
  276        pothar                                0.002090                            2   3
  277          m_sumb_d                              0.000157                          2   4
  278        m_bcast_d                             0.003537                            4   3
  279      potlok_metagga                        0.000000                              1   2
  280      set_dd_magatom                        0.000004                              1   2
  281      set_dd_paw                            1.152798                              1   2
  282        m_sumb_d                              0.472652                            7   3
  283      augmentation_charge                   0.016438                              1   2
  284        fft3d_mpi                             0.006060                            2   3
  285          fftbrc_mpi                            0.005299                          2   4
  286            fftbas_plan_mpi                       0.005297                        2   5
  287              dfftw_execute                         0.002407                      6   6
  288              map_backward                          0.002646                      4   6
  289                map_gather                            0.000846                    2   7
  290                m_alltoallv_z                         0.001123                    2   7
  291                map_scatter                           0.000671                    2   7
  292      densta                                0.779491                              1   2

 Flat profile

 m_sumb_d                               24.859337       68694
 set_dd_paw                             21.495713          32
 raccmu_                                12.365212       21646
 init_acc                               11.637139           1
 total_time                             11.515104           1
 eddav                                  10.747632          34
 lapack                                  9.469355       21646
 redis_pw                                4.520412      111116
 acc_init_cublas                         3.428925           1
 m_alltoall_d                            2.165557      291504
 phaser                                  1.908005         810
 densta                                  1.846831          35
 eccp                                    1.068116       10200
 acc_init_cusolver                       1.060176           1
 redis_proj                              0.959638      140908
 fft3d                                   0.910868      120553
 fftwav                                  0.796350       80581
 orth1                                   0.751121       64978
 rpromu_acc                              0.647550       17246
 racc0mu_acc                             0.627130       21646
 hamiltmu                                0.625157       21646
 w1_copy                                 0.594947      119916
 overl                                   0.575844       69764
 m_bcast_z                               0.552569       22846
 set_charge                              0.491898          30
 soft_charge                             0.479694          30
 setdij_                                 0.422015          58
 ggemm                                   0.416387       27086
 setup_precond                           0.370728       10200
 m_bcast_d                               0.360856       43361
 overl_mu                                0.336487       21646
 augmentation_charge                     0.311943          31
 acc_cufft_makeplan                      0.252594          19
 rpro_isp                                0.240479         130
 pw_charge                               0.234381        6937
 newband                                 0.200191       22326
 m_alltoallv_z                           0.198695        1103
 potlok                                  0.193370          32
 vhamil                                  0.186728       39972
 kinhamil                                0.182936       39972
 fftext_mpi                              0.170321       39972
 apply_precond                           0.166958       29772
 depsum                                  0.148252          30
 rspher_all                              0.133996          14
 fft3d_mpi                               0.128443       40951
 dfftw_execute                           0.124464         444
 fftwav_mpi                              0.109117       80581
 map_scatter                             0.088468        1103
 elmin                                   0.074061           1
 map_gather                              0.071690        1103
 brmix                                   0.054158          30
 proall                                  0.047621           1
 setg0                                   0.047270          32
 fftbas_plan_mpi                         0.043791         979
 broyd                                   0.037264          30
 sphpro_fast                             0.033033           2
 lincom                                  0.024719         700
 brget                                   0.016685        2439
 w1_projall                              0.015682       16206
 force_and_stress                        0.012148           1
 orthch                                  0.010243           1
 stufak                                  0.008909           1
 map_forward                             0.007205         924
 map_backward                            0.006822        1034
 choleski                                0.006359          20
 inisym                                  0.005164           1
 pothar                                  0.004562          33
 truncate_high_frequency_w1              0.004281       50172
 brsav                                   0.004048         590
 forhar                                  0.003935           2
 fft_gq                                  0.003538          30
 strnlr                                  0.003013           1
 strelo                                  0.002662           1
 strehar                                 0.002149           1
 forloc                                  0.002012           1
 brpre                                   0.001224          60
 fornlr                                  0.001045           1
 fftbrc_mpi                              0.000541         979
 strkin                                  0.000505           1
 fewald                                  0.000366           1
 brgrid                                  0.000278           1
 chggra                                  0.000249           1
 rsp                                     0.000222           1
 set_dd_magatom                          0.000133          32
 vectorpot                               0.000130          31
 posmap                                  0.000090           2
 fordep                                  0.000046           1
 crpa_reader                             0.000026           1
 rcp                                     0.000022           1
 acc_cufft_makeplans                     0.000013           3
 potlok_metagga                          0.000001          31
 rotate_active_occupied_orbital          0.000000           1
 redis_pw_over_bands                     0.000000           1
  summed up times     131.6360008716583

 Accumulative profile

 total_time                            131.636001           1
 elmin                                  98.674006           1
 eddav                                  59.734694          34
 set_dd_paw                             36.933016          32
 m_sumb_d                               24.859337       68694
 hamiltmu                               14.793739       21646
 raccmu_                                13.328829       21646
 init_acc                               11.637139           1
 lapack                                  9.469355       21646
 redis_pw                                5.540886      111116
 acc_init_cublas                         3.428925           1
 newband                                 2.432982       22326
 force_and_stress                        2.393605           1
 set_charge                              2.386915          30
 m_alltoall_d                            2.165557      291504
 redis_proj                              2.104720      140908
 phaser                                  1.908005         810
 densta                                  1.846831          35
 fftwav_mpi                              1.528754       80581
 fftwav                                  1.419638       80581
 soft_charge                             1.155100          30
 eccp                                    1.068116       10200
 acc_init_cusolver                       1.060176           1
 fft3d_mpi                               0.957699       40951
 fft3d                                   0.910868      120553
 orth1                                   0.751121       64978
 strnlr                                  0.708449           1
 kinhamil                                0.653025       39972
 rpromu_acc                              0.647550       17246
 racc0mu_acc                             0.627130       21646
 w1_copy                                 0.594947      119916
 overl                                   0.575844       69764
 m_bcast_z                               0.552569       22846
 rpro_isp                                0.549823         130
 fftbrc_mpi                              0.541675         979
 fftbas_plan_mpi                         0.541134         979
 potlok                                  0.508554          32
 augmentation_charge                     0.503245          31
 w1_projall                              0.474658       16206
 fftext_mpi                              0.470090       39972
 setdij_                                 0.435101          58
 ggemm                                   0.416387       27086
 setup_precond                           0.370728       10200
 m_bcast_d                               0.360856       43361
 overl_mu                                0.336487       21646
 acc_cufft_makeplans                     0.252607           3
 acc_cufft_makeplan                      0.252594          19
 fornlr                                  0.236406           1
 pw_charge                               0.234381        6937
 orthch                                  0.228724           1
 m_alltoallv_z                           0.198695        1103
 map_forward                             0.198182         924
 vhamil                                  0.186728       39972
 map_backward                            0.174697        1034
 brmix                                   0.170712          30
 apply_precond                           0.166958       29772
 depsum                                  0.160307          30
 rspher_all                              0.133996          14
 dfftw_execute                           0.124464         444
 fft_gq                                  0.102262          30
 proall                                  0.089359           1
 map_scatter                             0.088468        1103
 map_gather                              0.071690        1103
 broyd                                   0.066180          30
 setg0                                   0.047270          32
 fordep                                  0.044856           1
 sphpro_fast                             0.034091           2
 lincom                                  0.024719         700
 brget                                   0.016685        2439
 stufak                                  0.008909           1
 choleski                                0.006359          20
 inisym                                  0.005254           1
 pothar                                  0.005010          33
 truncate_high_frequency_w1              0.004281       50172
 brsav                                   0.004048         590
 forhar                                  0.003943           2
 strelo                                  0.002979           1
 strehar                                 0.002152           1
 forloc                                  0.002102           1
 brpre                                   0.001224          60
 chggra                                  0.000875           1
 fewald                                  0.000777           1
 strkin                                  0.000519           1
 brgrid                                  0.000278           1
 rsp                                     0.000222           1
 set_dd_magatom                          0.000133          32
 vectorpot                               0.000130          31
 posmap                                  0.000090           2
 crpa_reader                             0.000026           1
 rcp                                     0.000022           1
 potlok_metagga                          0.000001          31
 rotate_active_occupied_orbital          0.000000           1
 redis_pw_over_bands                     0.000000           1

Profiling took   0.267171  0.132753  0.003211  0.003146 seconds
Profiling took   0.167499 seconds