 vasp.6.3.2 27Jun22 (build Jul  3 2023 11:46:21) complex
 executed on    LinuxNV_CrayMPICH date 2024.04.22  00:54:13

 INCAR:
   ALGO = Normal
   EDIFF = 0.001
   EFIELD_PEAD = 0.0 0.0 0.0
   ENCUT = 520.0
   IBRION = 2
   ICHARG = 1
   ISIF = 3
   ISMEAR = 0
   ISPIN = 2
   ISTART = 1
   ISYM = 0
   LCALCEPS = False
   LCALCPOL = False
   LEFG = False
   LORBIT = 11
   LPEAD = False
   LREAL = Auto
   LWAVE = False
   MAGMOM = 4*7.0 16*0.6
   NELM = 1000
   NSW = 99
   PREC = accurate
   SIGMA = 0.2

 POTCAR:    PAW_PBE Eu 23Dec2003
 POTCAR:    PAW_PBE Ga_d 06Jul2010
 POTCAR:    PAW_PBE Sb 06Sep2000
 POTCAR:    PAW_PBE Eu 23Dec2003
   VRHFIN =Eu : [core=Kr4d]

   TITEL  = PAW_PBE Eu 23Dec2003
   POMASS =  151.965; ZVAL   =   17.000    mass and valenz
   ENMAX  =  249.668; ENMIN  =  187.251 eV

   TITEL  = PAW_PBE Ga_d 06Jul2010
   POMASS =   69.723; ZVAL   =   13.000    mass and valenz
   ENMAX  =  282.691; ENMIN  =  212.018 eV

   TITEL  = PAW_PBE Sb 06Sep2000
   POMASS =  121.750; ZVAL   =    5.000    mass and valenz
   ENMAX  =  172.069; ENMIN  =  129.052 eV

 Optimization of the real space projectors (new method)

 maximal supplied QI-value         = 13.42
 optimisation between [QCUT,QGAM] = [ 11.67, 23.35] = [ 38.16,152.62] Ry
 Optimized for a Real-space Cutoff    1.63 Angstroem

   l    n(q)    QCUT    max X(q) W(low)/X(q) W(high)/X(q)  e(spline)
   0     11    11.673    10.400    0.14E-04    0.18E-05    0.24E-07
   0     11    11.673    10.768    0.21E-04    0.32E-05    0.49E-07
   1     11    11.673     4.094    0.40E-05    0.13E-04    0.93E-07
   1     11    11.673     4.009    0.11E-04    0.46E-04    0.33E-06
   2     10    11.673    29.030    0.79E-04    0.60E-04    0.70E-06
   2     10    11.673    19.941    0.80E-04    0.60E-04    0.71E-06
   3     10    11.673    88.889    0.23E-03    0.29E-03    0.30E-06
   3     10    11.673    76.102    0.23E-03    0.30E-03    0.30E-06
 Optimization of the real space projectors (new method)

[...]

   l    n(q)    QCUT    max X(q) W(low)/X(q) W(high)/X(q)  e(spline)
   2      9    11.539     7.143    0.65E-04    0.19E-03    0.15E-06
   2      9    11.539     5.586    0.13E-03    0.40E-03    0.26E-06
   0      9    11.539    12.382    0.18E-04    0.19E-04    0.34E-07
   0      9    11.539     6.622    0.35E-04    0.38E-04    0.71E-07
   1      9    11.539     7.935    0.18E-03    0.22E-03    0.17E-06
   1      9    11.539     2.425    0.15E-03    0.19E-03    0.16E-06
 Optimization of the real space projectors (new method)

 maximal supplied QI-value         = 16.25
 optimisation between [QCUT,QGAM] = [ 11.54, 23.24] = [ 37.28,151.24] Ry
 Optimized for a Real-space Cutoff    1.36 Angstroem

   l    n(q)    QCUT    max X(q) W(low)/X(q) W(high)/X(q)  e(spline)
   0      9    11.539    19.000    0.40E-04    0.50E-04    0.84E-07
   0      9    11.539     9.057    0.48E-04    0.60E-04    0.10E-06
   1      9    11.539   125.345    0.24E-03    0.13E-04    0.15E-06
   1      9    11.539    79.963    0.24E-03    0.12E-04    0.14E-06
   2      9    11.539     6.963    0.31E-04    0.10E-03    0.57E-07
  PAW_PBE Eu 23Dec2003                  :
  PAW_PBE Ga_d 06Jul2010                :
  PAW_PBE Sb 06Sep2000                  :

 POSCAR: Eu4 Ga8 Sb8
  positions in direct lattice
 exchange correlation table for  LEXCH =        8
   RHO(1)=    0.500       N(1)  =     2000
   RHO(2)=  100.500       N(2)  =     4000

 VTST: version 4.2, (08/11/21)

 CHAIN: initializing optimizer

 OPT: Using VASP Conjugate-Gradient optimizer
 CHAIN: Read ICHAIN             0

 POSCAR: Eu4 Ga8 Sb8
  positions in direct lattice

 ion  position               nearest neighbor table
   1  0.750  0.115  0.781-  16 3.40  16 3.40  17 3.41  19 3.44  19 3.44  13 3.48
   2  0.750  0.615  0.719-  15 3.40  15 3.40  18 3.41  20 3.44  20 3.44  14 3.48
   3  0.250  0.885  0.219-  14 3.40  14 3.40  19 3.41  17 3.44  17 3.44  15 3.48
   4  0.250  0.385  0.281-  13 3.40  13 3.40  20 3.41  18 3.44  18 3.44  16 3.48
   5  0.750  0.292  0.963-  10 2.52  16 2.69  16 2.69  13 2.69
   6  0.750  0.792  0.537-   9 2.52  15 2.69  15 2.69  14 2.69
   7  0.250  0.708  0.037-  12 2.52  14 2.69  14 2.69  15 2.69
   8  0.250  0.208  0.463-  11 2.52  13 2.69  13 2.69  16 2.69
   9  0.750  0.929  0.559-   6 2.52  19 2.68  19 2.68  17 2.89
  10  0.750  0.429  0.941-   5 2.52  20 2.68  20 2.68  18 2.89
  11  0.250  0.071  0.441-   8 2.52  17 2.68  17 2.68  19 2.89
  12  0.250  0.571  0.059-   7 2.52  18 2.68  18 2.68  20 2.89
  13  0.750  0.287  0.564-   8 2.69   8 2.69   5 2.69   4 3.40   4 3.40   1 3.48
  14  0.750  0.787  0.936-   7 2.69   7 2.69   6 2.69   3 3.40   3 3.40   2 3.48
  15  0.250  0.713  0.436-   6 2.69   6 2.69   7 2.69   2 3.40   2 3.40   3 3.48
  16  0.250  0.213  0.064-   5 2.69   5 2.69   8 2.69   1 3.40   1 3.40   4 3.48
  17  0.750  0.031  0.232-  11 2.68  11 2.68   9 2.89   1 3.41   3 3.44   3 3.44
  18  0.750  0.531  0.268-  12 2.68  12 2.68  10 2.89   2 3.41   4 3.44   4 3.44
  19  0.250  0.969  0.768-   9 2.68   9 2.68  11 2.89   3 3.41   1 3.44   1 3.44
  20  0.250  0.469  0.732-  10 2.68  10 2.68  12 2.89   4 3.41   2 3.44   2 3.44

IMPORTANT INFORMATION: All symmetrisations will be switched off!
NOSYMM: (Re-)initialisation of all symmetry stuff for point group C_1.

                                     Primitive cell

  volume of cell :     534.8945

  direct lattice vectors                    reciprocal lattice vectors
     0.000012720 -4.322107830  0.000020690    -0.000000681 -0.231368591 -0.000001108
   -18.343313460  0.000054010 -0.000801750    -0.054515778 -0.000000160  0.000002383
    -0.000294880  0.000032310 -6.746751500     0.000006478 -0.000000710 -0.148219480

  length of vectors
     4.322107830 18.343313478  6.746751507     0.231368591  0.054515778  0.148219481

  position of ions in fractional coordinates (direct lattice)
     0.750000650  0.115133550  0.781244210
     0.749997500  0.615139950  0.718745200
     0.249999540  0.884868380  0.218749560
     0.250002820  0.384860990  0.281240150
     0.749998500  0.292100180  0.963174440
     0.750001060  0.792098760  0.536820720
     0.250001940  0.707899240  0.036838490
     0.249998740  0.207904970  0.463173420
     0.749998930  0.929241200  0.559318660
     0.749997390  0.429248180  0.940673020
     0.249999080  0.070757530  0.440664840
     0.250003440  0.570750610  0.059333920
     0.750000760  0.287020070  0.564244700
     0.749998090  0.787026480  0.935790600
     0.250000210  0.712982750  0.435753300
     0.250002140  0.212974590  0.064216990
     0.750002570  0.030581040  0.232050590
     0.749996470  0.530601480  0.267948920
     0.249997160  0.969409820  0.767964330
     0.250003030  0.469400250  0.732053920

  ion indices of the primitive-cell ions
   primitive index   ion index
                 1           1
                 2           2
                 3           3
                 4           4
                 5           5
                 6           6
                 7           7
                 8           8
                 9           9
                10          10
                11          11
                12          12
                13          13
                14          14
                15          15
                16          16
                17          17
                18          18
                19          19
                20          20

 KPOINTS: Kpoints from vasprun.xml

Automatic generation of k-mesh.
 Grid dimensions read from file:
 generate k-points for:    8    2    4

 Generating k-lattice:

  Cartesian coordinates                     Fractional coordinates (reciprocal lattice)
    -0.000000085 -0.028921074 -0.000000138     0.125000000 -0.000000000 -0.000000000
    -0.027257889 -0.000000080  0.000001191    -0.000000000  0.500000000  0.000000000
     0.000001620 -0.000000177 -0.037054870     0.000000000 -0.000000000  0.250000000

  Length of vectors
     0.028921074  0.027257889  0.037054870

  Shift w.r.t. Gamma in fractional coordinates (k-lattice)
     0.000000000  0.000000000  0.000000000

 Subroutine IBZKPT returns following result:

 Found     36 irreducible k-points:

 Following reciprocal coordinates:
            Coordinates               Weight
  0.000000  0.000000  0.000000      1.000000
  0.125000  0.000000  0.000000      2.000000
  0.250000  0.000000  0.000000      2.000000
  0.375000  0.000000  0.000000      2.000000
  0.500000  0.000000  0.000000      1.000000
  0.000000  0.500000  0.000000      1.000000
  0.125000  0.500000  0.000000      2.000000
  0.250000  0.500000  0.000000      2.000000
  0.375000  0.500000  0.000000      2.000000
  0.500000  0.500000  0.000000      1.000000
  0.000000  0.000000  0.250000      2.000000
  0.125000  0.000000  0.250000      2.000000
  0.125000  0.000000 -0.250000      2.000000
  0.250000  0.000000  0.250000      2.000000
  0.250000  0.000000 -0.250000      2.000000
  0.375000  0.000000  0.250000      2.000000
  0.375000  0.000000 -0.250000      2.000000
  0.500000  0.000000  0.250000      2.000000
  0.000000  0.500000  0.250000      2.000000
  0.125000  0.500000  0.250000      2.000000
  0.125000  0.500000 -0.250000      2.000000
  0.250000  0.500000  0.250000      2.000000
  0.250000  0.500000 -0.250000      2.000000
  0.375000  0.500000  0.250000      2.000000
  0.375000  0.500000 -0.250000      2.000000
  0.500000  0.500000  0.250000      2.000000
  0.000000  0.000000  0.500000      1.000000
  0.125000  0.000000  0.500000      2.000000
  0.250000  0.000000  0.500000      2.000000
  0.375000  0.000000  0.500000      2.000000
  0.500000  0.000000  0.500000      1.000000
  0.000000  0.500000  0.500000      1.000000
  0.125000  0.500000  0.500000      2.000000
  0.250000  0.500000  0.500000      2.000000
  0.375000  0.500000  0.500000      2.000000
  0.500000  0.500000  0.500000      1.000000

 Following cartesian coordinates:
            Coordinates               Weight
 -0.000000 -0.000000 -0.000000      1.000000
 -0.000000 -0.028921 -0.000000      2.000000
 -0.000000 -0.057842 -0.000000      2.000000
 -0.000000 -0.086763 -0.000000      2.000000
 -0.000000 -0.115684 -0.000001      1.000000
 -0.027258 -0.000000  0.000001      1.000000
 -0.027258 -0.028921  0.000001      2.000000
 -0.027258 -0.057842  0.000001      2.000000
 -0.027258 -0.086763  0.000001      2.000000
 -0.027258 -0.115684  0.000001      1.000000
  0.000002 -0.000000 -0.037055      2.000000
  0.000002 -0.028921 -0.037055      2.000000
 -0.000002 -0.028921  0.037055      2.000000
  0.000001 -0.057842 -0.037055      2.000000
 -0.000002 -0.057842  0.037055      2.000000
  0.000001 -0.086763 -0.037055      2.000000
 -0.000002 -0.086763  0.037054      2.000000
  0.000001 -0.115684 -0.037055      2.000000
 -0.027256 -0.000000 -0.037054      2.000000
 -0.027256 -0.028921 -0.037054      2.000000
 -0.027260 -0.028921  0.037056      2.000000
 -0.027256 -0.057842 -0.037054      2.000000
 -0.027260 -0.057842  0.037056      2.000000
 -0.027257 -0.086763 -0.037054      2.000000
 -0.027260 -0.086763  0.037056      2.000000
 -0.027257 -0.115685 -0.037054      2.000000
  0.000003 -0.000000 -0.074110      1.000000
[...]
  223                map_gather                            0.000982                   36   7
  224                m_alltoallv_z                         0.000432                   36   7
  225                map_scatter                           0.002305                   36   7
  226        m_sumb_d                              0.000090                           15   3
  227        forhar                                0.010689                            6   3
  228          m_sumb_d                              0.000211                          6   4
  229        strehar                               0.006602                            3   3
  230          m_sumb_d                              0.000044                          3   4
  231        chggra                                0.002614                            3   3
  232          fft3d_mpi                             0.001587                          9   4
  233            fftbrc_mpi                            0.001259                        9   5
  234              fftbas_plan_mpi                       0.001254                      9   6
  235                map_forward                           0.000656                   12   7
  236                  map_gather                            0.000142                  6   8
  237                  m_alltoallv_z                         0.000079                  6   8
  238                  map_scatter                           0.000324                  6   8
  239                map_backward                          0.000341                    6   7
  240                  map_gather                            0.000080                  3   8
  241                  m_alltoallv_z                         0.000035                  3   8
  242                  map_scatter                           0.000179                  3   8
  243          m_sumb_d                              0.000025                          6   4
  244          pothar                                0.000250                          3   4
  245            m_sumb_d                              0.000014                        3   5
  246        brmix                                 0.015409                            3   3
  247          m_sumb_d                              0.000206                         18   4
  248          brpre                                 0.000135                          6   4
  249          setg0                                 0.004864                          3   4
  250          broyd                                 0.004698                          3   4
  251            m_sumb_d                              0.000387                       53   5
  252            brget                                 0.001608                      187   5
  253            brsav                                 0.000424                       48   5
  254        m_bcast_d                             0.000090                            6   3
  255      potlok                                0.023178                              3   2
  256        fft3d_mpi                             0.014571                           78   3
  257          fftbrc_mpi                            0.011530                         78   4
  258            fftbas_plan_mpi                       0.011490                       78   5
  259              map_forward                           0.005027                     84   6
  260                map_gather                            0.001104                   48   7
  261                m_alltoallv_z                         0.000596                   48   7
  262                map_scatter                           0.002677                   48   7
  263              map_backward                          0.004055                     72   6
  264                map_gather                            0.000982                   36   7
  265                m_alltoallv_z                         0.000434                   36   7
  266                map_scatter                           0.002064                   36   7
  267        m_sumb_d                              0.000092                           15   3
  268        pothar                                0.000279                            3   3
  269          m_sumb_d                              0.000023                          3   4
  270        m_bcast_d                             0.000073                            6   3
  271      potlok_metagga                        0.000000                              3   2
  272      set_dd_magatom                        0.000010                              3   2
  273      set_dd_paw                            0.056153                              3   2
  274        m_sumb_d                              0.000958                           21   3
  275      wavpre_noio                           0.233171                              2   2
  276        stufak                                0.030477                            2   3
  277      densta                                0.022820                              1   2
  278        m_sumb_d                              0.001238                           38   3

 Flat profile

 eddav                                  97.752841          39
 lapack                                 92.048394      196933
 raccmu_                                80.838557      196933
 redis_pw                               46.593867     1043286
 m_sumb_d                               44.601915      597452
 m_alltoall_d                           19.650633     2806502
 phaser                                 13.910544        4212
 eccp                                   11.396925      103896
 init_acc                               10.598328           1
 orth1                                  10.571020      591879
 rpromu_acc                             10.527196      171661
 total_time                             10.079195           1
 fftwav                                  9.288603      831838
 fft3d                                   9.073134     1212216
 redis_proj                              8.955113     1319984
 hamiltmu                                6.278138      196933
 racc0mu_acc                             5.847167      196933
 rpro_isp                                5.684421        1404
 w1_copy                                 5.637314     1141134
 m_bcast_z                               5.533678      207589
 overl                                   5.524499      657076
 ggemm                                   4.172215      250285
 soft_charge                             3.945846          35
 setup_precond                           3.828830      103896
 m_bcast_d                               3.168214      393955
 overl_mu                                3.099611      196933
 pw_charge                               2.466414       71082
 acc_init_cublas                         2.414106           1
 vhamil                                  1.777008      380378
 kinhamil                                1.754146      380378
 fftext_mpi                              1.632370      380378
 newband                                 1.626356      199741
 apply_precond                           1.545690      276482
 depsum                                  1.537474          35
 setdij_                                 1.463508         117
 fftwav_mpi                              1.092548      831838
 acc_init_cusolver                       0.781921           1
 set_dd_paw                              0.756796          41
 rspher_all                              0.649370          40
 sphpro_fast                             0.558089           4
 augmentation_charge                     0.468349          35
 elmin                                   0.409891           3
 proall                                  0.374394           3
 orthch                                  0.328166           3
 fft3d_mpi                               0.237095      381588
 m_alltoallv_z                           0.221573        1356
 potlok                                  0.217942          38
 wavpre_noio                             0.202694           2
 force_and_stress                        0.159482           3
 w1_projall                              0.150682      143581
 acc_cufft_makeplan                      0.143313          19
 densta                                  0.142864          40
 dfftw_execute                           0.129193         441
 lincom                                  0.109316        3024
 map_scatter                             0.098366        1356
 map_gather                              0.078177        1356
 choleski                                0.071178         216
 brmix                                   0.064279          35
 setg0                                   0.055984          41
 fftbas_plan_mpi                         0.048110        1210
 stufak                                  0.045578           3
 strnlr                                  0.040070           3
 truncate_high_frequency_w1              0.036444      484274
 broyd                                   0.021997          35
 set_charge                              0.014904          35
 fornlr                                  0.014406           3
 strkin                                  0.012743           3
 brget                                   0.011700        1357
 forhar                                  0.010478           6
 map_forward                             0.009103        1150
 strelo                                  0.008506           3
 map_backward                            0.008228        1270
 strehar                                 0.006558           3
 forloc                                  0.005337           3
 fft_gq                                  0.004788          35
 pothar                                  0.003501          41
 brsav                                   0.003406         393
 brpre                                   0.001629          70
 rsp                                     0.001482           3
 chggra                                  0.000752           3
 fftbrc_mpi                              0.000665        1210
 fewald                                  0.000400           3
 brgrid                                  0.000308           1
 fordep                                  0.000298           3
 set_dd_magatom                          0.000165          41
 vectorpot                               0.000153          36
 rcp                                     0.000072           3
 crpa_reader                             0.000028           1
 acc_cufft_makeplans                     0.000012           3
 potlok_metagga                          0.000001          38
 redis_pw_over_bands                     0.000000           3
 rotate_active_occupied_orbital          0.000000           3
  summed up times     552.6367549896240

 Accumulative profile

 total_time                            552.636755           1
 elmin                                 501.471903           3
 eddav                                 488.891661          39
 hamiltmu                              104.073229      196933
 lapack                                 92.048394      196933
 raccmu_                                89.785336      196933
 redis_pw                               56.316701     1043286
 m_sumb_d                               44.601915      597452
 newband                                25.015991      199741
 force_and_stress                       22.034031           3
 m_alltoall_d                           19.650633     2806502
 redis_proj                             18.882912     1319984
 fftwav_mpi                             16.724622      831838
 fftwav                                 15.632075      831838
 rpro_isp                               15.294576        1404
 strnlr                                 14.848859           3
 phaser                                 13.910544        4212
 eccp                                   11.396925      103896
 set_charge                             11.205884          35
 init_acc                               10.598328           1
 orth1                                  10.571020      591879
 rpromu_acc                             10.527196      171661
 fft3d                                   9.073134     1212216
 soft_charge                             8.947423          35
 kinhamil                                6.232747      380378
 racc0mu_acc                             5.847167      196933
 w1_copy                                 5.637314     1141134
 m_bcast_z                               5.533678      207589
 overl                                   5.524499      657076
 fornlr                                  4.944622           3
 fftext_mpi                              4.478602      380378
 w1_projall                              4.375237      143581
 ggemm                                   4.172215      250285
 setup_precond                           3.828830      103896
 fft3d_mpi                               3.560172      381588
 m_bcast_d                               3.168214      393955
 overl_mu                                3.099611      196933
 pw_charge                               2.466414       71082
 acc_init_cublas                         2.414106           1
 vhamil                                  1.777008      380378
 depsum                                  1.545752          35
 apply_precond                           1.545690      276482
 setdij_                                 1.498867         117
 orthch                                  1.458124           3
 proall                                  1.254977           3
 acc_init_cusolver                       0.781921           1
 set_dd_paw                              0.771583          41
 augmentation_charge                     0.697805          35
 rspher_all                              0.649370          40
 fftbrc_mpi                              0.593415        1210
 fftbas_plan_mpi                         0.592750        1210
 sphpro_fast                             0.576973           4
 potlok                                  0.545232          38
 wavpre_noio                             0.233171           2
 fordep                                  0.231350           3
 m_alltoallv_z                           0.221573        1356
 map_forward                             0.213969        1150
 map_backward                            0.201478        1270
 brmix                                   0.164448          35
 densta                                  0.153649          40
 acc_cufft_makeplans                     0.143326           3
 acc_cufft_makeplan                      0.143313          19
 dfftw_execute                           0.129193         441
 fft_gq                                  0.124672          35
 lincom                                  0.109316        3024
 map_scatter                             0.098366        1356
 map_gather                              0.078177        1356
 choleski                                0.071178         216
 setg0                                   0.055984          41
 stufak                                  0.045578           3
 broyd                                   0.040648          35
 truncate_high_frequency_w1              0.036444      484274
 strkin                                  0.012767           3
 brget                                   0.011700        1357
 forhar                                  0.010689           6
 strelo                                  0.009319           3
 strehar                                 0.006602           3
 fewald                                  0.006012           3
 forloc                                  0.005751           3
 pothar                                  0.003901          41
 brsav                                   0.003406         393
 chggra                                  0.002614           3
 brpre                                   0.001629          70
 rsp                                     0.001482           3
 brgrid                                  0.000308           1
 set_dd_magatom                          0.000165          41
 vectorpot                               0.000153          36
 rcp                                     0.000072           3
 crpa_reader                             0.000028           1
 potlok_metagga                          0.000001          38
 redis_pw_over_bands                     0.000000           3
 rotate_active_occupied_orbital          0.000000           3

Profiling took   2.414758  1.197025  0.003197  0.003135 seconds
Profiling took   1.549999 seconds