 vasp.6.3.2 27Jun22 (build Jul  3 2023 11:46:21) complex
 executed on    LinuxNV_CrayMPICH date 2024.04.22  03:28:49

 INCAR:
   ADDGRID = True
   ALGO = Normal
   EDIFF = 0.0026
   ENCUT = 520.0
   IBRION = -1
   ICHARG = 0
   ISIF = 3
   ISMEAR = -5
   ISPIN = 2
   KPOINT_BSE = -1 0 0 0
   LAECHG = True
   LASPH = True
   LCHARG = True
   LELF = True
   LORBIT = 11
   LREAL = Auto
   LVHAR = True
   LWAVE = False
   MAGMOM = 6*0.6 6*7.0 40*0.6
   NELM = 1000
   NSW = 0
   PREC = accurate
   SIGMA = 0.05

 POTCAR:    PAW_PBE K_sv 06Sep2000
 POTCAR:    PAW_PBE Gd 23Dec2003
 POTCAR:    PAW_PBE P 06Sep2000
 POTCAR:    PAW_PBE S 06Sep2000
 POTCAR:    PAW_PBE K_sv 06Sep2000
   VRHFIN =K:  3s3p4s

   TITEL  = PAW_PBE K_sv 06Sep2000
   POMASS =   39.098; ZVAL   =    9.000    mass and valenz
   ENMAX  =  259.264; ENMIN  =  194.448 eV

   TITEL  = PAW_PBE Gd 23Dec2003
   POMASS =  157.250; ZVAL   =   18.000    mass and valenz
   ENMAX  =  256.472; ENMIN  =  192.354 eV

   TITEL  = PAW_PBE P 06Sep2000
   POMASS =   30.974; ZVAL   =    5.000    mass and valenz
   ENMAX  =  255.040; ENMIN  =  191.280 eV

   TITEL  = PAW_PBE S 06Sep2000
   POMASS =   32.066; ZVAL   =    6.000    mass and valenz
   ENMAX  =  258.689; ENMIN  =  194.016 eV

 Optimization of the real space projectors (new method)

 maximal supplied QI-value         = 16.25
 optimisation between [QCUT,QGAM] = [ 11.54, 23.24] = [ 37.28,151.24] Ry
 Optimized for a Real-space Cutoff    1.32 Angstroem

   l    n(q)    QCUT    max X(q) W(low)/X(q) W(high)/X(q)  e(spline)
   0      9    11.539    11.234    0.52E-04    0.40E-04    0.14E-07
   0      9    11.539    12.505    0.97E-04    0.77E-04    0.27E-07
   1      9    11.539   167.359    0.18E-03    0.11E-02    0.48E-06
   1      9    11.539   168.875    0.18E-03    0.11E-02    0.48E-06
   2      8    11.539     3.435    0.16E-03    0.11E-03    0.38E-07
 Optimization of the real space projectors (new method)

[...]

   l    n(q)    QCUT    max X(q) W(low)/X(q) W(high)/X(q)  e(spline)
   0      8    11.508   160.924    0.96E-04    0.17E-03    0.52E-07
   0      8    11.508   130.086    0.95E-04    0.17E-03    0.51E-07
   1      8    11.508    74.434    0.16E-03    0.74E-04    0.91E-07
   1      8    11.508    49.120    0.16E-03    0.71E-04    0.89E-07
 Optimization of the real space projectors (new method)

 maximal supplied QI-value         = 19.84
 optimisation between [QCUT,QGAM] = [ 11.51, 23.22] = [ 37.09,150.92] Ry
 Optimized for a Real-space Cutoff    1.21 Angstroem

   l    n(q)    QCUT    max X(q) W(low)/X(q) W(high)/X(q)  e(spline)
   0      8    11.508   187.594    0.96E-04    0.18E-03    0.54E-07
   0      8    11.508   164.243    0.96E-04    0.18E-03    0.54E-07
   1      8    11.508    67.533    0.18E-03    0.65E-04    0.94E-07
   1      8    11.508    50.729    0.18E-03    0.63E-04    0.92E-07
  PAW_PBE K_sv 06Sep2000                :
  PAW_PBE Gd 23Dec2003                  :
  PAW_PBE P 06Sep2000                   :
  PAW_PBE S 06Sep2000                   :

 POSCAR: K6 Gd6 P8 S32
  positions in direct lattice
 exchange correlation table for  LEXCH =        8
   RHO(1)=    0.500       N(1)  =     2000
   RHO(2)=  100.500       N(2)  =     4000

 VTST: version 4.2, (08/11/21)

 CHAIN: initializing optimizer

 OPT: Using VASP Dynamics algorithm
 CHAIN: Read ICHAIN             0

 POSCAR: K6 Gd6 P8 S32
  positions in direct lattice

 ion  position               nearest neighbor table
   1  0.972  0.612  0.837-  51 3.28
   2  0.388  0.028  0.663-  44 3.28
   3  0.612  0.972  0.337-  42 3.28
   4  0.000  0.000  0.000-  39 3.24  43 3.24
   5  0.028  0.388  0.163-  41 3.28
   6  0.000  0.000  0.500-  28 3.24  36 3.24
   7  0.746  0.514  0.488-  44 2.80  52 2.82  21 2.82  30 2.86  24 2.98  33 3.01  37 3.09  48 3.12

   8  0.254  0.486  0.512-  42 2.80  40 2.82  25 2.82  23 2.86  37 2.98  48 3.01  24 3.09  33 3.12

[...]

  13  0.763  0.399  0.977-  43 2.04  41 2.05  35 2.05  32 2.09
  14  0.237  0.601  0.023-  39 2.04  51 2.05  50 2.05  47 2.09
  15  0.601  0.237  0.523-  28 2.04  42 2.05  21 2.05  33 2.09
  16  0.039  0.332  0.639-  40 2.04  29 2.05  37 2.05  30 2.08
  17  0.332  0.039  0.139-  46 2.04  34 2.05  38 2.05  27 2.08
  18  0.399  0.763  0.477-  36 2.04  44 2.05  25 2.05  48 2.09
  19  0.961  0.668  0.361-  52 2.04  45 2.05  24 2.05  23 2.08
  20  0.668  0.961  0.861-  31 2.04  26 2.05  22 2.05  49 2.08
  21  0.730  0.259  0.419-  15 2.05   7 2.82
  22  0.678  0.947  0.000-  20 2.05   9 2.98  12 3.09
  23  0.157  0.528  0.329-  19 2.08   8 2.86  11 2.90
  24  0.947  0.678  0.500-  19 2.05   7 2.98   8 3.09
  25  0.270  0.741  0.581-  18 2.05   8 2.82
  26  0.856  0.961  0.805-  20 2.05  10 2.87
  27  0.472  0.843  0.171-  17 2.08   9 2.86  11 2.90
  28  0.703  0.076  0.607-  15 2.04  10 2.88   6 3.24
  29  0.039  0.144  0.695-  16 2.05  10 2.87
  30  0.843  0.472  0.671-  16 2.08   7 2.86  10 2.90
  31  0.598  0.806  0.813-  20 2.04   9 2.82
  32  0.584  0.455  0.896-  13 2.09  12 3.01  10 3.09   9 3.12
  33  0.545  0.416  0.604-  15 2.09   7 3.01  10 3.09   8 3.12
  34  0.144  0.039  0.195-  17 2.05  11 2.87
  35  0.741  0.270  0.081-  13 2.05  12 2.82
  36  0.297  0.924  0.393-  18 2.04  11 2.88   6 3.24
  37  0.053  0.322  0.500-  16 2.05   8 2.98   7 3.09
  38  0.322  0.053  1.000-  17 2.05  12 2.98   9 3.09
  39  0.076  0.703  0.107-  14 2.04  11 2.88   4 3.24
  40  0.194  0.402  0.687-  16 2.04   8 2.82
  41  0.788  0.579  0.026-  13 2.05   9 2.80   5 3.28
  42  0.421  0.212  0.474-  15 2.05   8 2.80   3 3.28
  43  0.924  0.297  0.893-  13 2.04  10 2.88   4 3.24
  44  0.579  0.788  0.526-  18 2.05   7 2.80   2 3.28
  45  0.961  0.856  0.305-  19 2.05  11 2.87
  46  0.402  0.194  0.187-  17 2.04  12 2.82
  47  0.416  0.545  0.104-  14 2.09   9 3.01  11 3.09  12 3.12
  48  0.455  0.584  0.396-  18 2.09   8 3.01  11 3.09   7 3.12
  49  0.528  0.157  0.829-  20 2.08  12 2.86  10 2.90
  50  0.259  0.730  0.919-  14 2.05   9 2.82
  51  0.212  0.421  0.974-  14 2.05  12 2.80   1 3.28
  52  0.806  0.598  0.313-  19 2.04   7 2.82

  LATTYP: Found a base centered monoclinic cell.
 ALAT       =    16.2312240000
 B/A-ratio  =     0.7267065010
 C/A-ratio  =     0.9085734377
 COS(beta)  =    -0.0166284460

  Lattice vectors:

 A1 = (  -5.8976680000,  -8.1156120000,   0.0000000000)
 A2 = (   5.8976680000,  -8.1156120000,   0.0000000000)
 A3 = (   0.0000000000,   0.2452240000,  14.7452200000)

Analysis of symmetry for initial positions (statically):
 Subroutine PRICEL returns:
 Original cell was already a primitive cell.

 Routine SETGRP: Setting up the symmetry group for a
 base centered monoclinic supercell.

 Subroutine GETGRP returns: Found  4 space group operations
 (whereof  2 operations were pure point group operations)
 out of a pool of  4 trial point group operations.

The static configuration has the point symmetry S_2 .
 The point group associated with its full space group is C_2h.

Analysis of symmetry for dynamics (positions and initial velocities):
 Subroutine PRICEL returns:
 Original cell was already a primitive cell.

[...]

The dynamic configuration has the point symmetry S_2 .
 The point group associated with its full space group is C_2h.

Analysis of structural, dynamic, and magnetic symmetry:
 Subroutine PRICEL returns:
 Original cell was already a primitive cell.

 Routine SETGRP: Setting up the symmetry group for a
 base centered monoclinic supercell.

 Subroutine GETGRP returns: Found  4 space group operations
 (whereof  2 operations were pure point group operations)
 out of a pool of  4 trial point group operations.

The overall configuration has the point symmetry S_2 .
 The point group associated with its full space group is C_2h.

 Subroutine INISYM returns: Found  4 space group operations
 (whereof  2 operations are pure point group operations),
 and found     1 'primitive' translations

                                     Primitive cell

  volume of cell :    1411.5064

  direct lattice vectors                    reciprocal lattice vectors
     5.897668000  8.115612000  0.000000000     0.084779272  0.061609648 -0.001024614
    -5.897668000  8.115612000  0.000000000    -0.084779272  0.061609648 -0.001024614
     0.000000000  0.245224000 14.745220000     0.000000000 -0.000000000  0.067818588

  length of vectors
    10.032230359 10.032230359 14.747258988     0.104806124  0.104806124  0.067818588

  position of ions in fractional coordinates (direct lattice)
     0.971850000  0.612482000  0.836921000
     0.387518000  0.028150000  0.663079000
     0.612482000  0.971850000  0.336921000
     0.000000000  0.000000000  0.000000000
     0.028150000  0.387518000  0.163079000
     0.000000000  0.000000000  0.500000000
     0.746410000  0.514444000  0.488195000
     0.253590000  0.485556000  0.511805000
     0.514444000  0.746410000  0.988195000
     0.750779000  0.249221000  0.750000000
     0.249221000  0.750779000  0.250000000
     0.485556000  0.253590000  0.011805000
     0.762683000  0.398630000  0.976635000
     0.237317000  0.601370000  0.023365000
     0.601370000  0.237317000  0.523365000
     0.038676000  0.331768000  0.638579000
     0.331768000  0.038676000  0.138579000
     0.398630000  0.762683000  0.476635000
     0.961324000  0.668232000  0.361421000
     0.668232000  0.961324000  0.861421000
     0.729825000  0.259493000  0.418717000
     0.678449000  0.947275000  0.000360000
     0.156551000  0.527856000  0.328883000
     0.947275000  0.678449000  0.500360000
     0.270175000  0.740507000  0.581283000
     0.856174000  0.960880000  0.805442000
     0.472144000  0.843449000  0.171117000
     0.703061000  0.076012000  0.607366000
     0.039120000  0.143826000  0.694558000
     0.843449000  0.472144000  0.671117000
     0.598159000  0.805526000  0.812980000
     0.584220000  0.454578000  0.895832000
     0.545422000  0.415780000  0.604168000
     0.143826000  0.039120000  0.194558000
     0.740507000  0.270175000  0.081283000
     0.296939000  0.923988000  0.392634000
     0.052725000  0.321551000  0.499640000
     0.321551000  0.052725000  0.999640000
     0.076012000  0.703061000  0.107366000
     0.194474000  0.401841000  0.687020000
     0.788109000  0.579295000  0.025702000
     0.420705000  0.211891000  0.474298000
     0.923988000  0.296939000  0.892634000
     0.579295000  0.788109000  0.525702000
     0.960880000  0.856174000  0.305442000
     0.401841000  0.194474000  0.187020000
     0.415780000  0.545422000  0.104168000
     0.454578000  0.584220000  0.395832000
     0.527856000  0.156551000  0.828883000
     0.259493000  0.729825000  0.918717000
     0.211891000  0.420705000  0.974298000
     0.805526000  0.598159000  0.312980000

  ion indices of the primitive-cell ions
   primitive index   ion index
                 1           1
                 2           2
                 3           3
                 4           4
                 5           5
                 6           6
                 7           7
                 8           8
                 9           9
                10          10
                11          11
                12          12
                13          13
                14          14
[...]
  318                map_forward                           0.000519                    4   7
  319                  map_gather                            0.000076                  2   8
  320                  m_alltoallv_z                         0.000028                  2   8
  321                  map_scatter                           0.000370                  2   8
  322                map_backward                          0.000197                    2   7
  323                  map_gather                            0.000043                  1   8
  324                  m_alltoallv_z                         0.000013                  1   8
  325                  map_scatter                           0.000105                  1   8
  326          m_sumb_d                              0.000010                          2   4
  327          pothar                                0.000138                          1   4
  328            m_sumb_d                              0.000034                        1   5
  329        brmix                                 0.037344                            1   3
  330          m_sumb_d                              0.000044                          6   4
  331          brpre                                 0.000107                          2   4
  332          setg0                                 0.005233                          1   4
  333          broyd                                 0.025700                          1   4
  334            m_sumb_d                              0.000874                       51   5
  335            brget                                 0.004955                      229   5
  336            brsav                                 0.001050                       49   5
  337        m_bcast_d                             0.000130                            2   3
  338      potlok                                0.174516                              2   2
  339        fft3d_mpi                             0.104967                           36   3
  340          fftbrc_mpi                            0.083565                         36   4
  341            fftbas_plan_mpi                       0.083538                       36   5
  342              map_forward                           0.022368                     40   6
  343                map_gather                            0.005893                   24   7
  344                m_alltoallv_z                         0.009323                   24   7
  345                map_scatter                           0.006868                   24   7
  346              map_backward                          0.019091                     32   6
  347                map_gather                            0.004621                   16   7
  348                m_alltoallv_z                         0.008137                   16   7
  349                map_scatter                           0.005885                   16   7
  350              dfftw_execute                         0.039900                     30   6
  351        m_sumb_d                              0.000046                            5   3
  352        pothar                                0.007349                            2   3
  353          m_sumb_d                              0.000021                          2   4
  354        m_bcast_d                             0.011642                            4   3
  355      potlok_metagga                        0.000000                              1   2
  356      set_dd_magatom                        0.000005                              1   2
  357      set_dd_paw                            4.524542                              1   2
  358        m_sumb_d                              0.000653                            7   3
  359      augmentation_charge                   0.477334                              1   2
  360        fft3d_mpi                             0.261806                            2   3
  361          fftbrc_mpi                            0.223561                          2   4
  362            fftbas_plan_mpi                       0.223559                        2   5
  363              dfftw_execute                         0.128406                      6   6
  364              map_backward                          0.094928                      4   6
  365                map_gather                            0.035513                    2   7
  366                m_alltoallv_z                         0.018972                    2   7
  367                map_scatter                           0.040432                    2   7
  368      fftwav_mpi                           12.852818                           2448   2
  369        fftwav                               12.847689                         2448   3
  370          fft3d                                11.956377                       2448   4
  371      densta                                2.027760                              1   2

 Flat profile

 set_dd_paw                           1712.611067         377
 eddav                                 393.519998         379
 raccmu_                               341.770067      625360
 lapack                                300.515733      625360
 m_sumb_d                              163.918651     1912768
 redis_pw                              161.403399     3452016
 dfftw_execute                         122.956555        9492
 setdij_                                79.980710         403
 augmentation_charge                    79.582462         377
 m_alltoall_d                           69.013595     9068384
 eccp                                   46.887397      309264
 fft3d                                  41.636503     3679884
 total_time                             40.501281           1
 hamiltmu                               38.443509      625360
 phaser                                 36.616825        4626
 orth1                                  36.383778     1876188
 fft3d_mpi                              33.722041     1263685
 map_scatter                            30.922616       14491
 redis_proj                             29.263915     4393484
 map_gather                             27.153655       14491
 fftwav                                 24.965466     2429164
 m_alltoallv_z                          19.322668       14491
 set_charge                             19.054388         376
 racc0mu_acc                            18.648629      625360
 overl                                  18.446630     2192188
 w1_copy                                18.130280     3752160
 rpromu_acc                             14.789529      473380
 m_bcast_z                              14.456962      628624
 soft_charge                            13.094567         376
 pw_charge                              12.884312      223932
 setup_precond                          11.287078      309264
 ggemm                                  11.281121      779992
 init_acc                               11.245541           1
 m_bcast_d                              10.300998     1251479
 overl_mu                                9.844768      625360
 densta                                  8.489776         380
 broyd                                   5.977119         375
 vhamil                                  5.771853     1250720
 kinhamil                                5.639832     1250720
 fftext_mpi                              5.392811     1250720
 potlok                                  5.317168         377
 depsum                                  5.178201         376
 apply_precond                           5.090063      941456
 newband                                 4.864739      629908
 acc_init_cublas                         3.383090           1
 fftwav_mpi                              3.350701     2429164
 brmix                                   2.535864         375
 setg0                                   1.895528         377
 brget                                   1.826796       85341
 elmin                                   1.194406           1
 acc_init_cusolver                       1.019750           1
 fftbas_plan_mpi                         0.745242       12965
 rpro_isp                                0.682673          78
 brsav                                   0.516843       24521
 w1_projall                              0.460011      470728
 rspher_all                              0.449597          14
 lincom                                  0.322536        4560
 sphpro_fast                             0.312952           2
 map_backward                            0.175830       13706
 fft_gq                                  0.158173         376
 acc_cufft_makeplan                      0.153366          19
 proall                                  0.137443           1
 truncate_high_frequency_w1              0.122696     1559984
 stufak                                  0.109706           1
 map_forward                             0.109390       12224
 orthch                                  0.080388           1
 force_and_stress                        0.055900           1
 pothar                                  0.052750         378
 brpre                                   0.042204         750
 choleski                                0.017120          12
 forhar                                  0.014355           2
 fftbrc_mpi                              0.009000       12965
 strelo                                  0.007902           1
 forloc                                  0.007261           1
 strehar                                 0.006626           1
 inisym                                  0.004602           1
 strnlr                                  0.004537           1
 strkin                                  0.004127           1
 rsp                                     0.002750           1
 set_dd_magatom                          0.001775         377
 vectorpot                               0.001603         376
 fornlr                                  0.001512           1
 brgrid                                  0.000809           1
 chggra                                  0.000431           1
 fewald                                  0.000381           1
 fordep                                  0.000205           1
 rcp                                     0.000080           1
 posmap                                  0.000062           2
 potlok_metagga                          0.000042         376
 crpa_reader                             0.000028           1
 acc_cufft_makeplans                     0.000011           3
 rotate_active_occupied_orbital          0.000001           1
 redis_pw_over_bands                     0.000000           1
  summed up times     4086.257313013077

 Accumulative profile

 total_time                           4086.257313           1
 elmin                                3979.104598           1
 eddav                                1805.041458         379
 set_dd_paw                           1712.854589         377
 hamiltmu                              434.644878      625360
 raccmu_                               370.263464      625360
 lapack                                300.515733      625360
 set_charge                            253.615329         376
 fft3d_mpi                             243.879826     1263685
 setdij_                               205.848112         403
 fftbrc_mpi                            201.394957       12965
 fftbas_plan_mpi                       201.385957       12965
 redis_pw                              198.417965     3452016
 augmentation_charge                   179.784005         377
 m_sumb_d                              163.918651     1912768
 dfftw_execute                         122.956555        9492
 newband                                89.079861      629908
 m_alltoall_d                           69.013595     9068384
 redis_proj                             61.262945     4393484
 fftwav_mpi                             61.189842     2429164
 fftwav                                 57.839141     2429164
 eccp                                   46.887397      309264
 soft_charge                            46.754485         376
 map_backward                           42.735184       13706
 fft3d                                  41.636503     3679884
 phaser                                 36.616825        4626
 orth1                                  36.383778     1876188
 map_forward                            34.948975       12224
 map_scatter                            30.922616       14491
 map_gather                             27.153655       14491
 force_and_stress                       21.422275           1
 kinhamil                               20.166052     1250720
 m_alltoallv_z                          19.322668       14491
 racc0mu_acc                            18.648629      625360
 overl                                  18.446630     2192188
 w1_copy                                18.130280     3752160
 rpromu_acc                             14.789529      473380
 fftext_mpi                             14.526220     1250720
 m_bcast_z                              14.456962      628624
 w1_projall                             14.395237      470728
 brmix                                  13.334192         375
 pw_charge                              12.884312      223932
 setup_precond                          11.287078      309264
 ggemm                                  11.281121      779992
 init_acc                               11.245541           1
 m_bcast_d                              10.300998     1251479
 overl_mu                                9.844768      625360
 potlok                                  8.915331         377
 broyd                                   8.819856         375
 densta                                  8.489776         380
 vhamil                                  5.771853     1250720
 depsum                                  5.484827         376
 apply_precond                           5.090063      941456
 fft_gq                                  4.698214         376
 acc_init_cublas                         3.383090           1
 fordep                                  3.045459           1
 strnlr                                  2.150791           1
 rpro_isp                                1.935609          78
 setg0                                   1.895528         377
 brget                                   1.826796       85341
 acc_init_cusolver                       1.019750           1
 fornlr                                  0.716966           1
 brsav                                   0.516843       24521
 orthch                                  0.476661           1
 rspher_all                              0.449597          14
 sphpro_fast                             0.326561           2
 lincom                                  0.322536        4560
 proall                                  0.259397           1
 acc_cufft_makeplans                     0.153377           3
 acc_cufft_makeplan                      0.153366          19
 truncate_high_frequency_w1              0.122696     1559984
 stufak                                  0.109706           1
 pothar                                  0.056790         378
 brpre                                   0.042204         750
 choleski                                0.017120          12
 forhar                                  0.014391           2
 strelo                                  0.007913           1
 forloc                                  0.007300           1
 strehar                                 0.006679           1
 inisym                                  0.004664           1
 strkin                                  0.004147           1
 fewald                                  0.003349           1
 rsp                                     0.002750           1
 set_dd_magatom                          0.001775         377
 vectorpot                               0.001603         376
 chggra                                  0.001581           1
 brgrid                                  0.000809           1
 rcp                                     0.000080           1
 posmap                                  0.000062           2
 potlok_metagga                          0.000042         376
 crpa_reader                             0.000028           1
 rotate_active_occupied_orbital          0.000001           1
 redis_pw_over_bands                     0.000000           1

Profiling took   7.721677  3.766896  0.003260  0.003136 seconds
Profiling took   4.762922 seconds