 vasp.6.3.2 27Jun22 (build Jul  3 2023 11:46:21) complex
 executed on    LinuxNV_CrayMPICH date 2024.04.22  02:40:47

 INCAR:
   ALGO = Normal
   EDIFF = 1e-05
   ENCUT = 520.0
   IBRION = -1
   ISIF = 3
   ISMEAR = -5
   ISPIN = 2
   LAECHG = True
   LASPH = True
   LCHARG = True
   LORBIT = 11
   LREAL = Auto
   LVHAR = True
   LWAVE = False
   MAGMOM = 3*0.6 1*7.0 6*0.6
   NELM = 1000
   NSW = 0
   PREC = Accurate
   SIGMA = 0.05

 POTCAR:    PAW_PBE Na_pv 19Sep2006
 POTCAR:    PAW_PBE Gd 23Dec2003
 POTCAR:    PAW_PBE I 08Apr2002
 POTCAR:    PAW_PBE Na_pv 19Sep2006
   VRHFIN =Na: p6s1

   TITEL  = PAW_PBE Na_pv 19Sep2006
   POMASS =   22.990; ZVAL   =    7.000    mass and valenz
   ENMAX  =  259.561; ENMIN  =  194.671 eV

   TITEL  = PAW_PBE Gd 23Dec2003
   POMASS =  157.250; ZVAL   =   18.000    mass and valenz
   ENMAX  =  256.472; ENMIN  =  192.354 eV

   TITEL  = PAW_PBE I 08Apr2002
   POMASS =  126.904; ZVAL   =    7.000    mass and valenz
   ENMAX  =  175.647; ENMIN  =  131.735 eV

 Optimization of the real space projectors (new method)

 maximal supplied QI-value         = 17.01
 optimisation between [QCUT,QGAM] = [ 11.57, 23.30] = [ 37.45,152.03] Ry
 Optimized for a Real-space Cutoff    1.45 Angstroem

   l    n(q)    QCUT    max X(q) W(low)/X(q) W(high)/X(q)  e(spline)
   1     10    11.565     4.940    0.87E-04    0.13E-03    0.13E-06
   1     10    11.565     6.253    0.13E-03    0.19E-03    0.20E-06
   0     10    11.565    37.438    0.53E-04    0.73E-05    0.79E-07
   0     10    11.565     9.606    0.27E-04    0.60E-05    0.56E-07
 Optimization of the real space projectors (new method)

[...]

   l    n(q)    QCUT    max X(q) W(low)/X(q) W(high)/X(q)  e(spline)
   0     11    11.673    10.501    0.14E-04    0.17E-05    0.21E-07
   0     11    11.673     9.148    0.21E-04    0.32E-05    0.45E-07
   1     11    11.673     4.035    0.33E-05    0.11E-04    0.84E-07
   1     11    11.673     4.388    0.11E-04    0.47E-04    0.34E-06
   2     10    11.673    20.656    0.12E-04    0.28E-04    0.54E-06
   2     10    11.673    12.651    0.11E-04    0.26E-04    0.51E-06
   3     10    11.673    61.921    0.19E-03    0.22E-03    0.23E-06
   3     10    11.673    48.328    0.20E-03    0.23E-03    0.23E-06
 Optimization of the real space projectors (new method)

 maximal supplied QI-value         = 16.25
 optimisation between [QCUT,QGAM] = [ 11.54, 23.24] = [ 37.28,151.24] Ry
 Optimized for a Real-space Cutoff    1.40 Angstroem

   l    n(q)    QCUT    max X(q) W(low)/X(q) W(high)/X(q)  e(spline)
   0     10    11.539   194.483    0.48E-04    0.89E-04    0.13E-06
   0     10    11.539   190.334    0.47E-04    0.86E-04    0.12E-06
   1      9    11.539   116.687    0.15E-03    0.73E-04    0.13E-06
   1      9    11.539    88.696    0.15E-03    0.72E-04    0.13E-06
   2      9    11.539     4.877    0.99E-05    0.58E-04    0.56E-07
  PAW_PBE Na_pv 19Sep2006               :
  PAW_PBE Gd 23Dec2003                  :
  PAW_PBE I 08Apr2002                   :

 POSCAR: Na3 Gd1 I6
  positions in direct lattice
 exchange correlation table for  LEXCH =        8
   RHO(1)=    0.500       N(1)  =     2000
   RHO(2)=  100.500       N(2)  =     4000

 VTST: version 4.2, (08/11/21)

 CHAIN: initializing optimizer

 OPT: Using VASP Dynamics algorithm
 CHAIN: Read ICHAIN             0

 POSCAR: Na3 Gd1 I6
  positions in direct lattice

 ion  position               nearest neighbor table
   1  0.333  0.667  0.000-
   2  0.829  0.171  0.500-
   3  0.667  0.333  0.000-
   4  0.000  1.000  0.000-   5 3.07  10 3.07   9 3.10   7 3.10   6 3.10   8 3.10
   5  0.763  0.765  0.760-   4 3.07
   6  0.401  0.082  0.756-   4 3.10
   7  0.081  0.400  0.755-   4 3.10
   8  0.918  0.599  0.244-   4 3.10
   9  0.600  0.919  0.245-   4 3.10
  10  0.235  0.237  0.240-   4 3.07

  LATTYP: Found a base centered monoclinic cell.
 ALAT       =     7.9239980000
 B/A-ratio  =     1.7235526814
 C/A-ratio  =     0.9926888742
 COS(beta)  =    -0.3369259111

  Lattice vectors:

 A1 = (  -6.8287140000,  -3.9619990000,   0.0000000000)
 A2 = (   6.8287140000,  -3.9619990000,   0.0000000000)
 A3 = (   0.0000000000,   2.6502810000,   7.4061450000)

Analysis of symmetry for initial positions (statically):
 Subroutine PRICEL returns:
 Original cell was already a primitive cell.

 Routine SETGRP: Setting up the symmetry group for a
 base centered monoclinic supercell.

 Subroutine GETGRP returns: Found  2 space group operations
 (whereof  2 operations were pure point group operations)
 out of a pool of  4 trial point group operations.

The static configuration has the point symmetry C_2 .

Analysis of symmetry for dynamics (positions and initial velocities):
 Subroutine PRICEL returns:
 Original cell was already a primitive cell.

[...]

The dynamic configuration has the point symmetry C_2 .

Analysis of structural, dynamic, and magnetic symmetry:
 Subroutine PRICEL returns:
 Original cell was already a primitive cell.

 Routine SETGRP: Setting up the symmetry group for a
 base centered monoclinic supercell.

 Subroutine GETGRP returns: Found  2 space group operations
 (whereof  2 operations were pure point group operations)
 out of a pool of  4 trial point group operations.

The overall configuration has the point symmetry C_2 .

 Subroutine INISYM returns: Found  2 space group operations
 (whereof  2 operations are pure point group operations),
 and found     1 'primitive' translations

                                     Primitive cell

  volume of cell :     400.7518

  direct lattice vectors                    reciprocal lattice vectors
     6.828714000  3.961999000  0.000000000     0.073220229  0.126198921 -0.045160148
    -6.828714000  3.961999000  0.000000000    -0.073220229  0.126198921 -0.045160148
     0.000000000  2.650281000  7.406145000     0.000000000 -0.000000000  0.135023011

  length of vectors
     7.894857248  7.894857248  7.866064654     0.152731164  0.152731164  0.135023011

  position of ions in fractional coordinates (direct lattice)
     0.332841000  0.667159000  0.000000000
     0.828520000  0.171480000  0.500000000
     0.667085000  0.332915000  0.000000000
     0.000162000  0.999838000  0.000000000
     0.763141000  0.764686000  0.759928000
     0.401098000  0.082389000  0.756359000
     0.081356000  0.399528000  0.755251000
     0.917611000  0.598902000  0.243641000
     0.600472000  0.918644000  0.244749000
     0.235314000  0.236859000  0.240072000

  ion indices of the primitive-cell ions
   primitive index   ion index
                 1           1
                 2           2
                 3           3
                 4           4
                 5           5
                 6           6
                 7           7
                 8           8
                 9           9
                10          10

 KPOINTS: Kpoints from vasprun.xml

Automatic generation of k-mesh.
 Grid dimensions read from file:
 generate k-points for:    3    3    3

 Generating k-lattice:

  Cartesian coordinates                     Fractional coordinates (reciprocal lattice)
     0.024406743  0.042066307 -0.015053383     0.333333333  0.000000000  0.000000000
    -0.024406743  0.042066307 -0.015053383     0.000000000  0.333333333  0.000000000
     0.000000000 -0.000000000  0.045007670     0.000000000  0.000000000  0.333333333

  Length of vectors
     0.050910388  0.050910388  0.045007670

  Shift w.r.t. Gamma in fractional coordinates (k-lattice)
     0.000000000  0.000000000  0.000000000

 TETIRR: Found     68 inequivalent tetrahedra from      162

 Subroutine IBZKPT returns following result:

 Found     10 irreducible k-points:

 Following reciprocal coordinates:
            Coordinates               Weight
  0.000000  0.000000  0.000000      1.000000
  0.333333  0.000000  0.000000      4.000000
  0.333333  0.333333  0.000000      2.000000
 -0.333333  0.333333  0.000000      2.000000
  0.000000  0.000000  0.333333      2.000000
  0.333333  0.000000  0.333333      4.000000
 -0.333333  0.000000  0.333333      4.000000
  0.333333  0.333333  0.333333      2.000000
 -0.333333  0.333333  0.333333      4.000000
 -0.333333 -0.333333  0.333333      2.000000

 Following cartesian coordinates:
            Coordinates               Weight
  0.000000  0.000000  0.000000      1.000000
  0.024407  0.042066 -0.015053      4.000000
  0.000000  0.084133 -0.030107      2.000000
 -0.048813  0.000000  0.000000      2.000000
  0.000000  0.000000  0.045008      2.000000
  0.024407  0.042066  0.029954      4.000000
 -0.024407 -0.042066  0.060061      4.000000
  0.000000  0.084133  0.014901      2.000000
 -0.048813  0.000000  0.045008      4.000000
  0.000000 -0.084133  0.075114      2.000000

 SYSTEM =  unknown system
 POSCAR =  Na3 Gd1 I6

 Startparameter for this run:
   NWRITE =      2    write-flag & timer
   PREC   = accura    normal or accurate (medium, high low for compatibility)
   ISTART =      0    job   : 0-new  1-cont  2-samecut
   ICHARG =      2    charge: 1-file 2-atom 10-const
   ISPIN  =      2    spin polarized calculation?
   LNONCOLLINEAR =      F non collinear calculations
   LSORBIT =      F    spin-orbit coupling
   INIWAV =      1    electr: 0-lowe 1-rand  2-diag
   LASPH  =      T    aspherical Exc in radial PAW
 Electronic Relaxation 1
   ENCUT  =  520.0 eV  38.22 Ry    6.18 a.u.  14.68 14.68 14.63*2*pi/ulx,y,z
   ENINI  =  520.0     initial cutoff
   ENAUG  =  537.2 eV  augmentation charge cutoff
   NELM   =   1000;   NELMIN=  2; NELMDL= -5     # of ELM steps
   EDIFF  = 0.1E-04   stopping-criterion for ELM
   LREAL  =      T    real-space projection
   NLSPLINE    = F    spline interpolate recip. space projectors
   LCOMPAT=      F    compatible to vasp.4.4
   GGA_COMPAT  = T    GGA compatible to vasp.4.4-vasp.4.6
   LMAXPAW     = -100 max onsite density
   LMAXMIX     =    2 max onsite mixed and CHGCAR
   VOSKOWN=      0    Vosko Wilk Nusair interpolation
   ROPT   =   -0.00025  -0.00025  -0.00025
 Ionic relaxation
   EDIFFG = 0.1E-03   stopping-criterion for IOM
   NSW    =      0    number of steps for IOM
   NBLOCK =      1;   KBLOCK =      1    inner block; outer block
   IBRION =     -1    ionic relax: 0-MD 1-quasi-New 2-CG
   NFREE  =      0    steps in history (QN), initial steepest desc. (CG)
   ISIF   =      3    stress and relaxation
   IWAVPR =     10    prediction:  0-non 1-charg 2-wave 3-comb
   ISYM   =      2    0-nonsym 1-usesym 2-fastsym
   LCORR  =      T    Harris-Foulkes like correction to forces

   POTIM  = 0.5000    time-step for ionic-motion
   TEIN   =    0.0    initial temperature
   TEBEG  =    0.0;   TEEND  =   0.0 temperature during run
   SMASS  =  -3.00    Nose mass-parameter (am)
   estimated Nose-frequenzy (Omega)   =  0.10E-29 period in steps = 0.13E+47 mass=  -0.142E-26a.u.
   SCALEE = 1.0000    scale energy and forces
   NPACO  =    256;   APACO  = 10.0  distance and # of slots for P.C.
   PSTRESS=    0.0 pullay stress

  Mass of Ions in am
   POMASS =  22.99157.25126.90
  Ionic Valenz
   ZVAL   =   7.00 18.00  7.00
  Atomic Wigner-Seitz radii
  virtual crystal weights
   VCA    =   1.00  1.00  1.00
   NELECT =      81.0000    total number of electrons
[...]
  239          fft3d_mpi                             0.000618                          3   4
  240            fftbrc_mpi                            0.000508                        3   5
  241              fftbas_plan_mpi                       0.000507                      3   6
  242                map_forward                           0.000292                    4   7
  243                  map_gather                            0.000050                  2   8
  244                  m_alltoallv_z                         0.000027                  2   8
  245                  map_scatter                           0.000178                  2   8
  246                map_backward                          0.000129                    2   7
  247                  map_gather                            0.000027                  1   8
  248                  m_alltoallv_z                         0.000012                  1   8
  249                  map_scatter                           0.000073                  1   8
  250          m_sumb_d                              0.000010                          2   4
  251          pothar                                0.000081                          1   4
  252            m_sumb_d                              0.000004                        1   5
  253        brmix                                 0.005117                            1   3
  254          m_sumb_d                              0.000064                          6   4
  255          brpre                                 0.000041                          2   4
  256          setg0                                 0.001499                          1   4
  257          broyd                                 0.001764                          1   4
  258            m_sumb_d                              0.000173                       21   5
  259            brget                                 0.000548                       79   5
  260            brsav                                 0.000134                       19   5
  261        m_bcast_d                             0.000022                            2   3
  262      potlok                                0.050997                              2   2
  263        fft3d_mpi                             0.032363                           36   3
  264          fftbrc_mpi                            0.027195                         36   4
  265            fftbas_plan_mpi                       0.027176                       36   5
  266              map_forward                           0.007988                     40   6
  267                map_gather                            0.002328                   24   7
  268                m_alltoallv_z                         0.003203                   24   7
  269                map_scatter                           0.002232                   24   7
  270              map_backward                          0.006838                     32   6
  271                map_gather                            0.002176                   16   7
  272                m_alltoallv_z                         0.002450                   16   7
  273                map_scatter                           0.002000                   16   7
  274              dfftw_execute                         0.010566                     30   6
  275        m_sumb_d                              0.000026                            5   3
  276        pothar                                0.002425                            2   3
  277          m_sumb_d                              0.000076                          2   4
  278        m_bcast_d                             0.003630                            4   3
  279      potlok_metagga                        0.000000                              1   2
  280      set_dd_magatom                        0.000003                              1   2
  281      set_dd_paw                            1.416763                              1   2
  282        m_sumb_d                              0.000179                            7   3
  283      augmentation_charge                   0.014629                              1   2
  284        fft3d_mpi                             0.006006                            2   3
  285          fftbrc_mpi                            0.005261                          2   4
  286            fftbas_plan_mpi                       0.005258                        2   5
  287              dfftw_execute                         0.002355                      6   6
  288              map_backward                          0.002692                      4   6
  289                map_gather                            0.000865                    2   7
  290                m_alltoallv_z                         0.001193                    2   7
  291                map_scatter                           0.000629                    2   7
  292      densta                                0.484758                              1   2

 Flat profile

 set_dd_paw                             24.268232          17
 total_time                             11.578089           1
 init_acc                                9.657008           1
 raccmu_                                 4.788502        9845
 eddav                                   4.724524          19
 lapack                                  4.481167        9845
 acc_init_cublas                         3.405335           1
 redis_pw                                2.234789       54550
 m_sumb_d                                2.004344       32091
 phaser                                  1.221847         510
 m_alltoall_d                            1.177877      144550
 acc_init_cusolver                       1.015173           1
 densta                                  0.826853          20
 eccp                                    0.547860        5320
 orth1                                   0.529353       29575
 redis_proj                              0.466587       68940
 fft3d                                   0.447535       60540
 fftwav                                  0.425206       40850
 rpromu_acc                              0.387882        8225
 setdij_                                 0.332568          43
 m_bcast_z                               0.316539       10965
 hamiltmu                                0.291705        9845
 racc0mu_acc                             0.287222        9845
 w1_copy                                 0.285471       59070
 acc_cufft_makeplan                      0.282953          19
 overl                                   0.281000       34080
 soft_charge                             0.229716          15
 rpro_isp                                0.227361         130
 set_charge                              0.218275          15
 setup_precond                           0.193249        5320
 m_alltoallv_z                           0.170659         593
 m_bcast_d                               0.166821       19729
 overl_mu                                0.152668        9845
 augmentation_charge                     0.136322          16
 ggemm                                   0.135850       12505
 rspher_all                              0.130711          14
 newband                                 0.112172       10225
 potlok                                  0.107203          17
 pw_charge                               0.106791        3150
 vhamil                                  0.093122       19690
 kinhamil                                0.088984       19690
 fftext_mpi                              0.082067       19690
 dfftw_execute                           0.078690         264
 apply_precond                           0.077985       14370
 fft3d_mpi                               0.076543       20219
 depsum                                  0.068278          15
 fftwav_mpi                              0.054938       40850
 map_scatter                             0.049396         593
 elmin                                   0.047026           1
 proall                                  0.046465           1
 map_gather                              0.042524         593
 sphpro_fast                             0.030975           2
 fftbas_plan_mpi                         0.026345         529
 brmix                                   0.026273          15
 setg0                                   0.023346          17
 lincom                                  0.016295         400
 choleski                                0.014348          20
 force_and_stress                        0.012499           1
 orthch                                  0.011469           1
 broyd                                   0.008733          15
 stufak                                  0.007244           1
 w1_projall                              0.007082        7185
 brget                                   0.004452         654
 inisym                                  0.004242           1
 map_forward                             0.003834         504
 pothar                                  0.003697          18
 map_backward                            0.003691         554
 strnlr                                  0.003059           1
 forhar                                  0.002994           2
 strelo                                  0.002734           1
 strehar                                 0.002143           1
 fft_gq                                  0.002114          15
 truncate_high_frequency_w1              0.002110       25010
 forloc                                  0.001529           1
 brsav                                   0.001233         182
 fornlr                                  0.001058           1
 strkin                                  0.000620           1
 brpre                                   0.000592          30
 fewald                                  0.000326           1
 brgrid                                  0.000277           1
 chggra                                  0.000272           1
 fftbrc_mpi                              0.000270         529
 rsp                                     0.000201           1
 vectorpot                               0.000070          16
 set_dd_magatom                          0.000065          17
 fordep                                  0.000033           1
 crpa_reader                             0.000025           1
 rcp                                     0.000021           1
 posmap                                  0.000012           2
 acc_cufft_makeplans                     0.000011           3
 potlok_metagga                          0.000002          16
 rotate_active_occupied_orbital          0.000000           1
 redis_pw_over_bands                     0.000000           1
  summed up times     79.38573002815247

 Accumulative profile

 total_time                             79.385730           1
 elmin                                  48.053166           1
 eddav                                  24.741913          19
 set_dd_paw                             24.271314          17
 init_acc                                9.657008           1
 hamiltmu                                5.929993        9845
 raccmu_                                 5.228391        9845
 lapack                                  4.481167        9845
 acc_init_cublas                         3.405335           1
 redis_pw                                2.734317       54550
 force_and_stress                        2.657183           1
 m_sumb_d                                2.004344       32091
 newband                                 1.288771       10225
 phaser                                  1.221847         510
 m_alltoall_d                            1.177877      144550
 redis_proj                              1.144937       68940
 set_charge                              1.093038          15
 acc_init_cusolver                       1.015173           1
 densta                                  0.826853          20
 fftwav_mpi                              0.787757       40850
 fftwav                                  0.732819       40850
 strnlr                                  0.686921           1
 fft3d_mpi                               0.591872       20219
 soft_charge                             0.550277          15
 eccp                                    0.547860        5320
 orth1                                   0.529353       29575
 rpro_isp                                0.521095         130
 fft3d                                   0.447535       60540
 rpromu_acc                              0.387882        8225
 fftbrc_mpi                              0.375408         529
 fftbas_plan_mpi                         0.375138         529
 potlok                                  0.344766          17
 orthch                                  0.340335           1
 setdij_                                 0.339989          43
 kinhamil                                0.316775       19690
 m_bcast_z                               0.316539       10965
 racc0mu_acc                             0.287222        9845
 w1_copy                                 0.285471       59070
 acc_cufft_makeplans                     0.282964           3
 acc_cufft_makeplan                      0.282953          19
 overl                                   0.281000       34080
 augmentation_charge                     0.235940          16
 fornlr                                  0.229226           1
 fftext_mpi                              0.227791       19690
 w1_projall                              0.214416        7185
 setup_precond                           0.193249        5320
 map_forward                             0.171390         504
 m_alltoallv_z                           0.170659         593
 m_bcast_d                               0.166821       19729
 overl_mu                                0.152668        9845
 ggemm                                   0.135850       12505
 rspher_all                              0.130711          14
 pw_charge                               0.106791        3150
 map_backward                            0.098714         554
 vhamil                                  0.093122       19690
 proall                                  0.088009           1
 dfftw_execute                           0.078690         264
 apply_precond                           0.077985       14370
 depsum                                  0.070094          15
 brmix                                   0.067568          15
 fft_gq                                  0.054374          15
 map_scatter                             0.049396         593
 fordep                                  0.047328           1
 map_gather                              0.042524         593
 sphpro_fast                             0.032065           2
 setg0                                   0.023346          17
 lincom                                  0.016295         400
 broyd                                   0.016211          15
 choleski                                0.014348          20
 stufak                                  0.007244           1
 brget                                   0.004452         654
 inisym                                  0.004254           1
 pothar                                  0.003923          18
 forhar                                  0.003003           2
 strelo                                  0.002758           1
 strehar                                 0.002146           1
 truncate_high_frequency_w1              0.002110       25010
 forloc                                  0.001591           1
 brsav                                   0.001233         182
 fewald                                  0.000982           1
 chggra                                  0.000981           1
 strkin                                  0.000628           1
 brpre                                   0.000592          30
 brgrid                                  0.000277           1
 rsp                                     0.000201           1
 vectorpot                               0.000070          16
 set_dd_magatom                          0.000065          17
 crpa_reader                             0.000025           1
 rcp                                     0.000021           1
 posmap                                  0.000012           2
 potlok_metagga                          0.000002          16
 rotate_active_occupied_orbital          0.000000           1
 redis_pw_over_bands                     0.000000           1

Profiling took   0.129208  0.066301  0.003181  0.003125 seconds
Profiling took   0.079987 seconds