 vasp.6.3.2 27Jun22 (build Jul  3 2023 11:46:21) complex
 executed on    LinuxNV_CrayMPICH date 2024.04.21  19:59:53

 INCAR:
   ALGO = Fast
   EDIFF = 0.0014
   EFIELD_PEAD = 0.0 0.0 0.0
   ENCUT = 520.0
   IBRION = 2
   ICHARG = 1
   ISIF = 3
   ISMEAR = 0
   ISPIN = 2
   ISTART = 1
   LCALCEPS = False
   LCALCPOL = False
   LEFG = False
   LORBIT = 11
   LPEAD = False
   LREAL = Auto
   LWAVE = False
   MAGMOM = 4*7.0 24*0.6
   NELM = 1000
   NSW = 99
   PREC = accurate
   SIGMA = 0.2

 POTCAR:    PAW_PBE Eu 23Dec2003
 POTCAR:    PAW_PBE Rb_sv 06Sep2000
 POTCAR:    PAW_PBE Si 05Jan2001
 POTCAR:    PAW_PBE S 06Sep2000
 POTCAR:    PAW_PBE Eu 23Dec2003
   VRHFIN =Eu : [core=Kr4d]

   TITEL  = PAW_PBE Eu 23Dec2003
   POMASS =  151.965; ZVAL   =   17.000    mass and valenz
   ENMAX  =  249.668; ENMIN  =  187.251 eV

   TITEL  = PAW_PBE Rb_sv 06Sep2000
   POMASS =   85.468; ZVAL   =    9.000    mass and valenz
   ENMAX  =  220.112; ENMIN  =  165.084 eV

   TITEL  = PAW_PBE Si 05Jan2001
   POMASS =   28.085; ZVAL   =    4.000    mass and valenz
   ENMAX  =  245.345; ENMIN  =  184.009 eV

   TITEL  = PAW_PBE S 06Sep2000
   POMASS =   32.066; ZVAL   =    6.000    mass and valenz
   ENMAX  =  258.689; ENMIN  =  194.016 eV

 Optimization of the real space projectors (new method)

 maximal supplied QI-value         = 13.42
 optimisation between [QCUT,QGAM] = [ 11.67, 23.35] = [ 38.16,152.62] Ry
 Optimized for a Real-space Cutoff    1.63 Angstroem

   l    n(q)    QCUT    max X(q) W(low)/X(q) W(high)/X(q)  e(spline)
   0     11    11.673    10.400    0.14E-04    0.18E-05    0.24E-07
   0     11    11.673    10.768    0.21E-04    0.32E-05    0.49E-07
   1     11    11.673     4.094    0.40E-05    0.13E-04    0.93E-07
   1     11    11.673     4.009    0.11E-04    0.46E-04    0.33E-06
   2     10    11.673    29.030    0.79E-04    0.60E-04    0.70E-06
   2     10    11.673    19.941    0.80E-04    0.60E-04    0.71E-06
   3     10    11.673    88.889    0.23E-03    0.29E-03    0.30E-06
   3     10    11.673    76.102    0.23E-03    0.30E-03    0.30E-06
 Optimization of the real space projectors (new method)

[...]

   l    n(q)    QCUT    max X(q) W(low)/X(q) W(high)/X(q)  e(spline)
   0      8    11.508   159.560    0.71E-04    0.15E-03    0.51E-07
   0      8    11.508   115.863    0.70E-04    0.15E-03    0.51E-07
   1      8    11.508    88.339    0.16E-03    0.38E-04    0.82E-07
   1      8    11.508    48.592    0.15E-03    0.36E-04    0.79E-07
 Optimization of the real space projectors (new method)

 maximal supplied QI-value         = 19.84
 optimisation between [QCUT,QGAM] = [ 11.51, 23.22] = [ 37.09,150.92] Ry
 Optimized for a Real-space Cutoff    1.21 Angstroem

   l    n(q)    QCUT    max X(q) W(low)/X(q) W(high)/X(q)  e(spline)
   0      8    11.508   187.594    0.96E-04    0.18E-03    0.54E-07
   0      8    11.508   164.243    0.96E-04    0.18E-03    0.54E-07
   1      8    11.508    67.533    0.18E-03    0.65E-04    0.94E-07
   1      8    11.508    50.729    0.18E-03    0.63E-04    0.92E-07
  PAW_PBE Eu 23Dec2003                  :
  PAW_PBE Rb_sv 06Sep2000               :
  PAW_PBE Si 05Jan2001                  :
  PAW_PBE S 06Sep2000                   :

 POSCAR: Rb4 Eu4 Si4 S16
  positions in direct lattice
 exchange correlation table for  LEXCH =        8
   RHO(1)=    0.500       N(1)  =     2000
   RHO(2)=  100.500       N(2)  =     4000

 VTST: version 4.2, (08/11/21)

 CHAIN: initializing optimizer

 OPT: Using VASP Conjugate-Gradient optimizer
 CHAIN: Read ICHAIN             0

 POSCAR: Rb4 Eu4 Si4 S16
  positions in direct lattice

 ion  position               nearest neighbor table
   1  0.709  0.520  0.774-  19 2.89  23 2.90  20 2.92  25 2.94  14 2.95  18 2.99  22 3.08   8 4.58

   2  0.791  0.480  0.274-  16 2.89  15 2.90  26 2.92  13 2.94  17 2.95  21 2.99  24 3.08   6 4.58

[...]

   4  0.209  0.980  0.226-  24 2.89  27 2.90  17 2.92  21 2.94  26 2.95  13 2.99  16 3.08   7 4.58

   5  0.015  0.995  0.967-  22 3.40  23 3.50  13 3.52  23 3.56  27 3.57  20 3.60  17 3.63  18 3.71
                            10 3.95  11 4.22  27 4.25  11 4.30   3 4.58   6 4.80   6 4.80   6 4.89
   6  0.515  0.505  0.033-  16 3.40  27 3.50  18 3.52  27 3.56  23 3.57  17 3.60  20 3.63  13 3.71
                            11 3.95  10 4.22  23 4.25  10 4.30   2 4.58   5 4.80   5 4.80   5 4.89
   7  0.485  0.005  0.467-  24 3.40  15 3.50  25 3.52  15 3.56  28 3.57  26 3.60  14 3.63  21 3.71
                             9 3.95  12 4.22  28 4.25  12 4.30   4 4.58   8 4.80   8 4.80   8 4.89
   8  0.985  0.495  0.533-  19 3.40  28 3.50  21 3.52  28 3.56  15 3.57  14 3.60  26 3.63  25 3.71
                            12 3.95   9 4.22  15 4.25   9 4.30   1 4.58   7 4.80   7 4.80   7 4.89
   9  0.790  0.988  0.663-  28 2.12  22 2.15  14 2.15  25 2.15   7 3.95   8 4.22   8 4.30
  10  0.710  0.012  0.163-  27 2.12  24 2.15  17 2.15  13 2.15   5 3.95   6 4.22   6 4.30
  11  0.210  0.488  0.837-  23 2.12  19 2.15  20 2.15  18 2.15   6 3.95   5 4.22   5 4.30
  12  0.290  0.512  0.337-  15 2.12  16 2.15  26 2.15  21 2.15   8 3.95   7 4.22   7 4.30
  13  0.925  0.247  0.140-  10 2.15   2 2.94   4 2.99   5 3.52   6 3.71
  14  0.606  0.248  0.647-   9 2.15   3 2.92   1 2.95   8 3.60   7 3.63
  15  0.546  0.509  0.412-  12 2.12   2 2.90   7 3.50   7 3.56   8 3.57   8 4.25
  16  0.383  0.556  0.220-  12 2.15   2 2.89   4 3.08   6 3.40
  17  0.894  0.752  0.147-  10 2.15   4 2.92   2 2.95   6 3.60   5 3.63
  18  0.425  0.253  0.860-  11 2.15   3 2.94   1 2.99   6 3.52   5 3.71
  19  0.117  0.444  0.720-  11 2.15   1 2.89   3 3.08   8 3.40
  20  0.394  0.748  0.853-  11 2.15   1 2.92   3 2.95   5 3.60   6 3.63
  21  0.075  0.747  0.360-  12 2.15   4 2.94   2 2.99   8 3.52   7 3.71
  22  0.883  0.944  0.780-   9 2.15   3 2.89   1 3.08   5 3.40
  23  0.954  0.491  0.912-  11 2.12   1 2.90   5 3.50   5 3.56   6 3.57   6 4.25
  24  0.617  0.056  0.280-  10 2.15   4 2.89   2 3.08   7 3.40
  25  0.575  0.753  0.640-   9 2.15   1 2.94   3 2.99   7 3.52   8 3.71
  26  0.106  0.252  0.353-  12 2.15   2 2.92   4 2.95   7 3.60   8 3.63
  27  0.454  0.009  0.088-  10 2.12   4 2.90   6 3.50   6 3.56   5 3.57   5 4.25
  28  0.046  0.991  0.588-   9 2.12   3 2.90   8 3.50   8 3.56   7 3.57   7 4.25

  LATTYP: Found a simple orthorhombic cell.
 ALAT       =     6.5627738800
 B/A-ratio  =     1.0279385277
 C/A-ratio  =     2.6576628601

  Lattice vectors:

 A1 = (   6.5627738800,   0.0000000000,   0.0000000000)
 A2 = (   0.0000000000,   6.7461281200,   0.0000000000)
 A3 = (   0.0000000000,   0.0000000000,  17.4416404000)

Analysis of symmetry for initial positions (statically):
 Subroutine PRICEL returns:
 Original cell was already a primitive cell.

 Routine SETGRP: Setting up the symmetry group for a
 simple orthorhombic supercell.

 Subroutine GETGRP returns: Found  4 space group operations
 (whereof  1 operations were pure point group operations)
 out of a pool of  8 trial point group operations.

The static configuration has the point symmetry C_1 .
 The point group associated with its full space group is D_2 .

Analysis of symmetry for dynamics (positions and initial velocities):
 Subroutine PRICEL returns:
 Original cell was already a primitive cell.

[...]

The dynamic configuration has the point symmetry C_1 .
 The point group associated with its full space group is D_2 .

Analysis of structural, dynamic, and magnetic symmetry:
 Subroutine PRICEL returns:
 Original cell was already a primitive cell.

 Routine SETGRP: Setting up the symmetry group for a
 simple orthorhombic supercell.

 Subroutine GETGRP returns: Found  4 space group operations
 (whereof  1 operations were pure point group operations)
 out of a pool of  8 trial point group operations.

The overall configuration has the point symmetry C_1 .
 The point group associated with its full space group is D_2 .

 Subroutine INISYM returns: Found  4 space group operations
 (whereof  1 operations are pure point group operations),
 and found     1 'primitive' translations

                                     Primitive cell

  volume of cell :     772.1992

  direct lattice vectors                    reciprocal lattice vectors
     6.562773880  0.000000000  0.000000000     0.152374593  0.000000000  0.000000000
     0.000000000  6.746128120  0.000000000     0.000000000  0.148233176  0.000000000
     0.000000000  0.000000000 17.441640400     0.000000000  0.000000000  0.057334057

  length of vectors
     6.562773880  6.746128120 17.441640400     0.152374593  0.148233176  0.057334057

  position of ions in fractional coordinates (direct lattice)
     0.708766700  0.519861990  0.773842030
     0.791233300  0.480138010  0.273842030
     0.291233300  0.019861990  0.726157970
     0.208766700  0.980138010  0.226157970
     0.015006560  0.995320510  0.967128260
     0.515006560  0.504679490  0.032871740
     0.484993440  0.004679490  0.467128260
     0.984993440  0.495320510  0.532871740
     0.789860470  0.988080780  0.662614260
     0.710139530  0.011919220  0.162614260
     0.210139530  0.488080780  0.837385740
     0.289860470  0.511919220  0.337385740
     0.924571680  0.246672060  0.140403050
     0.605594520  0.248492550  0.647113500
     0.546085890  0.508967450  0.411694230
     0.382534420  0.555770490  0.220388100
     0.894405480  0.751507450  0.147113500
     0.424571680  0.253327940  0.859596950
     0.117465580  0.444229510  0.720388100
     0.394405480  0.748492550  0.852886500
     0.075428320  0.746672060  0.359596950
     0.882534420  0.944229510  0.779611900
     0.953914110  0.491032550  0.911694230
     0.617465580  0.055770490  0.279611900
     0.575428320  0.753327940  0.640403050
     0.105594520  0.251507450  0.352886500
     0.453914110  0.008967450  0.088305770
     0.046085890  0.991032550  0.588305770

  ion indices of the primitive-cell ions
   primitive index   ion index
                 1           1
                 2           2
                 3           3
                 4           4
                 5           5
                 6           6
                 7           7
                 8           8
                 9           9
                10          10
                11          11
                12          12
                13          13
                14          14
                15          15
                16          16
                17          17
                18          18
                19          19
                20          20
                21          21
                22          22
                23          23
                24          24
                25          25
                26          26
                27          27
                28          28

 KPOINTS: Kpoints from vasprun.xml

Automatic generation of k-mesh.
 Grid dimensions read from file:
 generate k-points for:    5    4    2

 Generating k-lattice:

  Cartesian coordinates                     Fractional coordinates (reciprocal lattice)
     0.030474919  0.000000000  0.000000000     0.200000000  0.000000000  0.000000000
     0.000000000  0.037058294  0.000000000     0.000000000  0.250000000  0.000000000
[...]
  325          m_sumb_d                              0.000895                         42   4
  326          brpre                                 0.000451                         14   4
  327          setg0                                 0.020749                          7   4
  328          broyd                                 0.011524                          7   4
  329            m_sumb_d                              0.000352                      103   5
  330            brget                                 0.004308                      333   5
  331            brsav                                 0.001229                       93   5
  332        m_bcast_d                             0.000229                           14   3
  333      potlok                                0.067458                              7   2
  334        fft3d_mpi                             0.040811                          182   3
  335          fftbrc_mpi                            0.032337                        182   4
  336            fftbas_plan_mpi                       0.032246                      182   5
  337              map_forward                           0.014395                    196   6
  338                map_gather                            0.003028                  112   7
  339                m_alltoallv_z                         0.001448                  112   7
  340                map_scatter                           0.008331                  112   7
  341              map_backward                          0.012211                    168   6
  342                map_gather                            0.002560                   84   7
  343                m_alltoallv_z                         0.001081                   84   7
  344                map_scatter                           0.006640                   84   7
  345        m_sumb_d                              0.000197                           35   3
  346        pothar                                0.000726                            7   3
  347          m_sumb_d                              0.000067                          7   4
  348        m_bcast_d                             0.000173                           14   3
  349      potlok_metagga                        0.000001                              7   2
  350      set_dd_magatom                        0.000026                              7   2
  351      set_dd_paw                            0.162354                              7   2
  352        m_sumb_d                              0.002805                           49   3
  353      wavpre_noio                           0.367426                              6   2
  354        stufak                                0.188103                            6   3
  355      densta                                0.007276                              1   2
  356        m_sumb_d                              0.001574                           41   3

 Flat profile

 init_acc                               11.677569           1
 raccmu_                                11.251755       24881
 eccp                                   10.825616      113795
 total_time                              9.259355           1
 phaser                                  5.878560        1326
 i2                                      5.784626       15395
 redis_pw                                5.175069       60756
 eddav                                   5.051180          11
 eccp_nl                                 4.706695       84155
 lapack                                  4.363479        9486
 w1_gemv                                 4.240145      176296
 m_sumb_d                                4.023738       37014
 rpromu_acc                              3.350239       33293
 setdij_                                 2.963674         251
 m_alltoall_d                            2.845087      424644
 eddrmm                                  2.804327          54
 fftwav                                  2.581064      203409
 acc_init_cublas                         2.457084           1
 rpro_isp                                2.321624         546
 cnorma                                  2.312628       84155
 eddiag                                  2.246059          54
 fft3d                                   2.152890      306556
 hamilt_local                            1.734081       24624
 set_dd_paw                              1.711490          75
 rspher_all                              1.708225          92
 overl1                                  1.451209       88148
 soft_charge                             1.342499          61
 set_charge                              1.334786          61
 w1_copy                                 1.218490      235569
 hamiltmu                                1.065876       24881
 setup_precond                           1.052168       29640
 w1_dscal                                0.990779      164322
 racc0mu_acc                             0.834249       24881
 newband                                 0.831065       25661
 pw_charge                               0.828199       20196
 augmentation_charge                     0.825877          61
 redis_proj                              0.817091       70260
 acc_init_cusolver                       0.799628           1
 apply_precond                           0.758518      163197
 w1_dot                                  0.704226       24614
 w1_daxpy                                0.667108      119082
 orth1                                   0.635750       35358
 w1_gaxpy                                0.635169      124627
 m_bcast_z                               0.541268       11310
 potlok                                  0.528325          68
 depsum                                  0.463673          61
 kinhamil                                0.445260      103147
 vhamil                                  0.438903      103147
 fftext_mpi                              0.411533      103147
 elmin                                   0.399952           7
 overl_mu                                0.387661       24881
 m_alltoallv_z                           0.369051        2456
 dfftw_execute                           0.347253         765
 fft3d_mpi                               0.321983      105345
 proall                                  0.309083           7
 orthch                                  0.292649          61
 overl                                   0.288477       34308
 zhegv                                   0.279635       34927
 fftwav_mpi                              0.274737      203409
 map_scatter                             0.266727        2456
 choleski                                0.233995         732
 stufak                                  0.220407           7
 brmix                                   0.181211          61
 wavpre_noio                             0.179323           6
 map_gather                              0.172140        2456
 force_and_stress                        0.165399           7
 ggemm                                   0.162528       11994
 acc_cufft_makeplan                      0.162433          19
 m_bcast_d                               0.156476       19137
 setg0                                   0.155700          75
 i3                                      0.154682       15395
 sphpro_fast                             0.154583           8
 fftbas_plan_mpi                         0.093152        2198
 lincom                                  0.052084        1512
 densta                                  0.044061          66
 broyd                                   0.039641          61
 forhar                                  0.034755          14
 strelo                                  0.029238           7
 brget                                   0.028297        2207
 strehar                                 0.023119           7
 map_backward                            0.021635        2302
 w1_projall                              0.020525       22373
 strnlr                                  0.018237           7
 i1                                      0.017654       15395
 forloc                                  0.017506           7
 map_forward                             0.017178        2094
 fft_gq                                  0.013008          61
 rsp                                     0.009471           7
 strkin                                  0.008983           7
 brsav                                   0.008443         655
 truncate_high_frequency_w1              0.008042      108163
 pothar                                  0.007013          75
 fornlr                                  0.006224           7
 inisym                                  0.004536           1
 brpre                                   0.004077         122
 chggra                                  0.001935           7
 fftbrc_mpi                              0.001137        2198
 brgrid                                  0.000432           1
 fordep                                  0.000389           7
 fewald                                  0.000373           7
 vectorpot                               0.000361          62
 set_dd_magatom                          0.000302          75
 rcp                                     0.000301           7
 shift_bands_between_low_high            0.000103         648
 posmap                                  0.000034           2
 crpa_reader                             0.000027           1
 potlok_metagga                          0.000012          68
 acc_cufft_makeplans                     0.000010           3
 rotate_active_occupied_orbital          0.000003           7
 redis_pw_over_bands                     0.000001           7
  summed up times     139.2162911891937

 Accumulative profile

 total_time                            139.216291           1
 elmin                                  98.349224           7
 eddrmm                                 53.033787          54
 eddav                                  24.418781          11
 i3                                     16.491791       15395
 i2                                     15.254915       15395
 hamiltmu                               15.099742       24881
 force_and_stress                       13.583795           7
 raccmu_                                12.473665       24881
 init_acc                               11.677569           1
 eccp                                   10.825616      113795
 eddiag                                  7.743157          54
 strnlr                                  7.510861           7
 set_charge                              7.067765          61
 cnorma                                  7.019323       84155
 redis_pw                                6.493421       60756
 rpro_isp                                6.253560         546
 newband                                 6.049047       25661
 phaser                                  5.878560        1326
 w1_gemv                                 5.691354      176296
 eccp_nl                                 4.706695       84155
 lapack                                  4.363479        9486
 fftwav_mpi                              4.323552      203409
 fftwav                                  4.048815      203409
 m_sumb_d                                4.023738       37014
 orthch                                  3.675396          61
 soft_charge                             3.521831          61
 rpromu_acc                              3.350239       33293
 setdij_                                 3.073125         251
 m_alltoall_d                            2.845087      424644
 fornlr                                  2.503085           7
 acc_init_cublas                         2.457084           1
 redis_proj                              2.343826       70260
 fft3d_mpi                               2.295396      105345
 hamilt_local                            2.184368       24624
 fft3d                                   2.152890      306556
 set_dd_paw                              1.749215          75
 rspher_all                              1.708225          92
 kinhamil                                1.571584      103147
 augmentation_charge                     1.478134          61
 overl1                                  1.451209       88148
 fftbrc_mpi                              1.288274        2198
 fftbas_plan_mpi                         1.287136        2198
 w1_copy                                 1.218490      235569
 fftext_mpi                              1.126324      103147
 potlok                                  1.062290          68
 setup_precond                           1.052168       29640
 w1_dscal                                0.990779      164322
 racc0mu_acc                             0.834249       24881
 pw_charge                               0.828199       20196
 acc_init_cusolver                       0.799628           1
 w1_projall                              0.767442       22373
 apply_precond                           0.758518      163197
 w1_dot                                  0.704226       24614
 w1_daxpy                                0.667108      119082
 proall                                  0.653485           7
 orth1                                   0.635750       35358
 w1_gaxpy                                0.635169      124627
 map_backward                            0.543797        2302
 m_bcast_z                               0.541268       11310
 fordep                                  0.517314           7
 depsum                                  0.492486          61
 vhamil                                  0.438903      103147
 brmix                                   0.424751          61
 overl_mu                                0.387661       24881
 m_alltoallv_z                           0.369051        2456
 wavpre_noio                             0.367426           6
 dfftw_execute                           0.347253         765
 fft_gq                                  0.310385          61
 map_forward                             0.302934        2094
 overl                                   0.288477       34308
 i1                                      0.283566       15395
 zhegv                                   0.279635       34927
 map_scatter                             0.266727        2456
 choleski                                0.233995         732
 stufak                                  0.220407           7
 map_gather                              0.172140        2456
 ggemm                                   0.162528       11994
 acc_cufft_makeplans                     0.162443           3
 acc_cufft_makeplan                      0.162433          19
 sphpro_fast                             0.159724           8
 m_bcast_d                               0.156476       19137
 setg0                                   0.155700          75
 broyd                                   0.079053          61
 densta                                  0.059037          66
 lincom                                  0.052084        1512
 forhar                                  0.035317          14
 strelo                                  0.031249           7
 brget                                   0.028297        2207
 strehar                                 0.023227           7
 forloc                                  0.018903           7
 fewald                                  0.011597           7
 rsp                                     0.009471           7
 strkin                                  0.009063           7
 brsav                                   0.008443         655
 truncate_high_frequency_w1              0.008042      108163
 pothar                                  0.007861          75
 chggra                                  0.007435           7
 inisym                                  0.004570           1
 brpre                                   0.004077         122
 brgrid                                  0.000432           1
 vectorpot                               0.000361          62
 set_dd_magatom                          0.000302          75
 rcp                                     0.000301           7
 shift_bands_between_low_high            0.000103         648
 posmap                                  0.000034           2
 crpa_reader                             0.000027           1
 potlok_metagga                          0.000012          68
 rotate_active_occupied_orbital          0.000003           7
 redis_pw_over_bands                     0.000001           7

Profiling took   0.403494  0.277467  0.003277  0.003192 seconds
Profiling took   0.317297 seconds