 vasp.6.3.2 27Jun22 (build Jul  3 2023 11:46:21) complex
 executed on    LinuxNV_CrayMPICH date 2024.04.21  00:48:38

 INCAR:
   ADDGRID = True
   ALGO = Normal
   EDIFF = 0.0001
   ENCUT = 520.0
   IBRION = -1
   ISIF = 3
   ISMEAR = -5
   ISPIN = 2
   LAECHG = True
   LASPH = True
   LCHARG = True
   LORBIT = 11
   LREAL = Auto
   LVHAR = True
   LWAVE = False
   MAGMOM = 1*7.0 5*0.6
   NELM = 1000
   NSW = 0
   PREC = Accurate
   SIGMA = 0.05

 POTCAR:    PAW_PBE Gd 23Dec2003
 POTCAR:    PAW_PBE Dy_3 06Sep2000
 POTCAR:    PAW_PBE Al 04Jan2001
 POTCAR:    PAW_PBE Gd 23Dec2003
   VRHFIN =Gd : [core=Xe4]

   TITEL  = PAW_PBE Gd 23Dec2003
   POMASS =  157.250; ZVAL   =   18.000    mass and valenz
   ENMAX  =  256.472; ENMIN  =  192.354 eV

   TITEL  = PAW_PBE Dy_3 06Sep2000
   POMASS =  162.500; ZVAL   =    9.000    mass and valenz
   ENMAX  =  155.713; ENMIN  =  116.785 eV

   TITEL  = PAW_PBE Al 04Jan2001
   POMASS =   26.981; ZVAL   =    3.000    mass and valenz
   ENMAX  =  240.300; ENMIN  =  180.225 eV

 Optimization of the real space projectors (new method)

 maximal supplied QI-value         = 13.42
 optimisation between [QCUT,QGAM] = [ 11.67, 23.35] = [ 38.16,152.62] Ry
 Optimized for a Real-space Cutoff    1.63 Angstroem

   l    n(q)    QCUT    max X(q) W(low)/X(q) W(high)/X(q)  e(spline)
   0     11    11.673    10.501    0.14E-04    0.17E-05    0.21E-07
   0     11    11.673     9.148    0.21E-04    0.32E-05    0.45E-07
   1     11    11.673     4.035    0.33E-05    0.11E-04    0.84E-07
   1     11    11.673     4.388    0.11E-04    0.47E-04    0.34E-06
   2     10    11.673    20.656    0.12E-04    0.28E-04    0.54E-06
   2     10    11.673    12.651    0.11E-04    0.26E-04    0.51E-06
   3     10    11.673    61.921    0.19E-03    0.22E-03    0.23E-06
   3     10    11.673    48.328    0.20E-03    0.23E-03    0.23E-06
 Optimization of the real space projectors (new method)

[...]

   l    n(q)    QCUT    max X(q) W(low)/X(q) W(high)/X(q)  e(spline)
   0     13    11.599    57.302    0.37E-04    0.16E-05    0.57E-06
   0     13    11.599    27.765    0.24E-04    0.17E-05    0.49E-06
   1     13    11.599    41.596    0.37E-05    0.11E-04    0.10E-05
   1     13    11.599    42.475    0.39E-05    0.11E-04    0.11E-05
   2     12    11.599   121.897    0.82E-04    0.72E-04    0.20E-05
   2     12    11.599    97.181    0.82E-04    0.72E-04    0.20E-05
 Optimization of the real space projectors (new method)

 maximal supplied QI-value         = 19.84
 optimisation between [QCUT,QGAM] = [ 11.51, 23.22] = [ 37.09,150.92] Ry
 Optimized for a Real-space Cutoff    1.18 Angstroem

   l    n(q)    QCUT    max X(q) W(low)/X(q) W(high)/X(q)  e(spline)
   0      8    11.508   176.870    0.11E-03    0.16E-03    0.40E-07
   0      8    11.508   105.762    0.11E-03    0.16E-03    0.39E-07
   1      8    11.508    55.370    0.23E-03    0.10E-03    0.75E-07
   1      8    11.508    20.208    0.21E-03    0.91E-04    0.68E-07
  PAW_PBE Gd 23Dec2003                  :
  PAW_PBE Dy_3 06Sep2000                :
  PAW_PBE Al 04Jan2001                  :

 POSCAR: Gd1 Dy1 Al4
  positions in direct lattice
 exchange correlation table for  LEXCH =        8
   RHO(1)=    0.500       N(1)  =     2000
   RHO(2)=  100.500       N(2)  =     4000

 VTST: version 4.2, (08/11/21)

 CHAIN: initializing optimizer

 OPT: Using VASP Dynamics algorithm
 CHAIN: Read ICHAIN             0

 POSCAR: Gd1 Dy1 Al4
  positions in direct lattice

 ion  position               nearest neighbor table
   1  0.000  0.000  0.000-   3 3.27   4 3.27   5 3.27   6 3.27   6 3.27   6 3.27   4 3.27   5 3.27
                             3 3.27   3 3.27   5 3.27   4 3.27   2 3.41   2 3.41   2 3.41   2 3.41
   2  0.250  0.250  0.250-   4 3.27   5 3.27   3 3.27   5 3.27   3 3.27   4 3.27   6 3.27   6 3.27
                             6 3.27   5 3.27   4 3.27   3 3.27   1 3.41   1 3.41   1 3.41   1 3.41
   3  0.625  0.625  0.125-   4 2.79   5 2.79   6 2.79   6 2.79   4 2.79   5 2.79   1 3.27   1 3.27
                             1 3.27   2 3.27   2 3.27   2 3.27
   4  0.625  0.125  0.625-   3 2.79   5 2.79   6 2.79   3 2.79   6 2.79   5 2.79   1 3.27   1 3.27
                             1 3.27   2 3.27   2 3.27   2 3.27
   5  0.125  0.625  0.625-   3 2.79   4 2.79   6 2.79   6 2.79   3 2.79   4 2.79   1 3.27   1 3.27
                             1 3.27   2 3.27   2 3.27   2 3.27
   6  0.625  0.625  0.625-   3 2.79   4 2.79   5 2.79   3 2.79   4 2.79   5 2.79   1 3.27   1 3.27
                             1 3.27   2 3.27   2 3.27   2 3.27

  LATTYP: Found a face centered cubic cell.
 ALAT       =     7.8855920000

  Lattice vectors:

 A1 = (   0.0000000000,   3.9427960000,   3.9427960000)
 A2 = (   3.9427960000,   0.0000000000,   3.9427960000)
 A3 = (   3.9427960000,   3.9427960000,   0.0000000000)

Analysis of symmetry for initial positions (statically):
 Subroutine PRICEL returns:
 Original cell was already a primitive cell.

 Routine SETGRP: Setting up the symmetry group for a
 face centered cubic supercell.

 Subroutine GETGRP returns: Found 24 space group operations
 (whereof 24 operations were pure point group operations)
 out of a pool of 48 trial point group operations.

The static configuration has the point symmetry T_d .

Analysis of symmetry for dynamics (positions and initial velocities):
 Subroutine PRICEL returns:
 Original cell was already a primitive cell.

[...]

The dynamic configuration has the point symmetry T_d .

Analysis of structural, dynamic, and magnetic symmetry:
 Subroutine PRICEL returns:
 Original cell was already a primitive cell.

 Routine SETGRP: Setting up the symmetry group for a
 face centered cubic supercell.

 Subroutine GETGRP returns: Found 24 space group operations
 (whereof 24 operations were pure point group operations)
 out of a pool of 48 trial point group operations.

The overall configuration has the point symmetry T_d .

 Subroutine INISYM returns: Found 24 space group operations
 (whereof 24 operations are pure point group operations),
 and found     1 'primitive' translations

                                     Primitive cell

  volume of cell :     122.5866

  direct lattice vectors                    reciprocal lattice vectors
     0.000000000  3.942796000  3.942796000    -0.126813561  0.126813561  0.126813561
     3.942796000  0.000000000  3.942796000     0.126813561 -0.126813561  0.126813561
     3.942796000  3.942796000  0.000000000     0.126813561  0.126813561 -0.126813561

  length of vectors
     5.575955577  5.575955577  5.575955577     0.219647530  0.219647530  0.219647530

  position of ions in fractional coordinates (direct lattice)
     0.000000000  0.000000000  0.000000000
     0.250000000  0.250000000  0.250000000
     0.625071000  0.625071000  0.124788000
     0.625071000  0.124788000  0.625071000
     0.124788000  0.625071000  0.625071000
     0.625071000  0.625071000  0.625071000

  ion indices of the primitive-cell ions
   primitive index   ion index
                 1           1
                 2           2
                 3           3
                 4           4
                 5           5
                 6           6

 KPOINTS: Kpoints from vasprun.xml

Automatic generation of k-mesh.
 Grid dimensions read from file:
 generate k-points for:    5    5    5

 Generating k-lattice:

  Cartesian coordinates                     Fractional coordinates (reciprocal lattice)
    -0.025362712  0.025362712  0.025362712     0.200000000  0.000000000  0.000000000
     0.025362712 -0.025362712  0.025362712     0.000000000  0.200000000 -0.000000000
     0.025362712  0.025362712 -0.025362712    -0.000000000 -0.000000000  0.200000000

  Length of vectors
     0.043929506  0.043929506  0.043929506

  Shift w.r.t. Gamma in fractional coordinates (k-lattice)
     0.000000000  0.000000000  0.000000000

 TETIRR: Found     24 inequivalent tetrahedra from      750

 Subroutine IBZKPT returns following result:

 Found     10 irreducible k-points:

 Following reciprocal coordinates:
            Coordinates               Weight
  0.000000  0.000000  0.000000      1.000000
  0.200000  0.000000  0.000000      8.000000
  0.400000  0.000000  0.000000      8.000000
  0.200000  0.200000  0.000000      6.000000
  0.400000  0.200000  0.000000     24.000000
 -0.400000  0.200000  0.000000     24.000000
 -0.200000  0.200000  0.000000     12.000000
  0.400000  0.400000  0.000000      6.000000
 -0.400000  0.400000  0.000000     12.000000
 -0.400000  0.400000  0.200000     24.000000

 Following cartesian coordinates:
            Coordinates               Weight
  0.000000  0.000000  0.000000      1.000000
 -0.025363  0.025363  0.025363      8.000000
 -0.050725  0.050725  0.050725      8.000000
  0.000000  0.000000  0.050725      6.000000
 -0.025363  0.025363  0.076088     24.000000
  0.076088 -0.076088 -0.025363     24.000000
  0.050725 -0.050725  0.000000     12.000000
  0.000000  0.000000  0.101451      6.000000
  0.101451 -0.101451  0.000000     12.000000
  0.126814 -0.076088 -0.025363     24.000000

 SYSTEM =  unknown system
 POSCAR =  Gd1 Dy1 Al4

 Startparameter for this run:
   NWRITE =      2    write-flag & timer
   PREC   = accura    normal or accurate (medium, high low for compatibility)
   ISTART =      0    job   : 0-new  1-cont  2-samecut
   ICHARG =      2    charge: 1-file 2-atom 10-const
   ISPIN  =      2    spin polarized calculation?
   LNONCOLLINEAR =      F non collinear calculations
   LSORBIT =      F    spin-orbit coupling
   INIWAV =      1    electr: 0-lowe 1-rand  2-diag
   LASPH  =      T    aspherical Exc in radial PAW
 Electronic Relaxation 1
   ENCUT  =  520.0 eV  38.22 Ry    6.18 a.u.  10.37 10.37 10.37*2*pi/ulx,y,z
   ENINI  =  520.0     initial cutoff
   ENAUG  =  537.2 eV  augmentation charge cutoff
   NELM   =   1000;   NELMIN=  2; NELMDL= -5     # of ELM steps
   EDIFF  = 0.1E-03   stopping-criterion for ELM
   LREAL  =      T    real-space projection
   NLSPLINE    = F    spline interpolate recip. space projectors
   LCOMPAT=      F    compatible to vasp.4.4
   GGA_COMPAT  = T    GGA compatible to vasp.4.4-vasp.4.6
   LMAXPAW     = -100 max onsite density
   LMAXMIX     =    2 max onsite mixed and CHGCAR
   VOSKOWN=      0    Vosko Wilk Nusair interpolation
   ROPT   =   -0.00025  -0.00025  -0.00025
 Ionic relaxation
   EDIFFG = 0.1E-02   stopping-criterion for IOM
   NSW    =      0    number of steps for IOM
   NBLOCK =      1;   KBLOCK =      1    inner block; outer block
   IBRION =     -1    ionic relax: 0-MD 1-quasi-New 2-CG
   NFREE  =      0    steps in history (QN), initial steepest desc. (CG)
   ISIF   =      3    stress and relaxation
   IWAVPR =     10    prediction:  0-non 1-charg 2-wave 3-comb
   ISYM   =      2    0-nonsym 1-usesym 2-fastsym
   LCORR  =      T    Harris-Foulkes like correction to forces

   POTIM  = 0.5000    time-step for ionic-motion
   TEIN   =    0.0    initial temperature
   TEBEG  =    0.0;   TEEND  =   0.0 temperature during run
   SMASS  =  -3.00    Nose mass-parameter (am)
   estimated Nose-frequenzy (Omega)   =  0.10E-29 period in steps = 0.13E+47 mass=  -0.711E-27a.u.
   SCALEE = 1.0000    scale energy and forces
[...]
  287          fft3d_mpi                             0.000436                          3   4
  288            fftbrc_mpi                            0.000342                        3   5
  289              fftbas_plan_mpi                       0.000341                      3   6
  290                map_forward                           0.000178                    4   7
  291                  map_gather                            0.000040                  2   8
  292                  m_alltoallv_z                         0.000024                  2   8
  293                  map_scatter                           0.000086                  2   8
  294                map_backward                          0.000079                    2   7
  295                  map_gather                            0.000019                  1   8
  296                  m_alltoallv_z                         0.000010                  1   8
  297                  map_scatter                           0.000035                  1   8
  298          m_sumb_d                              0.000010                          2   4
  299          pothar                                0.000074                          1   4
  300            m_sumb_d                              0.000007                        1   5
  301        brmix                                 0.002811                            1   3
  302          m_sumb_d                              0.000039                          6   4
  303          brpre                                 0.000018                          2   4
  304          setg0                                 0.000529                          1   4
  305          broyd                                 0.001621                          1   4
  306            m_sumb_d                              0.000242                       31   5
  307            brget                                 0.000361                      129   5
  308            brsav                                 0.000084                       29   5
  309        m_bcast_d                             0.000018                            2   3
  310      potlok                                0.020910                              2   2
  311        fft3d_mpi                             0.013952                           36   3
  312          fftbrc_mpi                            0.012041                         36   4
  313            fftbas_plan_mpi                       0.012026                       36   5
  314              map_forward                           0.003342                     40   6
  315                map_gather                            0.001146                   24   7
  316                m_alltoallv_z                         0.000993                   24   7
  317                map_scatter                           0.001025                   24   7
  318              map_backward                          0.002763                     32   6
  319                map_gather                            0.000931                   16   7
  320                m_alltoallv_z                         0.000795                   16   7
  321                map_scatter                           0.000852                   16   7
  322              dfftw_execute                         0.004385                     30   6
  323        m_sumb_d                              0.000024                            5   3
  324        pothar                                0.000787                            2   3
  325          m_sumb_d                              0.000021                          2   4
  326        m_bcast_d                             0.001232                            4   3
  327      potlok_metagga                        0.000000                              1   2
  328      set_dd_magatom                        0.000004                              1   2
  329      set_dd_paw                            1.145020                              1   2
  330        m_sumb_d                              0.940096                            7   3
  331      augmentation_charge                   0.077932                              1   2
  332        fft3d_mpi                             0.022793                            2   3
  333          fftbrc_mpi                            0.020550                          2   4
  334            fftbas_plan_mpi                       0.020550                        2   5
  335              dfftw_execute                         0.013938                      6   6
  336              map_backward                          0.006379                      4   6
  337                map_gather                            0.001647                    2   7
  338                m_alltoallv_z                         0.003236                    2   7
  339                map_scatter                           0.001488                    2   7
  340      densta                                0.076027                              1   2

 Flat profile

 m_sumb_d                               27.545388       29895
 init_acc                               12.130407           1
 total_time                              6.656387           1
 set_dd_paw                              5.526190          27
 eddav                                   3.875307          29
 lapack                                  3.795784        8992
 raccmu_                                 3.329769        8992
 acc_init_cublas                         3.289022           1
 setdij_                                 2.678250          53
 redis_pw                                1.640934       43478
 dfftw_execute                           1.496067        1020
 augmentation_charge                     1.409634          26
 phaser                                  1.115770         710
 acc_init_cusolver                       1.023211           1
 m_alltoall_d                            0.873144      112882
 m_alltoallv_z                           0.476023        1145
 redis_proj                              0.362214       54884
 eccp                                    0.361133        4060
 fft3d                                   0.352624       46788
 fftwav                                  0.309147       31342
 orth1                                   0.300900       26996
 rpromu_acc                              0.269197        7192
 acc_cufft_makeplan                      0.266154          19
 racc0mu_acc                             0.248978        8992
 soft_charge                             0.243450          25
 densta                                  0.241057          30
 w1_copy                                 0.227947       46338
 overl                                   0.220046       26852
 hamiltmu                                0.209561        8992
 fft3d_mpi                               0.204101       16487
 m_bcast_z                               0.192816        9552
 map_scatter                             0.184941        1145
 map_gather                              0.181492        1145
 m_bcast_d                               0.151615       18043
 setup_precond                           0.147241        4060
 set_charge                              0.139669          25
 overl_mu                                0.136306        8992
 rpro_isp                                0.131271         130
 ggemm                                   0.117708       11312
 newband                                 0.101890        9572
 rspher_all                              0.101307          14
 potlok                                  0.084617          27
 pw_charge                               0.073264        2690
 vhamil                                  0.070817       15446
 kinhamil                                0.070183       15446
 fftbas_plan_mpi                         0.068558        1041
 fftext_mpi                              0.065445       15446
 apply_precond                           0.063383       11386
 depsum                                  0.057990          25
 elmin                                   0.049878           1
 fftwav_mpi                              0.042906       31342
 proall                                  0.040487           1
 broyd                                   0.017943          25
 lincom                                  0.017455         600
 brmix                                   0.016231          25
 sphpro_fast                             0.014307           2
 setg0                                   0.013393          27
 force_and_stress                        0.008271           1
 w1_projall                              0.006484        6672
 choleski                                0.005878          20
 map_backward                            0.005283        1086
 map_forward                             0.005153         996
 orthch                                  0.005072           1
 inisym                                  0.004911           1
 brget                                   0.004633        1719
 strnlr                                  0.002711           1
 pothar                                  0.002610          28
 stufak                                  0.002153           1
 truncate_high_frequency_w1              0.001494       19506
 strelo                                  0.001285           1
 brsav                                   0.001192         429
 forhar                                  0.001082           2
 fornlr                                  0.000948           1
 strehar                                 0.000897           1
 fft_gq                                  0.000867          25
 fftbrc_mpi                              0.000642        1041
 forloc                                  0.000592           1
 brpre                                   0.000496          50
 fewald                                  0.000361           1
 strkin                                  0.000233           1
 chggra                                  0.000220           1
 set_dd_magatom                          0.000120          27
 brgrid                                  0.000116           1
 rsp                                     0.000107           1
 vectorpot                               0.000106          26
 fordep                                  0.000048           1
 posmap                                  0.000037           2
 crpa_reader                             0.000026           1
 rcp                                     0.000016           1
 acc_cufft_makeplans                     0.000012           3
 rotate_active_occupied_orbital          0.000001           1
 potlok_metagga                          0.000001          26
 redis_pw_over_bands                     0.000000           1
  summed up times     83.09496212005615

 Accumulative profile

 total_time                             83.094962           1
 elmin                                  53.834389           1
 set_dd_paw                             30.579136          27
 m_sumb_d                               27.545388       29895
 eddav                                  20.356313          29
 init_acc                               12.130407           1
 setdij_                                 4.270674          53
 hamiltmu                                4.247001        8992
 force_and_stress                        3.886102           1
 lapack                                  3.795784        8992
 raccmu_                                 3.715053        8992
 acc_init_cublas                         3.289022           1
 fft3d_mpi                               2.733758       16487
 set_charge                              2.629343          25
 fftbrc_mpi                              2.418158        1041
 fftbas_plan_mpi                         2.417516        1041
 redis_pw                                2.029647       43478
 augmentation_charge                     2.020390          26
 dfftw_execute                           1.496067        1020
 phaser                                  1.115770         710
 acc_init_cusolver                       1.023211           1
 newband                                 0.912234        9572
 m_alltoall_d                            0.873144      112882
 redis_proj                              0.846645       54884
 fftwav_mpi                              0.593178       31342
 fftwav                                  0.550272       31342
 map_forward                             0.540818         996
 fordep                                  0.481256           1
 m_alltoallv_z                           0.476023        1145
 soft_charge                             0.465497          25
 strnlr                                  0.412949           1
 potlok                                  0.376024          27
 eccp                                    0.361133        4060
 fft3d                                   0.352624       46788
 map_backward                            0.312073        1086
 orth1                                   0.300900       26996
 rpro_isp                                0.272618         130
 rpromu_acc                              0.269197        7192
 acc_cufft_makeplans                     0.266166           3
 acc_cufft_makeplan                      0.266154          19
 kinhamil                                0.251571       15446
 racc0mu_acc                             0.248978        8992
 densta                                  0.241057          30
 w1_copy                                 0.227947       46338
 overl                                   0.220046       26852
 m_bcast_z                               0.192816        9552
 w1_projall                              0.188623        6672
 orthch                                  0.185577           1
 map_scatter                             0.184941        1145
 map_gather                              0.181492        1145
 fftext_mpi                              0.181388       15446
 m_bcast_d                               0.151615       18043
 setup_precond                           0.147241        4060
 fornlr                                  0.138190           1
 overl_mu                                0.136306        8992
 ggemm                                   0.117708       11312
 rspher_all                              0.101307          14
 pw_charge                               0.073264        2690
 vhamil                                  0.070817       15446
 proall                                  0.066961           1
 apply_precond                           0.063383       11386
 depsum                                  0.060083          25
 brmix                                   0.058662          25
 fft_gq                                  0.030038          25
 broyd                                   0.027381          25
 lincom                                  0.017455         600
 sphpro_fast                             0.014849           2
 setg0                                   0.013393          27
 choleski                                0.005878          20
 inisym                                  0.004948           1
 brget                                   0.004633        1719
 pothar                                  0.002865          28
 stufak                                  0.002153           1
 truncate_high_frequency_w1              0.001494       19506
 strelo                                  0.001311           1
 brsav                                   0.001192         429
 forhar                                  0.001094           2
 strehar                                 0.000912           1
 chggra                                  0.000740           1
 forloc                                  0.000605           1
 fewald                                  0.000543           1
 brpre                                   0.000496          50
 strkin                                  0.000248           1
 set_dd_magatom                          0.000120          27
 brgrid                                  0.000116           1
 rsp                                     0.000107           1
 vectorpot                               0.000106          26
 posmap                                  0.000037           2
 crpa_reader                             0.000026           1
 rcp                                     0.000016           1
 rotate_active_occupied_orbital          0.000001           1
 potlok_metagga                          0.000001          26
 redis_pw_over_bands                     0.000000           1

Profiling took   0.103789  0.052265  0.003209  0.003138 seconds
Profiling took   0.061488 seconds