 vasp.6.3.2 27Jun22 (build Jul  3 2023 11:46:21) complex
 executed on    LinuxNV_CrayMPICH date 2024.04.22  03:28:53

 INCAR:
   ADDGRID = True
   ALGO = Normal
   EDIFF = 0.0032
   ENCUT = 520.0
   IBRION = -1
   ICHARG = 0
   ISIF = 3
   ISMEAR = -5
   ISPIN = 2
   ISYM = 0
   LAECHG = True
   LASPH = True
   LCHARG = True
   LORBIT = 11
   LREAL = Auto
   LVHAR = True
   LWAVE = False
   MAGMOM = 4*7.0 28*0.0 2*0.003 2*0.002 1*-0.005 2*0.002 1*-0.005 2*-0.002 2*-0.003 2*0.001 4*-0.003 2*0.001 2*-0.003 2*-0.002 1*-0.005 2*0.002 1*-0.005 2*0.002 2*0.003
   NELM = 1000
   NSW = 0
   PREC = Accurate
   SIGMA = 0.05

 POTCAR:    PAW_PBE Eu 23Dec2003
 POTCAR:    PAW_PBE H 15Jun2001
 POTCAR:    PAW_PBE S 06Sep2000
 POTCAR:    PAW_PBE N 08Apr2002
 POTCAR:    PAW_PBE O 08Apr2002
 POTCAR:    PAW_PBE Eu 23Dec2003
   VRHFIN =Eu : [core=Kr4d]

   TITEL  = PAW_PBE Eu 23Dec2003
   POMASS =  151.965; ZVAL   =   17.000    mass and valenz
   ENMAX  =  249.668; ENMIN  =  187.251 eV

   TITEL  = PAW_PBE H 15Jun2001
   POMASS =    1.000; ZVAL   =    1.000    mass and valenz
   ENMAX  =  250.000; ENMIN  =  200.000 eV

   TITEL  = PAW_PBE S 06Sep2000
   POMASS =   32.066; ZVAL   =    6.000    mass and valenz
   ENMAX  =  258.689; ENMIN  =  194.016 eV

   TITEL  = PAW_PBE N 08Apr2002
   POMASS =   14.001; ZVAL   =    5.000    mass and valenz
   ENMAX  =  400.000; ENMIN  =  300.000 eV

   TITEL  = PAW_PBE O 08Apr2002
   POMASS =   16.000; ZVAL   =    6.000    mass and valenz
   ENMAX  =  400.000; ENMIN  =  300.000 eV

 Optimization of the real space projectors (new method)

 maximal supplied QI-value         = 13.42
 optimisation between [QCUT,QGAM] = [ 11.67, 23.35] = [ 38.16,152.62] Ry
 Optimized for a Real-space Cutoff    1.63 Angstroem

   l    n(q)    QCUT    max X(q) W(low)/X(q) W(high)/X(q)  e(spline)
   0     11    11.673    10.400    0.14E-04    0.18E-05    0.24E-07
   0     11    11.673    10.768    0.21E-04    0.32E-05    0.49E-07
   1     11    11.673     4.094    0.40E-05    0.13E-04    0.93E-07
   1     11    11.673     4.009    0.11E-04    0.46E-04    0.33E-06
   2     10    11.673    29.030    0.79E-04    0.60E-04    0.70E-06
   2     10    11.673    19.941    0.80E-04    0.60E-04    0.71E-06
   3     10    11.673    88.889    0.23E-03    0.29E-03    0.30E-06
   3     10    11.673    76.102    0.23E-03    0.30E-03    0.30E-06
 Optimization of the real space projectors (new method)

[...]

   l    n(q)    QCUT    max X(q) W(low)/X(q) W(high)/X(q)  e(spline)
   0     10    11.561    79.467    0.46E-04    0.78E-04    0.61E-06
   0     10    11.561    66.151    0.45E-04    0.77E-04    0.61E-06
   1      9    11.561    18.886    0.22E-03    0.13E-03    0.12E-05
   1      9    11.561    13.488    0.23E-03    0.13E-03    0.12E-05
 Optimization of the real space projectors (new method)

 maximal supplied QI-value         = 24.76
 optimisation between [QCUT,QGAM] = [ 11.64, 23.27] = [ 37.91,151.63] Ry
 Optimized for a Real-space Cutoff    1.14 Angstroem

   l    n(q)    QCUT    max X(q) W(low)/X(q) W(high)/X(q)  e(spline)
   0      8    11.635    20.381    0.10E-03    0.33E-03    0.24E-06
   0      8    11.635    15.268    0.11E-03    0.35E-03    0.26E-06
   1      7    11.635     5.964    0.24E-03    0.31E-03    0.30E-06
   1      7    11.635     5.382    0.22E-03    0.25E-03    0.26E-06
  PAW_PBE Eu 23Dec2003                  :
  PAW_PBE H 15Jun2001                   :
  PAW_PBE S 06Sep2000                   :
  PAW_PBE N 08Apr2002                   :
  PAW_PBE O 08Apr2002                   :

 POSCAR: Eu4 H16 S8 N4 O32
  positions in direct lattice
 exchange correlation table for  LEXCH =        8
   RHO(1)=    0.500       N(1)  =     2000
   RHO(2)=  100.500       N(2)  =     4000

 VTST: version 4.2, (08/11/21)

 CHAIN: initializing optimizer

 OPT: Using VASP Dynamics algorithm
 CHAIN: Read ICHAIN             0

 POSCAR: Eu4 H16 S8 N4 O32
  positions in direct lattice

 ion  position               nearest neighbor table
   1  0.329  0.948  0.848-  59 2.44  41 2.47  57 2.50  63 2.51  40 2.52  43 2.52  33 2.52  36 2.55
                            58 2.64  24 3.16
   2  0.171  0.948  0.348-  62 2.44  42 2.47  60 2.50  64 2.51  37 2.52  44 2.52  34 2.52  39 2.55
                            61 2.64  23 3.16
   3  0.829  0.052  0.652-  35 2.44  55 2.47  37 2.50  33 2.51  60 2.52  53 2.52  63 2.52  58 2.55
                            36 2.64  26 3.16
   4  0.671  0.052  0.152-  38 2.44  56 2.47  40 2.50  34 2.51  57 2.52  54 2.52  64 2.52  61 2.55
                            39 2.64  25 3.16
   5  0.548  0.649  0.653-  29 1.03
   6  0.952  0.649  0.153-  30 1.03
   7  0.769  0.602  0.618-  29 1.03
   8  0.731  0.602  0.118-  30 1.03
   9  0.669  0.536  0.748-  29 1.03
  10  0.831  0.536  0.248-  30 1.03
  11  0.100  0.527  0.888-  31 1.03
  12  0.400  0.527  0.388-  32 1.03
  13  0.600  0.473  0.612-  29 1.03
  14  0.900  0.473  0.112-  30 1.03
  15  0.169  0.464  0.752-  31 1.03
  16  0.331  0.464  0.252-  32 1.03
  17  0.269  0.398  0.882-  31 1.03
  18  0.231  0.398  0.382-  32 1.03
  19  0.048  0.351  0.847-  31 1.03
  20  0.452  0.351  0.347-  32 1.03
  21  0.832  0.825  0.887-  45 1.46  38 1.48  33 1.51  36 1.51
  22  0.668  0.825  0.387-  46 1.46  35 1.48  34 1.51  39 1.51
  23  0.165  0.737  0.585-  47 1.46  41 1.49  44 1.49  37 1.51   2 3.16
  24  0.335  0.737  0.085-  48 1.46  42 1.49  43 1.49  40 1.51   1 3.16
  25  0.665  0.263  0.915-  49 1.46  55 1.49  54 1.49  57 1.51   4 3.16
  26  0.835  0.263  0.415-  50 1.46  56 1.49  53 1.49  60 1.51   3 3.16
  27  0.332  0.175  0.613-  51 1.46  62 1.48  63 1.51  58 1.51
  28  0.168  0.175  0.113-  52 1.46  59 1.48  64 1.51  61 1.51
  29  0.647  0.566  0.657-   7 1.03  13 1.03   9 1.03   5 1.03
  30  0.853  0.566  0.157-   8 1.03  14 1.03  10 1.03   6 1.03
  31  0.147  0.434  0.843-  17 1.03  11 1.03  15 1.03  19 1.03
  32  0.353  0.434  0.343-  18 1.03  12 1.03  16 1.03  20 1.03
  33  0.989  0.899  0.816-  21 1.51   3 2.51   1 2.52
  34  0.511  0.899  0.316-  22 1.51   4 2.51   2 2.52
  35  0.673  0.886  0.512-  22 1.48   3 2.44
  36  0.665  0.871  0.811-  21 1.51   1 2.55   3 2.64
  37  0.050  0.874  0.558-  23 1.51   3 2.50   2 2.52
  38  0.827  0.886  0.012-  21 1.48   4 2.44
  39  0.835  0.871  0.311-  22 1.51   2 2.55   4 2.64
  40  0.450  0.874  0.058-  24 1.51   4 2.50   1 2.52
  41  0.307  0.768  0.680-  23 1.49   1 2.47
  42  0.193  0.768  0.180-  24 1.49   2 2.47
  43  0.242  0.712  0.965-  24 1.49   1 2.52
  44  0.258  0.712  0.465-  23 1.49   2 2.52
  45  0.849  0.664  0.891-  21 1.46
  46  0.651  0.664  0.391-  22 1.46
  47  0.048  0.611  0.623-  23 1.46
  48  0.452  0.611  0.123-  24 1.46
  49  0.548  0.389  0.877-  25 1.46
  50  0.952  0.389  0.377-  26 1.46
  51  0.349  0.336  0.609-  27 1.46
  52  0.151  0.336  0.109-  28 1.46
  53  0.742  0.288  0.535-  26 1.49   3 2.52
  54  0.758  0.288  0.035-  25 1.49   4 2.52
  55  0.807  0.232  0.820-  25 1.49   3 2.47
  56  0.693  0.232  0.320-  26 1.49   4 2.47
  57  0.550  0.126  0.942-  25 1.51   1 2.50   4 2.52
  58  0.165  0.129  0.689-  27 1.51   3 2.55   1 2.64
  59  0.173  0.114  0.988-  28 1.48   1 2.44
  60  0.950  0.126  0.442-  26 1.51   2 2.50   3 2.52
  61  0.335  0.129  0.189-  28 1.51   4 2.55   2 2.64
  62  0.327  0.114  0.488-  27 1.48   2 2.44
  63  0.489  0.101  0.684-  27 1.51   1 2.51   3 2.52
  64  0.011  0.101  0.184-  28 1.51   2 2.51   4 2.52

IMPORTANT INFORMATION: All symmetrisations will be switched off!
NOSYMM: (Re-)initialisation of all symmetry stuff for point group C_1.

                                     Primitive cell

  volume of cell :     706.5430

  direct lattice vectors                    reciprocal lattice vectors
     7.220849000  0.000000000  0.000000000     0.138487870  0.000000000  0.000000000
     0.000000000  8.996478000  0.000000000     0.000000000  0.111154610 -0.002629200
     0.000000000  0.257261000 10.876215000     0.000000000  0.000000000  0.091943751

  length of vectors
     7.220849000  8.996478000 10.879257141     0.138487870  0.111185700  0.091943751

  position of ions in fractional coordinates (direct lattice)
     0.329119000  0.947667000  0.848088000
     0.170881000  0.947667000  0.348088000
     0.829119000  0.052333000  0.651912000
     0.670881000  0.052333000  0.151912000
     0.548208000  0.649090000  0.653095000
     0.951792000  0.649090000  0.153095000
     0.769264000  0.601593000  0.617967000
     0.730736000  0.601593000  0.117967000
     0.668679000  0.536270000  0.747995000
     0.831321000  0.536270000  0.247995000
     0.100408000  0.526515000  0.887824000
     0.399592000  0.526515000  0.387824000
     0.600408000  0.473485000  0.612176000
     0.899592000  0.473485000  0.112176000
     0.168679000  0.463730000  0.752005000
     0.331321000  0.463730000  0.252005000
     0.269264000  0.398407000  0.882033000
     0.230736000  0.398407000  0.382033000
     0.048208000  0.350910000  0.846905000
     0.451792000  0.350910000  0.346905000
     0.832238000  0.825139000  0.886807000
     0.667762000  0.825139000  0.386807000
     0.164615000  0.736600000  0.584829000
     0.335385000  0.736600000  0.084829000
     0.664615000  0.263400000  0.915171000
     0.835385000  0.263400000  0.415171000
     0.332238000  0.174861000  0.613193000
     0.167762000  0.174861000  0.113193000
     0.646618000  0.565977000  0.657107000
     0.853382000  0.565977000  0.157107000
     0.146618000  0.434023000  0.842893000
     0.353382000  0.434023000  0.342893000
     0.988604000  0.899444000  0.816491000
     0.511396000  0.899444000  0.316491000
     0.672883000  0.885762000  0.511559000
     0.664814000  0.871021000  0.811470000
     0.049783000  0.873555000  0.558071000
     0.827117000  0.885762000  0.011559000
     0.835186000  0.871021000  0.311470000
     0.450217000  0.873555000  0.058071000
     0.307084000  0.768481000  0.679828000
     0.192916000  0.768481000  0.179828000
     0.241899000  0.712322000  0.964524000
     0.258101000  0.712322000  0.464524000
     0.849023000  0.663664000  0.890862000
     0.650977000  0.663664000  0.390862000
     0.048373000  0.611339000  0.623456000
     0.451627000  0.611339000  0.123456000
     0.548373000  0.388661000  0.876544000
     0.951627000  0.388661000  0.376544000
     0.349023000  0.336336000  0.609138000
     0.150977000  0.336336000  0.109138000
     0.741899000  0.287678000  0.535476000
     0.758101000  0.287678000  0.035476000
     0.807084000  0.231519000  0.820172000
     0.692916000  0.231519000  0.320172000
     0.549783000  0.126445000  0.941929000
     0.164814000  0.128979000  0.688530000
     0.172883000  0.114238000  0.988441000
     0.950217000  0.126445000  0.441929000
     0.335186000  0.128979000  0.188530000
     0.327117000  0.114238000  0.488441000
     0.488604000  0.100556000  0.683509000
     0.011396000  0.100556000  0.183509000

  ion indices of the primitive-cell ions
   primitive index   ion index
                 1           1
                 2           2
                 3           3
                 4           4
                 5           5
                 6           6
                 7           7
                 8           8
[...]
  307        strehar                               0.003038                            1   3
  308          m_sumb_d                              0.000009                          1   4
  309        chggra                                0.001034                            1   3
  310          fft3d_mpi                             0.000643                          3   4
  311            fftbrc_mpi                            0.000514                        3   5
  312              fftbas_plan_mpi                       0.000512                      3   6
  313                map_forward                           0.000306                    4   7
  314                  map_gather                            0.000055                  2   8
  315                  m_alltoallv_z                         0.000027                  2   8
  316                  map_scatter                           0.000187                  2   8
  317                map_backward                          0.000122                    2   7
  318                  map_gather                            0.000029                  1   8
  319                  m_alltoallv_z                         0.000011                  1   8
  320                  map_scatter                           0.000058                  1   8
  321          m_sumb_d                              0.000007                          2   4
  322          pothar                                0.000093                          1   4
  323            m_sumb_d                              0.000012                        1   5
  324        brmix                                 0.021092                            1   3
  325          m_sumb_d                              0.000075                          6   4
  326          brpre                                 0.000058                          2   4
  327          setg0                                 0.002316                          1   4
  328          broyd                                 0.015802                          1   4
  329            brget                                 0.004185                      326   5
  330            brsav                                 0.001942                      163   5
  331            m_sumb_d                              0.000206                       47   5
  332        m_bcast_d                             0.000119                            2   3
  333      potlok                                0.082736                              2   2
  334        fft3d_mpi                             0.045880                           36   3
  335          fftbrc_mpi                            0.039491                         36   4
  336            fftbas_plan_mpi                       0.039473                       36   5
  337              map_forward                           0.011167                     40   6
  338                map_gather                            0.003000                   24   7
  339                m_alltoallv_z                         0.004875                   24   7
  340                map_scatter                           0.003052                   24   7
  341              map_backward                          0.009212                     32   6
  342                map_gather                            0.002649                   16   7
  343                m_alltoallv_z                         0.003559                   16   7
  344                map_scatter                           0.002728                   16   7
  345              dfftw_execute                         0.017168                     30   6
  346        m_sumb_d                              0.000030                            5   3
  347        pothar                                0.003407                            2   3
  348          m_sumb_d                              0.000330                          2   4
  349        m_bcast_d                             0.005283                            4   3
  350      potlok_metagga                        0.000000                              1   2
  351      set_dd_magatom                        0.000004                              1   2
  352      set_dd_paw                            4.201295                              1   2
  353        m_sumb_d                              0.050512                            7   3
  354      augmentation_charge                   0.245682                              1   2
  355        fft3d_mpi                             0.137112                            2   3
  356          fftbrc_mpi                            0.118393                          2   4
  357            fftbas_plan_mpi                       0.118390                        2   5
  358              dfftw_execute                         0.078170                      6   6
  359              map_backward                          0.039873                      4   6
  360                map_gather                            0.014839                    2   7
  361                m_alltoallv_z                         0.010894                    2   7
  362                map_scatter                           0.014129                    2   7
  363      densta                               14.533100                              1   2

 Flat profile

 set_dd_paw                            593.366368         143
 eddav                                 270.893454         145
 lapack                                244.104246      489463
 raccmu_                               220.077046      489463
 m_sumb_d                              122.026278     1484799
 redis_pw                              118.298050     2661876
 m_alltoall_d                           50.682872     6944000
 phaser                                 31.768140        4242
 densta                                 28.350035         146
 eccp                                   26.250915      223300
 orth1                                  26.172307     1468585
 dfftw_execute                          25.443875        3816
 fft3d                                  23.312811     2846564
 redis_proj                             22.531161     3397604
 total_time                             22.198890           1
 hamiltmu                               18.681732      489463
 fftwav                                 17.944603     1887564
 setdij_                                16.341503         169
 augmentation_charge                    14.916470         143
 racc0mu_acc                            14.278404      489463
 overl                                  14.097977     1694728
 w1_copy                                13.856248     2877000
 rpromu_acc                             12.254448      380879
 init_acc                               11.517355           1
 m_bcast_z                              11.462003      495623
 ggemm                                  10.270293      603143
 soft_charge                             8.891797         142
 setup_precond                           8.118773      223300
 m_bcast_d                               8.037746      979217
 overl_mu                                7.659924      489463
 pw_charge                               6.956944      172844
 fft3d_mpi                               6.672234      963989
 m_alltoallv_z                           5.380325        5559
 map_scatter                             4.619460        5559
 map_gather                              4.389200        5559
 vhamil                                  4.301614      959000
 kinhamil                                4.274056      959000
 fftext_mpi                              4.008960      959000
 apply_precond                           4.001441      735700
 newband                                 3.644908      493523
 depsum                                  3.563534         142
 fftwav_mpi                              2.503736     1887564
 acc_init_cublas                         2.439769           1
 broyd                                   1.127070         141
 rpro_isp                                1.097180         182
 potlok                                  1.053045         143
 acc_init_cusolver                       0.791834           1
 sphpro_fast                             0.669417           2
 brmix                                   0.539767         141
 elmin                                   0.423709           1
 rspher_all                              0.374239          14
 brget                                   0.371153       28703
 w1_projall                              0.345251      375783
 setg0                                   0.320590         143
 fftbas_plan_mpi                         0.289643        4989
 lincom                                  0.165601        4088
 acc_cufft_makeplan                      0.135945          19
 proall                                  0.130641           1
 brsav                                   0.099694        8093
 truncate_high_frequency_w1              0.093944     1182300
 set_charge                              0.088145         142
 orthch                                  0.079707           1
 stufak                                  0.062714           1
 force_and_stress                        0.046530           1
 map_backward                            0.042262        5270
 map_forward                             0.035104        4708
 fft_gq                                  0.026603         142
 pothar                                  0.016038         144
 choleski                                0.015667          28
 strnlr                                  0.009165           1
 brpre                                   0.008735         282
 forhar                                  0.005156           2
 rsp                                     0.003940           1
 strelo                                  0.003928           1
 strkin                                  0.003403           1
 fornlr                                  0.003170           1
 fftbrc_mpi                              0.003151        4989
 strehar                                 0.003029           1
 forloc                                  0.002857           1
 set_dd_magatom                          0.000652         143
 vectorpot                               0.000618         142
 brgrid                                  0.000395           1
 fewald                                  0.000348           1
 chggra                                  0.000291           1
 fordep                                  0.000161           1
 rcp                                     0.000100           1
 crpa_reader                             0.000028           1
 potlok_metagga                          0.000014         142
 acc_cufft_makeplans                     0.000009           3
 rotate_active_occupied_orbital          0.000001           1
 redis_pw_over_bands                     0.000000           1
  summed up times     2079.052548885345

 Accumulative profile

 total_time                           2079.052549           1
 elmin                                2000.505248           1
 eddav                                1294.172792         145
 set_dd_paw                            601.392537         143
 hamiltmu                              280.383896      489463
 lapack                                244.104246      489463
 raccmu_                               242.015374      489463
 redis_pw                              144.384115     2661876
 m_sumb_d                              122.026278     1484799
 set_charge                             63.876496         142
 newband                                55.928508      493523
 fft3d_mpi                              53.697618      963989
 m_alltoall_d                           50.682872     6944000
 redis_proj                             47.127969     3397604
 setdij_                                40.841331         169
 fftbrc_mpi                             40.203020        4989
 fftbas_plan_mpi                        40.199870        4989
 fftwav_mpi                             36.938786     1887564
 augmentation_charge                    35.022915         143
 fftwav                                 34.435050     1887564
 phaser                                 31.768140        4242
 densta                                 28.350035         146
 eccp                                   26.250915      223300
 orth1                                  26.172307     1468585
 dfftw_execute                          25.443875        3816
 soft_charge                            25.346675         142
 fft3d                                  23.312811     2846564
 force_and_stress                       15.601359           1
 kinhamil                               15.385176      959000
 racc0mu_acc                            14.278404      489463
 overl                                  14.097977     1694728
 w1_copy                                13.856248     2877000
 rpromu_acc                             12.254448      380879
 init_acc                               11.517355           1
 m_bcast_z                              11.462003      495623
 w1_projall                             11.193406      375783
 fftext_mpi                             11.111120      959000
 ggemm                                  10.270293      603143
 setup_precond                           8.118773      223300
 m_bcast_d                               8.037746      979217
 map_backward                            7.798686        5270
 overl_mu                                7.659924      489463
 pw_charge                               6.956944      172844
 map_forward                             6.667665        4708
 m_alltoallv_z                           5.380325        5559
 map_scatter                             4.619460        5559
 map_gather                              4.389200        5559
 vhamil                                  4.301614      959000
 apply_precond                           4.001441      735700
 depsum                                  3.664443         142
 strnlr                                  3.514649           1
 rpro_isp                                3.142044         182
 brmix                                   2.509526         141
 acc_init_cublas                         2.439769           1
 potlok                                  2.092197         143
 broyd                                   1.625934         141
 fordep                                  1.435758           1
 fornlr                                  1.175828           1
 acc_init_cusolver                       0.791834           1
 sphpro_fast                             0.702671           2
 fft_gq                                  0.637286         142
 orthch                                  0.431161           1
 rspher_all                              0.374239          14
 brget                                   0.371153       28703
 proall                                  0.328423           1
 setg0                                   0.320590         143
 lincom                                  0.165601        4088
 acc_cufft_makeplans                     0.135954           3
 acc_cufft_makeplan                      0.135945          19
 brsav                                   0.099694        8093
 truncate_high_frequency_w1              0.093944     1182300
 stufak                                  0.062714           1
 pothar                                  0.017883         144
 choleski                                0.015667          28
 brpre                                   0.008735         282
 fewald                                  0.005220           1
 forhar                                  0.005210           2
 strelo                                  0.004017           1
 rsp                                     0.003940           1
 strkin                                  0.003426           1
 strehar                                 0.003038           1
 forloc                                  0.002895           1
 chggra                                  0.001034           1
 set_dd_magatom                          0.000652         143
 vectorpot                               0.000618         142
 brgrid                                  0.000395           1
 rcp                                     0.000100           1
 crpa_reader                             0.000028           1
 potlok_metagga                          0.000014         142
 rotate_active_occupied_orbital          0.000001           1
 redis_pw_over_bands                     0.000000           1

Profiling took   5.945495  2.938746  0.003240  0.003126 seconds
Profiling took   3.720421 seconds