 vasp.6.3.2 27Jun22 (build Jul  3 2023 11:46:21) complex
 executed on    LinuxNV_CrayMPICH date 2024.04.21  02:30:18

 INCAR:
   ADDGRID = True
   ALGO = Normal
   EDIFF = 0.0022
   ENCUT = 520.0
   IBRION = -1
   ICHARG = 0
   ISIF = 3
   ISMEAR = -5
   ISPIN = 2
   KPOINT_BSE = -1 0 0 0
   LAECHG = True
   LASPH = True
   LCHARG = True
   LELF = True
   LORBIT = 11
   LREAL = Auto
   LVHAR = True
   LWAVE = False
   MAGMOM = 8*7.0 36*0.6
   NELM = 1000
   NSW = 0
   PREC = accurate
   SIGMA = 0.05

 POTCAR:    PAW_PBE Eu 23Dec2003
 POTCAR:    PAW_PBE Ge_d 03Jul2007
 POTCAR:    PAW_PBE O 08Apr2002
 POTCAR:    PAW_PBE Eu 23Dec2003
   VRHFIN =Eu : [core=Kr4d]

   TITEL  = PAW_PBE Eu 23Dec2003
   POMASS =  151.965; ZVAL   =   17.000    mass and valenz
   ENMAX  =  249.668; ENMIN  =  187.251 eV

   TITEL  = PAW_PBE Ge_d 03Jul2007
   POMASS =   72.610; ZVAL   =   14.000    mass and valenz
   ENMAX  =  310.294; ENMIN  =  232.720 eV

   TITEL  = PAW_PBE O 08Apr2002
   POMASS =   16.000; ZVAL   =    6.000    mass and valenz
   ENMAX  =  400.000; ENMIN  =  300.000 eV

 Optimization of the real space projectors (new method)

 maximal supplied QI-value         = 13.42
 optimisation between [QCUT,QGAM] = [ 11.67, 23.35] = [ 38.16,152.62] Ry
 Optimized for a Real-space Cutoff    1.63 Angstroem

   l    n(q)    QCUT    max X(q) W(low)/X(q) W(high)/X(q)  e(spline)
   0     11    11.673    10.400    0.14E-04    0.18E-05    0.24E-07
   0     11    11.673    10.768    0.21E-04    0.32E-05    0.49E-07
   1     11    11.673     4.094    0.40E-05    0.13E-04    0.93E-07
   1     11    11.673     4.009    0.11E-04    0.46E-04    0.33E-06
   2     10    11.673    29.030    0.79E-04    0.60E-04    0.70E-06
   2     10    11.673    19.941    0.80E-04    0.60E-04    0.71E-06
   3     10    11.673    88.889    0.23E-03    0.29E-03    0.30E-06
   3     10    11.673    76.102    0.23E-03    0.30E-03    0.30E-06
 Optimization of the real space projectors (new method)

[...]

   l    n(q)    QCUT    max X(q) W(low)/X(q) W(high)/X(q)  e(spline)
   2     10    11.539     8.936    0.13E-03    0.18E-03    0.23E-06
   2     10    11.539     8.183    0.16E-03    0.22E-03    0.28E-06
   0     11    11.539    62.777    0.61E-04    0.20E-04    0.15E-06
   0     11    11.539    50.556    0.58E-04    0.19E-04    0.14E-06
   1     10    11.539    38.422    0.20E-04    0.75E-05    0.16E-06
   1     10    11.539    22.623    0.19E-04    0.69E-05    0.15E-06
 Optimization of the real space projectors (new method)

 maximal supplied QI-value         = 24.76
 optimisation between [QCUT,QGAM] = [ 11.64, 23.27] = [ 37.91,151.63] Ry
 Optimized for a Real-space Cutoff    1.14 Angstroem

   l    n(q)    QCUT    max X(q) W(low)/X(q) W(high)/X(q)  e(spline)
   0      8    11.635    20.381    0.10E-03    0.33E-03    0.24E-06
   0      8    11.635    15.268    0.11E-03    0.35E-03    0.26E-06
   1      7    11.635     5.964    0.24E-03    0.31E-03    0.30E-06
   1      7    11.635     5.382    0.22E-03    0.25E-03    0.26E-06
  PAW_PBE Eu 23Dec2003                  :
  PAW_PBE Ge_d 03Jul2007                :
  PAW_PBE O 08Apr2002                   :

 POSCAR: Eu8 Ge8 O28
  positions in direct lattice
 exchange correlation table for  LEXCH =        8
   RHO(1)=    0.500       N(1)  =     2000
   RHO(2)=  100.500       N(2)  =     4000

 VTST: version 4.2, (08/11/21)

 CHAIN: initializing optimizer

 OPT: Using VASP Dynamics algorithm
 CHAIN: Read ICHAIN             0

 POSCAR: Eu8 Ge8 O28
  positions in direct lattice

 ion  position               nearest neighbor table
   1  0.650  0.118  0.365-  43 2.31  24 2.34  26 2.36  22 2.37  39 2.48  29 2.50  30 2.68
   2  0.350  0.882  0.865-  44 2.31  19 2.34  25 2.36  23 2.37  38 2.48  28 2.50  31 2.68
   3  0.118  0.650  0.635-  37 2.31  18 2.34  32 2.36  20 2.37  41 2.48  31 2.50  28 2.68
   4  0.618  0.850  0.115-  40 2.31  22 2.34  29 2.36  19 2.37  42 2.48  25 2.50  27 2.68
   5  0.382  0.150  0.615-  41 2.31  23 2.34  28 2.36  24 2.37  37 2.48  26 2.50  32 2.68
   6  0.850  0.618  0.885-  38 2.31  20 2.34  31 2.36  17 2.37  44 2.48  27 2.50  25 2.68
   7  0.150  0.382  0.385-  39 2.31  21 2.34  30 2.36  18 2.37  43 2.48  32 2.50  26 2.68
   8  0.882  0.350  0.135-  42 2.31  17 2.34  27 2.36  21 2.37  40 2.48  30 2.50  29 2.68
   9  0.844  0.095  0.878-  44 1.76  17 1.76  25 1.80  35 1.80
  10  0.156  0.905  0.378-  43 1.76  18 1.76  26 1.80  34 1.80
  11  0.095  0.844  0.122-  42 1.76  19 1.76  27 1.80  34 1.80
  12  0.595  0.656  0.628-  41 1.76  20 1.76  28 1.80  36 1.80
  13  0.405  0.344  0.128-  40 1.76  21 1.76  29 1.80  33 1.80
  14  0.656  0.595  0.372-  39 1.76  22 1.76  30 1.80  36 1.80
  15  0.344  0.405  0.872-  38 1.76  23 1.76  31 1.80  33 1.80
  16  0.905  0.156  0.622-  37 1.76  24 1.76  32 1.80  35 1.80
  17  0.857  0.305  0.954-   9 1.76   8 2.34   6 2.37
  18  0.143  0.695  0.454-  10 1.76   3 2.34   7 2.37
  19  0.305  0.857  0.046-  11 1.76   2 2.34   4 2.37
  20  0.805  0.643  0.704-  12 1.76   6 2.34   3 2.37
  21  0.195  0.357  0.204-  13 1.76   7 2.34   8 2.37
  22  0.643  0.805  0.296-  14 1.76   4 2.34   1 2.37
  23  0.357  0.195  0.796-  15 1.76   5 2.34   2 2.37
  24  0.695  0.143  0.546-  16 1.76   1 2.34   5 2.37
  25  0.661  0.940  0.927-   9 1.80   2 2.36   4 2.50   6 2.68
  26  0.339  0.060  0.427-  10 1.80   1 2.36   5 2.50   7 2.68
  27  0.940  0.661  0.073-  11 1.80   8 2.36   6 2.50   4 2.68
  28  0.440  0.839  0.677-  12 1.80   5 2.36   2 2.50   3 2.68
  29  0.560  0.161  0.177-  13 1.80   4 2.36   1 2.50   8 2.68
  30  0.839  0.440  0.323-  14 1.80   7 2.36   8 2.50   1 2.68
  31  0.161  0.560  0.823-  15 1.80   6 2.36   3 2.50   2 2.68
  32  0.060  0.339  0.573-  16 1.80   3 2.36   7 2.50   5 2.68
  33  0.303  0.303  0.000-  13 1.80  15 1.80
  34  0.197  0.803  0.250-  10 1.80  11 1.80
  35  0.803  0.197  0.750-   9 1.80  16 1.80
  36  0.697  0.697  0.500-  12 1.80  14 1.80
  37  0.077  0.976  0.627-  16 1.76   3 2.31   5 2.48
  38  0.524  0.577  0.877-  15 1.76   6 2.31   2 2.48
  39  0.476  0.423  0.377-  14 1.76   7 2.31   1 2.48
  40  0.577  0.524  0.123-  13 1.76   4 2.31   8 2.48
  41  0.423  0.476  0.623-  12 1.76   5 2.31   3 2.48
  42  0.923  0.024  0.127-  11 1.76   8 2.31   4 2.48
  43  0.976  0.077  0.373-  10 1.76   1 2.31   7 2.48
  44  0.024  0.923  0.873-   9 1.76   2 2.31   6 2.48

  LATTYP: Found a simple tetragonal cell.
 ALAT       =     7.0379580000
 C/A-ratio  =     1.8082317343

  Lattice vectors:

 A1 = (   7.0379580000,   0.0000000000,   0.0000000000)
 A2 = (   0.0000000000,   7.0379580000,   0.0000000000)
 A3 = (   0.0000000000,   0.0000000000,  12.7262590000)

Analysis of symmetry for initial positions (statically):
 Subroutine PRICEL returns:
 Original cell was already a primitive cell.

 Routine SETGRP: Setting up the symmetry group for a
 simple tetragonal supercell.

 Subroutine GETGRP returns: Found  8 space group operations
 (whereof  2 operations were pure point group operations)
 out of a pool of 16 trial point group operations.

The static configuration has the point symmetry C_2 .
 The point group associated with its full space group is D_4 .

Analysis of symmetry for dynamics (positions and initial velocities):
 Subroutine PRICEL returns:
 Original cell was already a primitive cell.

[...]

The dynamic configuration has the point symmetry C_2 .
 The point group associated with its full space group is D_4 .

Analysis of structural, dynamic, and magnetic symmetry:
 Subroutine PRICEL returns:
 Original cell was already a primitive cell.

 Routine SETGRP: Setting up the symmetry group for a
 simple tetragonal supercell.

 Subroutine GETGRP returns: Found  8 space group operations
 (whereof  2 operations were pure point group operations)
 out of a pool of 16 trial point group operations.

The overall configuration has the point symmetry C_2 .
 The point group associated with its full space group is D_4 .

 Subroutine INISYM returns: Found  8 space group operations
 (whereof  2 operations are pure point group operations),
 and found     1 'primitive' translations

                                     Primitive cell

  volume of cell :     630.3679

  direct lattice vectors                    reciprocal lattice vectors
     7.037958000  0.000000000  0.000000000     0.142086668  0.000000000  0.000000000
     0.000000000  7.037958000  0.000000000     0.000000000  0.142086668  0.000000000
     0.000000000  0.000000000 12.726259000     0.000000000  0.000000000  0.078577687

  length of vectors
     7.037958000  7.037958000 12.726259000     0.142086668  0.142086668  0.078577687

  position of ions in fractional coordinates (direct lattice)
     0.649905000  0.117541000  0.364827000
     0.350095000  0.882459000  0.864827000
     0.117541000  0.649905000  0.635173000
     0.617541000  0.850095000  0.114827000
     0.382459000  0.149905000  0.614827000
     0.850095000  0.617541000  0.885173000
     0.149905000  0.382459000  0.385173000
     0.882459000  0.350095000  0.135173000
     0.843522000  0.095467000  0.877936000
     0.156478000  0.904533000  0.377936000
     0.095467000  0.843522000  0.122064000
     0.595467000  0.656478000  0.627936000
     0.404533000  0.343522000  0.127936000
     0.656478000  0.595467000  0.372064000
     0.343522000  0.404533000  0.872064000
     0.904533000  0.156478000  0.622064000
     0.856667000  0.304624000  0.953631000
     0.143333000  0.695376000  0.453631000
     0.304624000  0.856667000  0.046369000
     0.804624000  0.643333000  0.703631000
     0.195376000  0.356667000  0.203631000
     0.643333000  0.804624000  0.296369000
     0.356667000  0.195376000  0.796369000
     0.695376000  0.143333000  0.546369000
     0.660687000  0.939928000  0.926558000
     0.339313000  0.060072000  0.426558000
     0.939928000  0.660687000  0.073442000
     0.439928000  0.839313000  0.676558000
     0.560072000  0.160687000  0.176558000
     0.839313000  0.439928000  0.323442000
     0.160687000  0.560072000  0.823442000
     0.060072000  0.339313000  0.573442000
     0.303073000  0.303073000  0.000000000
     0.196927000  0.803073000  0.250000000
     0.803073000  0.196927000  0.750000000
     0.696927000  0.696927000  0.500000000
     0.077406000  0.975896000  0.626601000
     0.524104000  0.577406000  0.876601000
     0.475896000  0.422594000  0.376601000
     0.577406000  0.524104000  0.123399000
     0.422594000  0.475896000  0.623399000
     0.922594000  0.024104000  0.126601000
     0.975896000  0.077406000  0.373399000
     0.024104000  0.922594000  0.873399000

  ion indices of the primitive-cell ions
   primitive index   ion index
                 1           1
                 2           2
                 3           3
                 4           4
                 5           5
                 6           6
                 7           7
                 8           8
                 9           9
                10          10
                11          11
                12          12
                13          13
                14          14
                15          15
                16          16
                17          17
                18          18
[...]
  318                map_forward                           0.000278                    4   7
  319                  map_gather                            0.000052                  2   8
  320                  m_alltoallv_z                         0.000026                  2   8
  321                  map_scatter                           0.000163                  2   8
  322                map_backward                          0.000150                    2   7
  323                  map_gather                            0.000028                  1   8
  324                  m_alltoallv_z                         0.000011                  1   8
  325                  map_scatter                           0.000093                  1   8
  326          m_sumb_d                              0.000011                          2   4
  327          pothar                                0.000095                          1   4
  328            m_sumb_d                              0.000014                        1   5
  329        brmix                                 0.016068                            1   3
  330          m_sumb_d                              0.000091                          6   4
  331          brpre                                 0.000054                          2   4
  332          setg0                                 0.001931                          1   4
  333          broyd                                 0.011585                          1   4
  334            m_sumb_d                              0.000389                       48   5
  335            brget                                 0.002482                      214   5
  336            brsav                                 0.000563                       46   5
  337        m_bcast_d                             0.000107                            2   3
  338      potlok                                0.064055                              2   2
  339        fft3d_mpi                             0.040412                           36   3
  340          fftbrc_mpi                            0.034452                         36   4
  341            fftbas_plan_mpi                       0.034433                       36   5
  342              map_forward                           0.009874                     40   6
  343                map_gather                            0.002871                   24   7
  344                m_alltoallv_z                         0.004101                   24   7
  345                map_scatter                           0.002669                   24   7
  346              map_backward                          0.008179                     32   6
  347                map_gather                            0.002459                   16   7
  348                m_alltoallv_z                         0.003122                   16   7
  349                map_scatter                           0.002377                   16   7
  350              dfftw_execute                         0.014586                     30   6
  351        m_sumb_d                              0.000025                            5   3
  352        pothar                                0.002746                            2   3
  353          m_sumb_d                              0.000251                          2   4
  354        m_bcast_d                             0.004690                            4   3
  355      potlok_metagga                        0.000000                              1   2
  356      set_dd_magatom                        0.000004                              1   2
  357      set_dd_paw                            4.566292                              1   2
  358        m_sumb_d                              0.026989                            7   3
  359      augmentation_charge                   0.252775                              1   2
  360        fft3d_mpi                             0.112109                            2   3
  361          fftbrc_mpi                            0.096724                          2   4
  362            fftbas_plan_mpi                       0.096721                        2   5
  363              dfftw_execute                         0.059895                      6   6
  364              map_backward                          0.036521                      4   6
  365                map_gather                            0.012977                    2   7
  366                m_alltoallv_z                         0.011083                    2   7
  367                map_scatter                           0.012446                    2   7
  368      fftwav_mpi                            9.230297                           5184   2
  369        fftwav                                9.223645                         5184   3
  370          fft3d                                 8.463608                       5184   4
  371      densta                                9.448416                              1   2

 Flat profile

 set_dd_paw                            199.869586          44
 eddav                                  72.953341          46
 raccmu_                                62.739063      136906
 lapack                                 61.883462      136906
 redis_pw                               33.825811      744204
 m_sumb_d                               31.123879      416915
 total_time                             23.302787           1
 fft3d                                  16.575066      823500
 m_alltoall_d                           14.386882     2004812
 densta                                 12.668061          47
 init_acc                               11.438829           1
 setdij_                                 9.207069          70
 eccp                                    9.064395       79488
 phaser                                  8.233217        1260
 dfftw_execute                           8.022811        1500
 orth1                                   7.269793      410934
 fftwav                                  6.363999      549688
 augmentation_charge                     6.191896          44
 redis_proj                              6.093482      938552
 hamiltmu                                5.073404      136906
 rpromu_acc                              4.459965      102778
 racc0mu_acc                             3.990209      136906
 w1_copy                                 3.976039      821436
 m_bcast_z                               3.941620      143818
 overl                                   3.851140      468160
 setup_precond                           2.882419       79488
 soft_charge                             2.879682          43
 ggemm                                   2.867391      176650
 acc_init_cublas                         2.417021           1
 m_bcast_d                               2.276564      273905
 overl_mu                                2.127641      136906
 fft3d_mpi                               2.108877      275455
 pw_charge                               2.100253       53904
 m_alltoallv_z                           1.874656        1837
 map_gather                              1.458506        1837
 map_scatter                             1.440058        1837
 vhamil                                  1.261012      273812
 depsum                                  1.222898          43
 kinhamil                                1.222874      273812
 rpro_isp                                1.179396         156
 newband                                 1.165250      138010
 fftext_mpi                              1.140898      273812
 apply_precond                           1.049397      194324
 set_charge                              0.813199          43
 acc_init_cusolver                       0.788433           1
 fftwav_mpi                              0.711148      549688
 sphpro_fast                             0.578945           2
 rspher_all                              0.434308          14
 potlok                                  0.309767          44
 elmin                                   0.188214           1
 brmix                                   0.137293          42
 proall                                  0.131056           1
 broyd                                   0.130855          42
 acc_cufft_makeplan                      0.116074          19
 fftbas_plan_mpi                         0.113390        1643
 w1_projall                              0.094934       97162
 setg0                                   0.084024          44
 orthch                                  0.079360           1
 brget                                   0.054100        4677
 lincom                                  0.048913        1128
 force_and_stress                        0.046340           1
 stufak                                  0.037917           1
 truncate_high_frequency_w1              0.027154      353300
 choleski                                0.017201          24
 brsav                                   0.012499        1079
 map_forward                             0.010817        1568
 map_backward                            0.010625        1718
 strnlr                                  0.008579           1
 fft_gq                                  0.007574          43
 pothar                                  0.006384          45
 inisym                                  0.006017           1
 strkin                                  0.003630           1
 strelo                                  0.003543           1
 fornlr                                  0.003515           1
 forhar                                  0.003125           2
 strehar                                 0.002676           1
 brpre                                   0.002407          84
 rsp                                     0.001966           1
 forloc                                  0.001568           1
 fftbrc_mpi                              0.001075        1643
 brgrid                                  0.000352           1
 fewald                                  0.000344           1
 chggra                                  0.000281           1
 vectorpot                               0.000203          43
 set_dd_magatom                          0.000197          44
 fordep                                  0.000178           1
 posmap                                  0.000083           2
 rcp                                     0.000066           1
 crpa_reader                             0.000029           1
 acc_cufft_makeplans                     0.000009           3
 potlok_metagga                          0.000004          43
 rotate_active_occupied_orbital          0.000000           1
 redis_pw_over_bands                     0.000000           1
  summed up times     664.2109658718109

 Accumulative profile

 total_time                            664.210966           1
 elmin                                 579.323130           1
 eddav                                 353.398370          46
 set_dd_paw                            200.326450          44
 hamiltmu                               79.602345      136906
 raccmu_                                68.856913      136906
 lapack                                 61.883462      136906
 redis_pw                               41.227701      744204
 m_sumb_d                               31.123879      416915
 set_charge                             22.533673          43
 fftwav_mpi                             21.683441      549688
 fftwav                                 20.972293      549688
 newband                                19.412881      138010
 setdij_                                18.107084          70
 fft3d_mpi                              17.007586      275455
 force_and_stress                       16.626529           1
 fft3d                                  16.575066      823500
 m_alltoall_d                           14.386882     2004812
 redis_proj                             13.078473      938552
 fftbrc_mpi                             12.931937        1643
 fftbas_plan_mpi                        12.930862        1643
 densta                                 12.668061          47
 init_acc                               11.438829           1
 augmentation_charge                    11.240158          44
 soft_charge                             9.351546          43
 eccp                                    9.064395       79488
 phaser                                  8.233217        1260
 dfftw_execute                           8.022811        1500
 orth1                                   7.269793      410934
 rpromu_acc                              4.459965      102778
 kinhamil                                4.411016      273812
 racc0mu_acc                             3.990209      136906
 w1_copy                                 3.976039      821436
 m_bcast_z                               3.941620      143818
 overl                                   3.851140      468160
 strnlr                                  3.591618           1
 rpro_isp                                3.556949         156
 fftext_mpi                              3.188143      273812
 w1_projall                              2.905132       97162
 setup_precond                           2.882419       79488
 ggemm                                   2.867391      176650
 map_forward                             2.512307        1568
 acc_init_cublas                         2.417021           1
 map_backward                            2.282354        1718
 m_bcast_d                               2.276564      273905
 overl_mu                                2.127641      136906
 pw_charge                               2.100253       53904
 m_alltoallv_z                           1.874656        1837
 fordep                                  1.546050           1
 map_gather                              1.458506        1837
 map_scatter                             1.440058        1837
 vhamil                                  1.261012      273812
 depsum                                  1.244159          43
 fornlr                                  1.201657           1
 apply_precond                           1.049397      194324
 acc_init_cusolver                       0.788433           1
 potlok                                  0.764413          44
 sphpro_fast                             0.604601           2
 orthch                                  0.505527           1
 brmix                                   0.435697          42
 rspher_all                              0.434308          14
 proall                                  0.349907           1
 broyd                                   0.205095          42
 fft_gq                                  0.193716          43
 acc_cufft_makeplans                     0.116083           3
 acc_cufft_makeplan                      0.116074          19
 setg0                                   0.084024          44
 brget                                   0.054100        4677
 lincom                                  0.048913        1128
 stufak                                  0.037917           1
 truncate_high_frequency_w1              0.027154      353300
 choleski                                0.017201          24
 brsav                                   0.012499        1079
 pothar                                  0.007051          45
 inisym                                  0.006100           1
 strkin                                  0.003645           1
 strelo                                  0.003572           1
 fewald                                  0.003534           1
 forhar                                  0.003162           2
 forloc                                  0.003064           1
 strehar                                 0.002704           1
 brpre                                   0.002407          84
 rsp                                     0.001966           1
 chggra                                  0.001021           1
 brgrid                                  0.000352           1
 vectorpot                               0.000203          43
 set_dd_magatom                          0.000197          44
 posmap                                  0.000083           2
 rcp                                     0.000066           1
 crpa_reader                             0.000029           1
 potlok_metagga                          0.000004          43
 rotate_active_occupied_orbital          0.000000           1
 redis_pw_over_bands                     0.000000           1

Profiling took   1.650478  0.825294  0.003328  0.003228 seconds
Profiling took   1.039124 seconds