 vasp.6.3.2 27Jun22 (build Jul  3 2023 11:46:21) complex
 executed on    LinuxNV_CrayMPICH date 2024.04.19  12:19:35

 INCAR:
   ADDGRID = True
   ALGO = Normal
   EDIFF = 0.0002
   ENCUT = 520.0
   IBRION = -1
   ICHARG = 0
   ISIF = 3
   ISMEAR = -5
   ISPIN = 2
   KPOINT_BSE = -1 0 0 0
   LAECHG = True
   LASPH = True
   LCHARG = True
   LELF = True
   LORBIT = 11
   LREAL = Auto
   LVHAR = True
   LWAVE = False
   MAGMOM = 1*0.6 1*7.0 2*0.6
   NELM = 1000
   NSW = 0
   PREC = accurate
   SIGMA = 0.05

 POTCAR:    PAW_PBE Yb_2 06Sep2000
 POTCAR:    PAW_PBE Gd 23Dec2003
 POTCAR:    PAW_PBE Ag 02Apr2005
 POTCAR:    PAW_PBE Yb_2 06Sep2000
   VRHFIN =Yb : [core=Xe4]

   TITEL  = PAW_PBE Yb_2 06Sep2000
   POMASS =  173.040; ZVAL   =    8.000    mass and valenz
   ENMAX  =  112.578; ENMIN  =   84.433 eV

   TITEL  = PAW_PBE Gd 23Dec2003
   POMASS =  157.250; ZVAL   =   18.000    mass and valenz
   ENMAX  =  256.472; ENMIN  =  192.354 eV

   TITEL  = PAW_PBE Ag 02Apr2005
   POMASS =  107.868; ZVAL   =   11.000    mass and valenz
   ENMAX  =  249.844; ENMIN  =  187.383 eV

 Optimization of the real space projectors (new method)

 maximal supplied QI-value         = 12.09
 optimisation between [QCUT,QGAM] = [ 11.61, 23.34] = [ 37.75,152.57] Ry
 Optimized for a Real-space Cutoff    1.89 Angstroem

   l    n(q)    QCUT    max X(q) W(low)/X(q) W(high)/X(q)  e(spline)
   0     13    11.610    37.655    0.45E-04    0.19E-04    0.34E-06
   0     13    11.610    17.791    0.29E-04    0.15E-04    0.27E-06
   1     13    11.610    36.143    0.15E-04    0.51E-06    0.99E-06
   1     13    11.610    36.445    0.16E-04    0.54E-06    0.10E-05
   2     12    11.610    14.662    0.21E-03    0.42E-03    0.57E-05
   2     12    11.610    15.811    0.17E-03    0.35E-03    0.47E-05
 Optimization of the real space projectors (new method)

[...]

   l    n(q)    QCUT    max X(q) W(low)/X(q) W(high)/X(q)  e(spline)
   0     11    11.673    10.501    0.14E-04    0.17E-05    0.21E-07
   0     11    11.673     9.148    0.21E-04    0.32E-05    0.45E-07
   1     11    11.673     4.035    0.33E-05    0.11E-04    0.84E-07
   1     11    11.673     4.388    0.11E-04    0.47E-04    0.34E-06
   2     10    11.673    20.656    0.12E-04    0.28E-04    0.54E-06
   2     10    11.673    12.651    0.11E-04    0.26E-04    0.51E-06
   3     10    11.673    61.921    0.19E-03    0.22E-03    0.23E-06
   3     10    11.673    48.328    0.20E-03    0.23E-03    0.23E-06
 Optimization of the real space projectors (new method)

 maximal supplied QI-value         = 15.12
 optimisation between [QCUT,QGAM] = [ 11.64, 23.28] = [ 37.95,151.78] Ry
 Optimized for a Real-space Cutoff    1.45 Angstroem

   l    n(q)    QCUT    max X(q) W(low)/X(q) W(high)/X(q)  e(spline)
   2      9    11.641    53.897    0.22E-03    0.42E-04    0.28E-06
   2      9    11.641    52.416    0.23E-03    0.44E-04    0.29E-06
   0     10    11.641   122.045    0.51E-04    0.25E-04    0.16E-06
   0     10    11.641    73.629    0.49E-04    0.24E-04    0.16E-06
   1     10    11.641    15.255    0.99E-04    0.55E-04    0.11E-06
   1     10    11.641     9.562    0.81E-04    0.47E-04    0.95E-07
  PAW_PBE Yb_2 06Sep2000                :
  PAW_PBE Gd 23Dec2003                  :
  PAW_PBE Ag 02Apr2005                  :

 POSCAR: Yb1 Gd1 Ag2
  positions in direct lattice
 exchange correlation table for  LEXCH =        8
   RHO(1)=    0.500       N(1)  =     2000
   RHO(2)=  100.500       N(2)  =     4000

 VTST: version 4.2, (08/11/21)

 CHAIN: initializing optimizer

 OPT: Using VASP Dynamics algorithm
 CHAIN: Read ICHAIN             0

 POSCAR: Yb1 Gd1 Ag2
  positions in direct lattice

 ion  position               nearest neighbor table
   1  0.000  0.000  0.000-   3 3.17   3 3.17   3 3.17   3 3.17   4 3.17   4 3.17   4 3.17   4 3.17
                             2 3.66   2 3.66   2 3.66   2 3.66   2 3.66   2 3.66
   2  0.500  0.500  0.500-   4 3.17   4 3.17   4 3.17   3 3.17   4 3.17   3 3.17   3 3.17   3 3.17
                             1 3.66   1 3.66   1 3.66   1 3.66   1 3.66   1 3.66
   3  0.750  0.750  0.750-   2 3.17   2 3.17   2 3.17   1 3.17   2 3.17   1 3.17   1 3.17   1 3.17

   4  0.250  0.250  0.250-   1 3.17   1 3.17   1 3.17   1 3.17   2 3.17   2 3.17   2 3.17   2 3.17

  LATTYP: Found a face centered cubic cell.
 ALAT       =     7.3234580000

  Lattice vectors:

 A1 = (   0.0000000000,   3.6617290000,   3.6617290000)
 A2 = (   3.6617290000,   0.0000000000,   3.6617290000)
 A3 = (   3.6617290000,   3.6617290000,   0.0000000000)

Analysis of symmetry for initial positions (statically):
 Subroutine PRICEL returns:
 Original cell was already a primitive cell.

 Routine SETGRP: Setting up the symmetry group for a
 face centered cubic supercell.

 Subroutine GETGRP returns: Found 48 space group operations
 (whereof 48 operations were pure point group operations)
 out of a pool of 48 trial point group operations.

The static configuration has the point symmetry O_h .

Analysis of symmetry for dynamics (positions and initial velocities):
 Subroutine PRICEL returns:
 Original cell was already a primitive cell.

[...]

The dynamic configuration has the point symmetry O_h .

Analysis of structural, dynamic, and magnetic symmetry:
 Subroutine PRICEL returns:
 Original cell was already a primitive cell.

 Routine SETGRP: Setting up the symmetry group for a
 face centered cubic supercell.

 Subroutine GETGRP returns: Found 48 space group operations
 (whereof 48 operations were pure point group operations)
 out of a pool of 48 trial point group operations.

The overall configuration has the point symmetry O_h .

 Subroutine INISYM returns: Found 48 space group operations
 (whereof 48 operations are pure point group operations),
 and found     1 'primitive' translations

                                     Primitive cell

  volume of cell :      98.1948

  direct lattice vectors                    reciprocal lattice vectors
     0.000000000  3.661729000  3.661729000    -0.136547516  0.136547516  0.136547516
     3.661729000  0.000000000  3.661729000     0.136547516 -0.136547516  0.136547516
     3.661729000  3.661729000  0.000000000     0.136547516  0.136547516 -0.136547516

  length of vectors
     5.178466814  5.178466814  5.178466814     0.236507236  0.236507236  0.236507236

  position of ions in fractional coordinates (direct lattice)
     0.000000000  0.000000000  0.000000000
     0.500000000  0.500000000  0.500000000
     0.750000000  0.750000000  0.750000000
     0.250000000  0.250000000  0.250000000

  ion indices of the primitive-cell ions
   primitive index   ion index
                 1           1
                 2           2
                 3           3
                 4           4

 KPOINTS: Kpoints from vasprun.xml

Automatic generation of k-mesh.
 Grid dimensions read from file:
 generate k-points for:    6    6    6

 Generating k-lattice:

  Cartesian coordinates                     Fractional coordinates (reciprocal lattice)
    -0.022757919  0.022757919  0.022757919     0.166666667 -0.000000000 -0.000000000
     0.022757919 -0.022757919  0.022757919    -0.000000000  0.166666667  0.000000000
     0.022757919  0.022757919 -0.022757919     0.000000000  0.000000000  0.166666667

  Length of vectors
     0.039417873  0.039417873  0.039417873

  Shift w.r.t. Gamma in fractional coordinates (k-lattice)
     0.000000000  0.000000000  0.000000000

 TETIRR: Found     35 inequivalent tetrahedra from     1296

 Subroutine IBZKPT returns following result:

 Found     16 irreducible k-points:

 Following reciprocal coordinates:
            Coordinates               Weight
  0.000000  0.000000  0.000000      1.000000
  0.166667  0.000000  0.000000      8.000000
  0.333333  0.000000  0.000000      8.000000
  0.500000  0.000000  0.000000      4.000000
  0.166667  0.166667  0.000000      6.000000
  0.333333  0.166667  0.000000     24.000000
  0.500000  0.166667  0.000000     24.000000
 -0.333333  0.166667  0.000000     24.000000
 -0.166667  0.166667  0.000000     12.000000
  0.333333  0.333333  0.000000      6.000000
  0.500000  0.333333  0.000000     24.000000
 -0.333333  0.333333  0.000000     12.000000
  0.500000  0.500000  0.000000      3.000000
  0.500000  0.333333  0.166667     24.000000
 -0.333333  0.333333  0.166667     24.000000
 -0.333333  0.500000  0.166667     12.000000

 Following cartesian coordinates:
            Coordinates               Weight
  0.000000  0.000000  0.000000      1.000000
 -0.022758  0.022758  0.022758      8.000000
 -0.045516  0.045516  0.045516      8.000000
 -0.068274  0.068274  0.068274      4.000000
  0.000000  0.000000  0.045516      6.000000
 -0.022758  0.022758  0.068274     24.000000
 -0.045516  0.045516  0.091032     24.000000
  0.068274 -0.068274 -0.022758     24.000000
  0.045516 -0.045516  0.000000     12.000000
  0.000000  0.000000  0.091032      6.000000
 -0.022758  0.022758  0.113790     24.000000
  0.091032 -0.091032  0.000000     12.000000
  0.000000  0.000000  0.136548      3.000000
  0.000000  0.045516  0.091032     24.000000
  0.113790 -0.068274 -0.022758     24.000000
  0.136548 -0.091032  0.000000     12.000000

 SYSTEM =  unknown system
 POSCAR =  Yb1 Gd1 Ag2

 Startparameter for this run:
   NWRITE =      2    write-flag & timer
   PREC   = accura    normal or accurate (medium, high low for compatibility)
   ISTART =      0    job   : 0-new  1-cont  2-samecut
   ICHARG =      0    charge: 1-file 2-atom 10-const
   ISPIN  =      2    spin polarized calculation?
   LNONCOLLINEAR =      F non collinear calculations
   LSORBIT =      F    spin-orbit coupling
   INIWAV =      1    electr: 0-lowe 1-rand  2-diag
   LASPH  =      T    aspherical Exc in radial PAW
 Electronic Relaxation 1
   ENCUT  =  520.0 eV  38.22 Ry    6.18 a.u.   9.63  9.63  9.63*2*pi/ulx,y,z
   ENINI  =  520.0     initial cutoff
   ENAUG  =  537.2 eV  augmentation charge cutoff
   NELM   =   1000;   NELMIN=  2; NELMDL= -5     # of ELM steps
   EDIFF  = 0.2E-03   stopping-criterion for ELM
   LREAL  =      T    real-space projection
   NLSPLINE    = F    spline interpolate recip. space projectors
   LCOMPAT=      F    compatible to vasp.4.4
   GGA_COMPAT  = T    GGA compatible to vasp.4.4-vasp.4.6
   LMAXPAW     = -100 max onsite density
   LMAXMIX     =    2 max onsite mixed and CHGCAR
   VOSKOWN=      0    Vosko Wilk Nusair interpolation
   ROPT   =   -0.00025  -0.00025  -0.00025
 Ionic relaxation
   EDIFFG = 0.2E-02   stopping-criterion for IOM
   NSW    =      0    number of steps for IOM
   NBLOCK =      1;   KBLOCK =      1    inner block; outer block
   IBRION =     -1    ionic relax: 0-MD 1-quasi-New 2-CG
   NFREE  =      0    steps in history (QN), initial steepest desc. (CG)
   ISIF   =      3    stress and relaxation
   IWAVPR =     10    prediction:  0-non 1-charg 2-wave 3-comb
   ISYM   =      2    0-nonsym 1-usesym 2-fastsym
   LCORR  =      T    Harris-Foulkes like correction to forces

   POTIM  = 0.5000    time-step for ionic-motion
   TEIN   =    0.0    initial temperature
   TEBEG  =    0.0;   TEEND  =   0.0 temperature during run
   SMASS  =  -3.00    Nose mass-parameter (am)
[...]
  318                map_forward                           0.000171                    4   7
  319                  map_gather                            0.000041                  2   8
  320                  m_alltoallv_z                         0.000025                  2   8
  321                  map_scatter                           0.000079                  2   8
  322                map_backward                          0.000080                    2   7
  323                  map_gather                            0.000019                  1   8
  324                  m_alltoallv_z                         0.000010                  1   8
  325                  map_scatter                           0.000036                  1   8
  326          m_sumb_d                              0.000009                          2   4
  327          pothar                                0.000073                          1   4
  328            m_sumb_d                              0.000006                        1   5
  329        brmix                                 0.004818                            1   3
  330          m_sumb_d                              0.000027                          6   4
  331          brpre                                 0.000016                          2   4
  332          setg0                                 0.000456                          1   4
  333          broyd                                 0.003799                          1   4
  334            brget                                 0.000835                      326   5
  335            brsav                                 0.000380                      163   5
  336            m_sumb_d                              0.000252                       47   5
  337        m_bcast_d                             0.000027                            2   3
  338      potlok                                0.018508                              2   2
  339        fft3d_mpi                             0.012206                           36   3
  340          fftbrc_mpi                            0.010235                         36   4
  341            fftbas_plan_mpi                       0.010218                       36   5
  342              map_forward                           0.003047                     40   6
  343                map_gather                            0.000988                   24   7
  344                m_alltoallv_z                         0.000965                   24   7
  345                map_scatter                           0.000915                   24   7
  346              map_backward                          0.002491                     32   6
  347                map_gather                            0.000821                   16   7
  348                m_alltoallv_z                         0.000716                   16   7
  349                map_scatter                           0.000783                   16   7
  350              dfftw_execute                         0.003093                     30   6
  351        m_sumb_d                              0.000023                            5   3
  352        pothar                                0.000706                            2   3
  353          m_sumb_d                              0.000065                          2   4
  354        m_bcast_d                             0.001154                            4   3
  355      potlok_metagga                        0.000000                              1   2
  356      set_dd_magatom                        0.000004                              1   2
  357      set_dd_paw                            0.941060                              1   2
  358        m_sumb_d                              0.465363                            7   3
  359      augmentation_charge                   0.074735                              1   2
  360        fft3d_mpi                             0.017512                            2   3
  361          fftbrc_mpi                            0.014695                          2   4
  362            fftbas_plan_mpi                       0.014693                        2   5
  363              dfftw_execute                         0.009173                      6   6
  364              map_backward                          0.005368                      4   6
  365                map_gather                            0.001414                    2   7
  366                m_alltoallv_z                         0.002701                    2   7
  367                map_scatter                           0.001246                    2   7
  368      fftwav_mpi                            0.341515                            768   2
  369        fftwav                                0.340578                          768   3
  370          fft3d                                 0.325410                        768   4
  371      densta                                0.223570                              1   2

 Flat profile

 m_sumb_d                               34.402959       91556
 set_dd_paw                             26.292184          58
 lapack                                 12.707572       28306
 eddav                                  12.690510          60
 init_acc                               11.595806           1
 raccmu_                                11.452733       28306
 total_time                              7.254161           1
 redis_pw                                4.869516      158380
 setdij_                                 4.462055          84
 phaser                                  3.483984        2128
 augmentation_charge                     3.360590          58
 m_alltoall_d                            3.085387      412924
 acc_init_cublas                         2.473833           1
 dfftw_execute                           1.805361        1836
 fft3d                                   1.666305      170535
 redis_proj                              1.361057      199664
 eccp                                    1.313771       15360
 fftwav                                  1.126935      113923
 orth1                                   0.964986       84950
 soft_charge                             0.914356          57
 w1_copy                                 0.827778      169836
 overl                                   0.822210       97896
 racc0mu_acc                             0.821320       28306
 acc_init_cusolver                       0.801680           1
 densta                                  0.766542          61
 rpromu_acc                              0.734255       21458
 m_alltoallv_z                           0.705476        2369
 hamiltmu                                0.603537       28306
 m_bcast_z                               0.590788       29330
 setup_precond                           0.556743       15360
 m_bcast_d                               0.463205       56733
 overl_mu                                0.437206       28306
 ggemm                                   0.391132       35986
 fft3d_mpi                               0.377802       58731
 pw_charge                               0.313209       11963
 set_charge                              0.296671          57
 map_gather                              0.271094        2369
 newband                                 0.267998       30226
 map_scatter                             0.263292        2369
 vhamil                                  0.261266       56612
 kinhamil                                0.257929       56612
 fftext_mpi                              0.240903       56612
 depsum                                  0.238779          57
 rpro_isp                                0.225800         208
 apply_precond                           0.225556       41252
 potlok                                  0.158376          58
 fftwav_mpi                              0.154469      113923
 acc_cufft_makeplan                      0.130133          19
 rspher_all                              0.115457          14
 fftbas_plan_mpi                         0.114295        2119
 elmin                                   0.098517           1
 broyd                                   0.075578          56
 lincom                                  0.060252        1952
 proall                                  0.040374           1
 brmix                                   0.031775          56
 setg0                                   0.029643          58
 w1_projall                              0.021353       20626
 brget                                   0.021254        8099
 sphpro_fast                             0.020476           2
 map_backward                            0.011014        2222
 map_forward                             0.010579        2016
 orthch                                  0.007423           1
 force_and_stress                        0.007322           1
 choleski                                0.006402          32
 truncate_high_frequency_w1              0.006091       71972
 brsav                                   0.005366        2092
 pothar                                  0.004772          59
 inisym                                  0.004759           1
 strnlr                                  0.004115           1
 stufak                                  0.001898           1
 fornlr                                  0.001448           1
 fft_gq                                  0.001377          57
 forhar                                  0.001300           2
 fftbrc_mpi                              0.001258        2119
 strelo                                  0.001157           1
 brpre                                   0.000965         112
 strehar                                 0.000861           1
 forloc                                  0.000698           1
 fewald                                  0.000337           1
 set_dd_magatom                          0.000261          58
 vectorpot                               0.000237          57
 chggra                                  0.000217           1
 strkin                                  0.000213           1
 brgrid                                  0.000107           1
 rsp                                     0.000049           1
 fordep                                  0.000043           1
 posmap                                  0.000035           2
 crpa_reader                             0.000027           1
 rcp                                     0.000012           1
 acc_cufft_makeplans                     0.000011           3
 potlok_metagga                          0.000002          57
 rotate_active_occupied_orbital          0.000000           1
 redis_pw_over_bands                     0.000000           1
  summed up times     160.1985349655151

 Accumulative profile

 total_time                            160.198535           1
 elmin                                 131.528088           1
 eddav                                  67.447016          60
 set_dd_paw                             53.874789          58
 m_sumb_d                               34.402959       91556
 hamiltmu                               14.495938       28306
 raccmu_                                12.711259       28306
 lapack                                 12.707572       28306
 init_acc                               11.595806           1
 set_charge                              6.680940          57
 setdij_                                 6.474591          84
 redis_pw                                6.313665      158380
 augmentation_charge                     4.366863          58
 fft3d_mpi                               3.963765       58731
 force_and_stress                        3.931654           1
 phaser                                  3.483984        2128
 newband                                 3.255478       30226
 fftbrc_mpi                              3.182367        2119
 fftbas_plan_mpi                         3.181110        2119
 m_alltoall_d                            3.085387      412924
 redis_proj                              3.002295      199664
 fftwav_mpi                              2.544113      113923
 acc_init_cublas                         2.473833           1
 fftwav                                  2.389644      113923
 soft_charge                             1.807955          57
 dfftw_execute                           1.805361        1836
 fft3d                                   1.666305      170535
 eccp                                    1.313771       15360
 orth1                                   0.964986       84950
 kinhamil                                0.919877       56612
 w1_copy                                 0.827778      169836
 overl                                   0.822210       97896
 racc0mu_acc                             0.821320       28306
 acc_init_cusolver                       0.801680           1
 densta                                  0.766542          61
 rpromu_acc                              0.734255       21458
 map_forward                             0.722081        2016
 m_alltoallv_z                           0.705476        2369
 fftext_mpi                              0.661948       56612
 strnlr                                  0.655350           1
 w1_projall                              0.619298       20626
 m_bcast_z                               0.590788       29330
 potlok                                  0.574940          58
 setup_precond                           0.556743       15360
 map_backward                            0.539373        2222
 m_bcast_d                               0.463205       56733
 rpro_isp                                0.462060         208
 fordep                                  0.460299           1
 overl_mu                                0.437206       28306
 ggemm                                   0.391132       35986
 pw_charge                               0.313209       11963
 map_gather                              0.271094        2369
 map_scatter                             0.263292        2369
 vhamil                                  0.261266       56612
 orthch                                  0.250116           1
 depsum                                  0.241966          57
 apply_precond                           0.225556       41252
 fornlr                                  0.220148           1
 brmix                                   0.175384          56
 acc_cufft_makeplans                     0.130144           3
 acc_cufft_makeplan                      0.130133          19
 rspher_all                              0.115457          14
 broyd                                   0.111265          56
 proall                                  0.082866           1
 lincom                                  0.060252        1952
 fft_gq                                  0.058754          57
 setg0                                   0.029643          58
 brget                                   0.021254        8099
 sphpro_fast                             0.021038           2
 choleski                                0.006402          32
 truncate_high_frequency_w1              0.006091       71972
 brsav                                   0.005366        2092
 pothar                                  0.005273          59
 inisym                                  0.004794           1
 stufak                                  0.001898           1
 forhar                                  0.001308           2
 strelo                                  0.001166           1
 brpre                                   0.000965         112
 strehar                                 0.000866           1
 forloc                                  0.000758           1
 chggra                                  0.000727           1
 fewald                                  0.000450           1
 set_dd_magatom                          0.000261          58
 vectorpot                               0.000237          57
 strkin                                  0.000227           1
 brgrid                                  0.000107           1
 rsp                                     0.000049           1
 posmap                                  0.000035           2
 crpa_reader                             0.000027           1
 rcp                                     0.000012           1
 potlok_metagga                          0.000002          57
 rotate_active_occupied_orbital          0.000000           1
 redis_pw_over_bands                     0.000000           1

Profiling took   0.362208  0.178502  0.003256  0.003174 seconds
Profiling took   0.230271 seconds