 vasp.6.3.2 27Jun22 (build Jul  3 2023 11:46:21) complex
 executed on    LinuxNV_CrayMPICH date 2024.04.22  02:59:21

 INCAR:
   ADDGRID = True
   ALGO = Normal
   EDIFF = 0.0023
   ENCUT = 520.0
   IBRION = -1
   ICHARG = 0
   ISIF = 3
   ISMEAR = 0
   ISPIN = 2
   KPOINT_BSE = -1 0 0 0
   LAECHG = True
   LASPH = True
   LCHARG = True
   LELF = True
   LORBIT = 11
   LREAL = Auto
   LVHAR = True
   LWAVE = False
   MAGMOM = 2*7.0 40*0.6 4*5.0
   NELM = 1000
   NSW = 0
   PREC = accurate
   SIGMA = 0.05

 POTCAR:    PAW_PBE Gd 23Dec2003
 POTCAR:    PAW_PBE Cd 06Sep2000
 POTCAR:    PAW_PBE Ni_pv 06Sep2000
 POTCAR:    PAW_PBE Gd 23Dec2003
   VRHFIN =Gd : [core=Xe4]

   TITEL  = PAW_PBE Gd 23Dec2003
   POMASS =  157.250; ZVAL   =   18.000    mass and valenz
   ENMAX  =  256.472; ENMIN  =  192.354 eV

   TITEL  = PAW_PBE Cd 06Sep2000
   POMASS =  112.411; ZVAL   =   12.000    mass and valenz
   ENMAX  =  274.336; ENMIN  =  205.752 eV

   TITEL  = PAW_PBE Ni_pv 06Sep2000
   POMASS =   58.690; ZVAL   =   16.000    mass and valenz
   ENMAX  =  367.986; ENMIN  =  275.989 eV

 Optimization of the real space projectors (new method)

 maximal supplied QI-value         = 13.42
 optimisation between [QCUT,QGAM] = [ 11.67, 23.35] = [ 38.16,152.62] Ry
 Optimized for a Real-space Cutoff    1.63 Angstroem

   l    n(q)    QCUT    max X(q) W(low)/X(q) W(high)/X(q)  e(spline)
   0     11    11.673    10.501    0.14E-04    0.17E-05    0.21E-07
   0     11    11.673     9.148    0.21E-04    0.32E-05    0.45E-07
   1     11    11.673     4.035    0.33E-05    0.11E-04    0.84E-07
   1     11    11.673     4.388    0.11E-04    0.47E-04    0.34E-06
   2     10    11.673    20.656    0.12E-04    0.28E-04    0.54E-06
   2     10    11.673    12.651    0.11E-04    0.26E-04    0.51E-06
   3     10    11.673    61.921    0.19E-03    0.22E-03    0.23E-06
   3     10    11.673    48.328    0.20E-03    0.23E-03    0.23E-06
 Optimization of the real space projectors (new method)

[...]

   l    n(q)    QCUT    max X(q) W(low)/X(q) W(high)/X(q)  e(spline)
   2      9    11.539    73.106    0.18E-03    0.88E-04    0.18E-06
   2      9    11.539    71.731    0.19E-03    0.89E-04    0.19E-06
   0     10    11.539   146.509    0.42E-04    0.28E-04    0.31E-06
   0     10    11.539    95.017    0.39E-04    0.27E-04    0.30E-06
   1     10    11.539    36.165    0.52E-04    0.99E-04    0.10E-06
   1     10    11.539    31.530    0.47E-04    0.91E-04    0.92E-07
 Optimization of the real space projectors (new method)

 maximal supplied QI-value         = 18.90
 optimisation between [QCUT,QGAM] = [ 11.53, 23.24] = [ 37.21,151.29] Ry
 Optimized for a Real-space Cutoff    1.36 Angstroem

   l    n(q)    QCUT    max X(q) W(low)/X(q) W(high)/X(q)  e(spline)
   1      9    11.527     2.836    0.16E-04    0.30E-04    0.95E-07
   1      9    11.527     4.023    0.73E-04    0.81E-04    0.21E-06
   2      9    11.527    73.368    0.15E-03    0.29E-03    0.28E-06
   2      9    11.527    69.010    0.15E-03    0.29E-03    0.29E-06
   0      9    11.527    54.797    0.43E-04    0.28E-04    0.85E-07
   0      9    11.527    24.266    0.33E-04    0.24E-04    0.75E-07
  PAW_PBE Gd 23Dec2003                  :
  PAW_PBE Cd 06Sep2000                  :
  PAW_PBE Ni_pv 06Sep2000               :

 POSCAR: Gd2 Cd40 Ni4
  positions in direct lattice
 exchange correlation table for  LEXCH =        8
   RHO(1)=    0.500       N(1)  =     2000
   RHO(2)=  100.500       N(2)  =     4000

 VTST: version 4.2, (08/11/21)

 CHAIN: initializing optimizer

 OPT: Using VASP Dynamics algorithm
 CHAIN: Read ICHAIN             0

 POSCAR: Gd2 Cd40 Ni4
  positions in direct lattice

 ion  position               nearest neighbor table
   1  0.500  0.500  0.500-  39 3.42  40 3.42  41 3.42  42 3.42  12 3.45   7 3.45   8 3.45   9 3.45
                            10 3.45   3 3.45  13 3.45  14 3.45   4 3.45   5 3.45   6 3.45  11 3.45
   2  0.750  0.750  0.750-  39 3.42  40 3.42  41 3.42  42 3.42  24 3.45  19 3.45  20 3.45  21 3.45
                            22 3.45  15 3.45  25 3.45  26 3.45  16 3.45  17 3.45  18 3.45  23 3.45
   3  0.568  0.302  0.302-   6 2.90   7 2.97  11 2.97  32 2.98  43 3.10  35 3.13  33 3.13  20 3.22
                            25 3.22  41 3.35  40 3.35   1 3.45
   4  0.302  0.568  0.828-   5 2.90  10 2.97  13 2.97  31 2.98  44 3.10  36 3.13  33 3.13  23 3.22
                            21 3.22  42 3.35  39 3.35   1 3.45
   5  0.302  0.828  0.568-   4 2.90   8 2.97  14 2.97  31 2.98  45 3.10  35 3.13  34 3.13  19 3.22
                            24 3.22  42 3.35  39 3.35   1 3.45
   6  0.828  0.302  0.302-   3 2.90   9 2.97  12 2.97  32 2.98  46 3.10  36 3.13  34 3.13  22 3.22
                            26 3.22  41 3.35  40 3.35   1 3.45
   7  0.302  0.302  0.568-  10 2.90   3 2.97  11 2.97  28 2.98  45 3.10  37 3.13  35 3.13  17 3.22
                            24 3.22  40 3.35  39 3.35   1 3.45
   8  0.568  0.828  0.302-   9 2.90   5 2.97  14 2.97  27 2.98  43 3.10  38 3.13  35 3.13  15 3.22
                            25 3.22  42 3.35  41 3.35   1 3.45
   9  0.828  0.568  0.302-   8 2.90   6 2.97  12 2.97  27 2.98  44 3.10  37 3.13  36 3.13  16 3.22
                            23 3.22  42 3.35  41 3.35   1 3.45
  10  0.302  0.302  0.828-   7 2.90   4 2.97  13 2.97  28 2.98  46 3.10  38 3.13  36 3.13  18 3.22
                            26 3.22  40 3.35  39 3.35   1 3.45
  11  0.302  0.568  0.302-  14 2.90   7 2.97   3 2.97  30 2.98  44 3.10  37 3.13  33 3.13  16 3.22
                            21 3.22  41 3.35  39 3.35   1 3.45
  12  0.828  0.302  0.568-  13 2.90   9 2.97   6 2.97  29 2.98  45 3.10  37 3.13  34 3.13  17 3.22
                            19 3.22  42 3.35  40 3.35   1 3.45
  13  0.568  0.302  0.828-  12 2.90  10 2.97   4 2.97  29 2.98  43 3.10  38 3.13  33 3.13  15 3.22
                            20 3.22  42 3.35  40 3.35   1 3.45
  14  0.302  0.828  0.302-  11 2.90   8 2.97   5 2.97  30 2.98  46 3.10  38 3.13  34 3.13  18 3.22
                            22 3.22  41 3.35  39 3.35   1 3.45
  15  0.682  0.948  0.948-  18 2.90  19 2.97  23 2.97  38 2.98  43 3.10  27 3.13  29 3.13  13 3.22
                             8 3.22  41 3.35  40 3.35   2 3.45
  16  0.948  0.682  0.422-  17 2.90  22 2.97  25 2.97  37 2.98  44 3.10  27 3.13  30 3.13  11 3.22
                             9 3.22  42 3.35  39 3.35   2 3.45
  17  0.948  0.422  0.682-  16 2.90  20 2.97  26 2.97  37 2.98  45 3.10  28 3.13  29 3.13  12 3.22
                             7 3.22  42 3.35  39 3.35   2 3.45
  18  0.422  0.948  0.948-  15 2.90  21 2.97  24 2.97  38 2.98  46 3.10  28 3.13  30 3.13  14 3.22
                            10 3.22  41 3.35  40 3.35   2 3.45
  19  0.948  0.948  0.682-  22 2.90  15 2.97  23 2.97  34 2.98  45 3.10  29 3.13  31 3.13  12 3.22
                             5 3.22  40 3.35  39 3.35   2 3.45
  20  0.682  0.422  0.948-  21 2.90  17 2.97  26 2.97  33 2.98  43 3.10  29 3.13  32 3.13  13 3.22
                             3 3.22  42 3.35  41 3.35   2 3.45
  21  0.422  0.682  0.948-  20 2.90  18 2.97  24 2.97  33 2.98  44 3.10  30 3.13  31 3.13  11 3.22
                             4 3.22  42 3.35  41 3.35   2 3.45
  22  0.948  0.948  0.422-  19 2.90  16 2.97  25 2.97  34 2.98  46 3.10  30 3.13  32 3.13  14 3.22
                             6 3.22  40 3.35  39 3.35   2 3.45
  23  0.948  0.682  0.948-  26 2.90  19 2.97  15 2.97  36 2.98  44 3.10  27 3.13  31 3.13   4 3.22
                             9 3.22  41 3.35  39 3.35   2 3.45
  24  0.422  0.948  0.682-  25 2.90  21 2.97  18 2.97  35 2.98  45 3.10  28 3.13  31 3.13   7 3.22
                             5 3.22  42 3.35  40 3.35   2 3.45
  25  0.682  0.948  0.422-  24 2.90  22 2.97  16 2.97  35 2.98  43 3.10  27 3.13  32 3.13   8 3.22
                             3 3.22  42 3.35  40 3.35   2 3.45
  26  0.948  0.422  0.948-  23 2.90  20 2.97  17 2.97  36 2.98  46 3.10  28 3.13  32 3.13  10 3.22
                             6 3.22  41 3.35  39 3.35   2 3.45
  27  0.863  0.863  0.137-  43 2.80  44 2.80   8 2.98   9 2.98  31 3.06  32 3.06  29 3.06  30 3.06
                            23 3.13  25 3.13  15 3.13  16 3.13
  28  0.137  0.137  0.863-  45 2.80  46 2.80   7 2.98  10 2.98  31 3.06  32 3.06  29 3.06  30 3.06
                            24 3.13  26 3.13  17 3.13  18 3.13
  29  0.863  0.137  0.863-  45 2.80  43 2.80  12 2.98  13 2.98  31 3.06  32 3.06  27 3.06  28 3.06
                            19 3.13  20 3.13  15 3.13  17 3.13
  30  0.137  0.863  0.137-  44 2.80  46 2.80  11 2.98  14 2.98  31 3.06  32 3.06  27 3.06  28 3.06
                            21 3.13  22 3.13  16 3.13  18 3.13
  31  0.137  0.863  0.863-  44 2.80  45 2.80   4 2.98   5 2.98  29 3.06  30 3.06  27 3.06  28 3.06
                            23 3.13  24 3.13  19 3.13  21 3.13
  32  0.863  0.137  0.137-  46 2.80  43 2.80   3 2.98   6 2.98  29 3.06  30 3.06  27 3.06  28 3.06
                            25 3.13  26 3.13  20 3.13  22 3.13
  33  0.387  0.387  0.113-  43 2.80  44 2.80  20 2.98  21 2.98  37 3.06  38 3.06  35 3.06  36 3.06
                             3 3.13   4 3.13  11 3.13  13 3.13
  34  0.113  0.113  0.387-  45 2.80  46 2.80  19 2.98  22 2.98  37 3.06  38 3.06  35 3.06  36 3.06
                             5 3.13   6 3.13  12 3.13  14 3.13
  35  0.387  0.113  0.387-  45 2.80  43 2.80  24 2.98  25 2.98  37 3.06  38 3.06  33 3.06  34 3.06
                             3 3.13   5 3.13   7 3.13   8 3.13
  36  0.113  0.387  0.113-  44 2.80  46 2.80  23 2.98  26 2.98  37 3.06  38 3.06  33 3.06  34 3.06
                             4 3.13   6 3.13   9 3.13  10 3.13
  37  0.113  0.387  0.387-  44 2.80  45 2.80  16 2.98  17 2.98  35 3.06  36 3.06  33 3.06  34 3.06
                             7 3.13   9 3.13  11 3.13  12 3.13
  38  0.387  0.113  0.113-  46 2.80  43 2.80  15 2.98  18 2.98  35 3.06  36 3.06  33 3.06  34 3.06
                             8 3.13  10 3.13  13 3.13  14 3.13
  39  0.125  0.625  0.625-   4 3.35   5 3.35   7 3.35  10 3.35  11 3.35  14 3.35  16 3.35  17 3.35
                            19 3.35  22 3.35  23 3.35  26 3.35   1 3.42   2 3.42
  40  0.625  0.125  0.625-   7 3.35  19 3.35   3 3.35  10 3.35  12 3.35  13 3.35  15 3.35  18 3.35
                             6 3.35  22 3.35  24 3.35  25 3.35   1 3.42   2 3.42
  41  0.625  0.625  0.125-  11 3.35  23 3.35   8 3.35   9 3.35   3 3.35  14 3.35  15 3.35  18 3.35
                            20 3.35  21 3.35   6 3.35  26 3.35   1 3.42   2 3.42
  42  0.625  0.625  0.625-   4 3.35   5 3.35  12 3.35  16 3.35  17 3.35  24 3.35   9 3.35   8 3.35
                            20 3.35  21 3.35  13 3.35  25 3.35   1 3.42   2 3.42
  43  0.625  0.125  0.125-  27 2.80  29 2.80  32 2.80  33 2.80  35 2.80  38 2.80   3 3.10  15 3.10
                            20 3.10  25 3.10  13 3.10   8 3.10
  44  0.125  0.625  0.125-  27 2.80  30 2.80  31 2.80  33 2.80  36 2.80  37 2.80   4 3.10  16 3.10
                            21 3.10  23 3.10  11 3.10   9 3.10
  45  0.125  0.125  0.625-  29 2.80  35 2.80  31 2.80  34 2.80  28 2.80  37 2.80   5 3.10   7 3.10
                            12 3.10  17 3.10  19 3.10  24 3.10
[...]
  320                  map_gather                            0.000076                  2   8
  321                  m_alltoallv_z                         0.000029                  2   8
  322                  map_scatter                           0.000273                  2   8
  323                map_backward                          0.000189                    2   7
  324                  map_gather                            0.000042                  1   8
  325                  m_alltoallv_z                         0.000012                  1   8
  326                  map_scatter                           0.000101                  1   8
  327          m_sumb_d                              0.000010                          2   4
  328          pothar                                0.000101                          1   4
  329            m_sumb_d                              0.000005                        1   5
  330        brmix                                 0.033841                            1   3
  331          m_sumb_d                              0.000028                          6   4
  332          brpre                                 0.000102                          2   4
  333          setg0                                 0.004141                          1   4
  334          broyd                                 0.024468                          1   4
  335            m_sumb_d                              0.000247                       51   5
  336            brget                                 0.005157                      229   5
  337            brsav                                 0.001185                       49   5
  338        m_bcast_d                             0.000134                            2   3
  339      potlok                                0.133038                              2   2
  340        fft3d_mpi                             0.084993                           36   3
  341          fftbrc_mpi                            0.072207                         36   4
  342            fftbas_plan_mpi                       0.072186                       36   5
  343              map_forward                           0.018776                     40   6
  344                map_gather                            0.004848                   24   7
  345                m_alltoallv_z                         0.007889                   24   7
  346                map_scatter                           0.005717                   24   7
  347              map_backward                          0.017143                     32   6
  348                map_gather                            0.003805                   16   7
  349                m_alltoallv_z                         0.007840                   16   7
  350                map_scatter                           0.005115                   16   7
  351              dfftw_execute                         0.034362                     30   6
  352        m_sumb_d                              0.000031                            5   3
  353        pothar                                0.005965                            2   3
  354          m_sumb_d                              0.000243                          2   4
  355        m_bcast_d                             0.009674                            4   3
  356      potlok_metagga                        0.000000                              1   2
  357      set_dd_magatom                        0.000004                              1   2
  358      set_dd_paw                            5.998800                              1   2
  359        m_sumb_d                              0.928665                            7   3
  360      augmentation_charge                   0.584149                              1   2
  361        fft3d_mpi                             0.273311                            2   3
  362          fftbrc_mpi                            0.239637                          2   4
  363            fftbas_plan_mpi                       0.239634                        2   5
  364              dfftw_execute                         0.160982                      6   6
  365              map_backward                          0.078352                      4   6
  366                map_gather                            0.029122                    2   7
  367                m_alltoallv_z                         0.015825                    2   7
  368                map_scatter                           0.033392                    2   7
  369      fftwav_mpi                            6.554458                           1710   2
  370        fftwav                                6.552043                         1710   3
  371          fft3d                                 6.056252                       1710   4
  372      densta                                0.005997                              1   2
  373        m_sumb_d                              0.002468                           42   3

 Flat profile

 set_dd_paw                            542.787416         107
 m_sumb_d                              132.093520      339746
 eddav                                  68.599088         109
 raccmu_                                65.963465      108293
 lapack                                 47.498614      108293
 dfftw_execute                          40.789071        3012
 setdij_                                38.280737         133
 total_time                             37.927649           1
 augmentation_charge                    33.208664         107
 redis_pw                               27.295884      579585
 fft3d                                  12.200122      634414
 init_acc                               12.077642           1
 m_alltoall_d                           11.335914     1559235
 phaser                                  9.207765         693
 eccp                                    8.540088       62130
 fft3d_mpi                               8.445749      217250
 map_scatter                             7.787323        4231
 map_gather                              6.787191        4231
 orth1                                   5.714096      324951
 m_alltoallv_z                           5.528439        4231
 hamiltmu                                5.449242      108293
 set_charge                              5.236344         106
 fftwav                                  4.939199      420949
 redis_proj                              4.867639      730926
 racc0mu_acc                             3.151611      108293
 w1_copy                                 3.151129      640395
 rpromu_acc                              3.057757       78773
 overl                                   3.024057      364806
 m_bcast_z                               2.868536      110573
 soft_charge                             2.571052         106
 acc_init_cublas                         2.414107           1
 pw_charge                               2.404773       47029
 setup_precond                           2.271639       62130
 ggemm                                   2.244663      139685
 m_bcast_d                               1.834183      216805
 overl_mu                                1.708021      108293
 broyd                                   1.336701         105
 potlok                                  1.330600         107
 depsum                                  1.003076         106
 vhamil                                  0.987990      213465
 kinhamil                                0.968013      213465
 newband                                 0.950846      108947
 fftext_mpi                              0.913099      213465
 rspher_all                              0.843196          14
 apply_precond                           0.831115      151335
 acc_init_cusolver                       0.820184           1
 brmix                                   0.619859         105
 fftwav_mpi                              0.556226      420949
 rpro_isp                                0.445286          39
 brget                                   0.443319       19893
 setg0                                   0.439442         107
 elmin                                   0.336478           1
 fftbas_plan_mpi                         0.223355        3785
 sphpro_fast                             0.219763           2
 acc_cufft_makeplan                      0.144220          19
 brsav                                   0.119944        5459
 proall                                  0.100283           1
 stufak                                  0.080408           1
 w1_projall                              0.072964       76901
 lincom                                  0.046333         660
 densta                                  0.046272         110
 map_backward                            0.042893        3986
 orthch                                  0.040972           1
 force_and_stress                        0.039640           1
 fft_gq                                  0.037495         106
 map_forward                             0.035227        3584
 truncate_high_frequency_w1              0.021948      275595
 pothar                                  0.017917         108
 brpre                                   0.011376         210
 choleski                                0.009724           6
 forhar                                  0.007384           2
 inisym                                  0.006685           1
 strelo                                  0.006392           1
 strehar                                 0.005445           1
 forloc                                  0.003773           1
 strnlr                                  0.003197           1
 rsp                                     0.002838           1
 fftbrc_mpi                              0.002753        3785
 strkin                                  0.002719           1
 fornlr                                  0.001099           1
 brgrid                                  0.000674           1
 posmap                                  0.000590           2
 set_dd_magatom                          0.000495         107
 vectorpot                               0.000444         106
 fewald                                  0.000376           1
 chggra                                  0.000340           1
 fordep                                  0.000279           1
 rcp                                     0.000088           1
 crpa_reader                             0.000026           1
 potlok_metagga                          0.000010         106
 acc_cufft_makeplans                     0.000010           3
 rotate_active_occupied_orbital          0.000001           1
 redis_pw_over_bands                     0.000000           1
  summed up times     1187.444171190262

 Accumulative profile

 total_time                           1187.444171           1
 elmin                                1090.072641           1
 set_dd_paw                            643.945659         107
 eddav                                 316.531151         109
 m_sumb_d                              132.093520      339746
 hamiltmu                               80.712912      108293
 set_charge                             79.352156         106
 setdij_                                75.618099         133
 fft3d_mpi                              71.150534      217250
 raccmu_                                70.823097      108293
 augmentation_charge                    62.588766         107
 fftbrc_mpi                             61.196253        3785
 fftbas_plan_mpi                        61.193499        3785
 lapack                                 47.498614      108293
 dfftw_execute                          40.789071        3012
 redis_pw                               33.150386      579585
 force_and_stress                       24.291028           1
 newband                                16.779046      108947
 fftwav_mpi                             16.187014      420949
 fftwav                                 15.630789      420949
 fft3d                                  12.200122      634414
 init_acc                               12.077642           1
 m_alltoall_d                           11.335914     1559235
 map_backward                           10.472920        3986
 redis_proj                             10.349052      730926
 soft_charge                            10.266421         106
 map_forward                             9.708153        3584
 phaser                                  9.207765         693
 eccp                                    8.540088       62130
 map_scatter                             7.787323        4231
 map_gather                              6.787191        4231
 orth1                                   5.714096      324951
 m_alltoallv_z                           5.528439        4231
 kinhamil                                3.452583      213465
 fordep                                  3.398270           1
 racc0mu_acc                             3.151611      108293
 w1_copy                                 3.151129      640395
 rpromu_acc                              3.057757       78773
 overl                                   3.024057      364806
 brmix                                   3.001488         105
 m_bcast_z                               2.868536      110573
 fftext_mpi                              2.484570      213465
 acc_init_cublas                         2.414107           1
 potlok                                  2.407115         107
 pw_charge                               2.404773       47029
 w1_projall                              2.286936       76901
 setup_precond                           2.271639       62130
 ggemm                                   2.244663      139685
 strnlr                                  2.058021           1
 broyd                                   1.920490         105
 m_bcast_d                               1.834183      216805
 overl_mu                                1.708021      108293
 rpro_isp                                1.549875          39
 depsum                                  1.081331         106
 vhamil                                  0.987990      213465
 fft_gq                                  0.918700         106
 rspher_all                              0.843196          14
 apply_precond                           0.831115      151335
 acc_init_cusolver                       0.820184           1
 fornlr                                  0.686515           1
 brget                                   0.443319       19893
 setg0                                   0.439442         107
 orthch                                  0.295768           1
 sphpro_fast                             0.228204           2
 proall                                  0.203891           1
 acc_cufft_makeplans                     0.144230           3
 acc_cufft_makeplan                      0.144220          19
 brsav                                   0.119944        5459
 stufak                                  0.080408           1
 densta                                  0.071097         110
 lincom                                  0.046333         660
 truncate_high_frequency_w1              0.021948      275595
 pothar                                  0.019547         108
 brpre                                   0.011376         210
 choleski                                0.009724           6
 forhar                                  0.007420           2
 inisym                                  0.007275           1
 strelo                                  0.006471           1
 forloc                                  0.005800           1
 strehar                                 0.005455           1
 fewald                                  0.004584           1
 rsp                                     0.002838           1
 strkin                                  0.002727           1
 chggra                                  0.001331           1
 brgrid                                  0.000674           1
 posmap                                  0.000590           2
 set_dd_magatom                          0.000495         107
 vectorpot                               0.000444         106
 rcp                                     0.000088           1
 crpa_reader                             0.000026           1
 potlok_metagga                          0.000010         106
 rotate_active_occupied_orbital          0.000001           1
 redis_pw_over_bands                     0.000000           1

Profiling took   1.331683  0.650366  0.003449  0.003336 seconds
Profiling took   0.833974 seconds