 vasp.6.3.2 27Jun22 (build Jul  3 2023 11:46:21) complex
 executed on    LinuxNV_CrayMPICH date 2024.04.22  03:28:01

 INCAR:
   ADDGRID = True
   ALGO = Normal
   EDIFF = 0.0001
   ENCUT = 520.0
   IBRION = -1
   ISIF = 3
   ISMEAR = -5
   ISPIN = 2
   LAECHG = True
   LASPH = True
   LCHARG = True
   LORBIT = 11
   LREAL = Auto
   LVHAR = True
   LWAVE = False
   MAGMOM = 1*7.0 4*0.6
   NELM = 1000
   NSW = 0
   PREC = Accurate
   SIGMA = 0.05

 POTCAR:    PAW_PBE Gd 23Dec2003
 POTCAR:    PAW_PBE Cu_pv 06Sep2000
 POTCAR:    PAW_PBE Ge_d 03Jul2007
 POTCAR:    PAW_PBE Gd 23Dec2003
   VRHFIN =Gd : [core=Xe4]

   TITEL  = PAW_PBE Gd 23Dec2003
   POMASS =  157.250; ZVAL   =   18.000    mass and valenz
   ENMAX  =  256.472; ENMIN  =  192.354 eV

   TITEL  = PAW_PBE Cu_pv 06Sep2000
   POMASS =   63.546; ZVAL   =   17.000    mass and valenz
   ENMAX  =  368.648; ENMIN  =  276.486 eV

   TITEL  = PAW_PBE Ge_d 03Jul2007
   POMASS =   72.610; ZVAL   =   14.000    mass and valenz
   ENMAX  =  310.294; ENMIN  =  232.720 eV

 Optimization of the real space projectors (new method)

 maximal supplied QI-value         = 13.42
 optimisation between [QCUT,QGAM] = [ 11.67, 23.35] = [ 38.16,152.62] Ry
 Optimized for a Real-space Cutoff    1.63 Angstroem

   l    n(q)    QCUT    max X(q) W(low)/X(q) W(high)/X(q)  e(spline)
   0     11    11.673    10.501    0.14E-04    0.17E-05    0.21E-07
   0     11    11.673     9.148    0.21E-04    0.32E-05    0.45E-07
   1     11    11.673     4.035    0.33E-05    0.11E-04    0.84E-07
   1     11    11.673     4.388    0.11E-04    0.47E-04    0.34E-06
   2     10    11.673    20.656    0.12E-04    0.28E-04    0.54E-06
   2     10    11.673    12.651    0.11E-04    0.26E-04    0.51E-06
   3     10    11.673    61.921    0.19E-03    0.22E-03    0.23E-06
   3     10    11.673    48.328    0.20E-03    0.23E-03    0.23E-06
 Optimization of the real space projectors (new method)

[...]

   l    n(q)    QCUT    max X(q) W(low)/X(q) W(high)/X(q)  e(spline)
   1      9    11.527     3.172    0.21E-04    0.38E-04    0.11E-06
   1      9    11.527     4.083    0.67E-04    0.79E-04    0.20E-06
   2      9    11.527    65.342    0.13E-03    0.28E-03    0.26E-06
   2      9    11.527    61.381    0.13E-03    0.29E-03    0.26E-06
   0      9    11.527    65.742    0.32E-04    0.21E-04    0.72E-07
   0      9    11.527    30.431    0.28E-04    0.19E-04    0.65E-07
 Optimization of the real space projectors (new method)

 maximal supplied QI-value         = 16.25
 optimisation between [QCUT,QGAM] = [ 11.54, 23.24] = [ 37.28,151.24] Ry
 Optimized for a Real-space Cutoff    1.53 Angstroem

   l    n(q)    QCUT    max X(q) W(low)/X(q) W(high)/X(q)  e(spline)
   2     10    11.539     8.936    0.13E-03    0.18E-03    0.23E-06
   2     10    11.539     8.183    0.16E-03    0.22E-03    0.28E-06
   0     11    11.539    62.777    0.61E-04    0.20E-04    0.15E-06
   0     11    11.539    50.556    0.58E-04    0.19E-04    0.14E-06
   1     10    11.539    38.422    0.20E-04    0.75E-05    0.16E-06
   1     10    11.539    22.623    0.19E-04    0.69E-05    0.15E-06
  PAW_PBE Gd 23Dec2003                  :
  PAW_PBE Cu_pv 06Sep2000               :
  PAW_PBE Ge_d 03Jul2007                :

 POSCAR: Gd1 Cu2 Ge2
  positions in direct lattice
 exchange correlation table for  LEXCH =        8
   RHO(1)=    0.500       N(1)  =     2000
   RHO(2)=  100.500       N(2)  =     4000

 VTST: version 4.2, (08/11/21)

 CHAIN: initializing optimizer

 OPT: Using VASP Dynamics algorithm
 CHAIN: Read ICHAIN             0

 POSCAR: Gd1 Cu2 Ge2
  positions in direct lattice

 ion  position               nearest neighbor table
   1  0.000  0.000  0.000-   4 3.12   4 3.12   5 3.12   5 3.12   4 3.20   5 3.20   4 3.20   5 3.20

   2  0.250  0.250  0.230-   5 2.45   4 2.45   4 2.45   5 2.46
   3  0.750  0.750  0.770-   4 2.45   5 2.45   5 2.45   4 2.46
   4  0.621  0.621  0.396-   3 2.45   2 2.45   2 2.45   3 2.46   5 2.49   1 3.12   1 3.12   1 3.20
                             1 3.20
   5  0.379  0.379  0.604-   2 2.45   3 2.45   3 2.45   2 2.46   4 2.49   1 3.12   1 3.12   1 3.20
                             1 3.20

  LATTYP: Found a base centered monoclinic cell.
 ALAT       =    11.0662400000
 B/A-ratio  =     0.3707824880
 C/A-ratio  =     0.3713318367
 COS(beta)  =    -0.3630742855

  Lattice vectors:

 A1 = (  -2.0515840000,  -5.5331200000,   0.0000000000)
 A2 = (   2.0515840000,  -5.5331200000,   0.0000000000)
 A3 = (   0.0000000000,   1.4919620000,   3.8288330000)

Analysis of symmetry for initial positions (statically):
 Subroutine PRICEL returns:
 Original cell was already a primitive cell.

 Routine SETGRP: Setting up the symmetry group for a
 base centered monoclinic supercell.

 Subroutine GETGRP returns: Found  4 space group operations
 (whereof  4 operations were pure point group operations)
 out of a pool of  4 trial point group operations.

The static configuration has the point symmetry C_2h.

Analysis of symmetry for dynamics (positions and initial velocities):
 Subroutine PRICEL returns:
 Original cell was already a primitive cell.

[...]

The dynamic configuration has the point symmetry C_2h.

Analysis of structural, dynamic, and magnetic symmetry:
 Subroutine PRICEL returns:
 Original cell was already a primitive cell.

 Routine SETGRP: Setting up the symmetry group for a
 base centered monoclinic supercell.

 Subroutine GETGRP returns: Found  4 space group operations
 (whereof  4 operations were pure point group operations)
 out of a pool of  4 trial point group operations.

The overall configuration has the point symmetry C_2h.

 Subroutine INISYM returns: Found  4 space group operations
 (whereof  4 operations are pure point group operations),
 and found     1 'primitive' translations

                                     Primitive cell

  volume of cell :      86.9272

  direct lattice vectors                    reciprocal lattice vectors
     2.051584000  5.533120000  0.000000000     0.243714125  0.090364930 -0.035212045
    -2.051584000  5.533120000  0.000000000    -0.243714125  0.090364930 -0.035212045
     0.000000000  1.491962000  3.828833000     0.000000000 -0.000000000  0.261176186

  length of vectors
     5.901221386  5.901221386  4.109247224     0.262301894  0.262301894  0.261176186

  position of ions in fractional coordinates (direct lattice)
     0.000000000  0.000000000  0.000000000
     0.249790000  0.249790000  0.229577000
     0.750210000  0.750210000  0.770423000
     0.620527000  0.620527000  0.396037000
     0.379473000  0.379473000  0.603963000

  ion indices of the primitive-cell ions
   primitive index   ion index
                 1           1
                 2           2
                 3           3
                 4           4
                 5           5

 KPOINTS: Kpoints from vasprun.xml

Automatic generation of k-mesh.
 Grid dimensions read from file:
 generate k-points for:    5    5    8

 Generating k-lattice:

  Cartesian coordinates                     Fractional coordinates (reciprocal lattice)
     0.048742825  0.018072986 -0.007042409     0.200000000 -0.000000000  0.000000000
    -0.048742825  0.018072986 -0.007042409    -0.000000000  0.200000000  0.000000000
     0.000000000 -0.000000000  0.032647023     0.000000000  0.000000000  0.125000000

  Length of vectors
     0.052460379  0.052460379  0.032647023

  Shift w.r.t. Gamma in fractional coordinates (k-lattice)
     0.000000000  0.000000000  0.000000000

 TETIRR: Found    300 inequivalent tetrahedra from     1200

 Subroutine IBZKPT returns following result:

 Found     63 irreducible k-points:

 Following reciprocal coordinates:
            Coordinates               Weight
  0.000000  0.000000  0.000000      1.000000
  0.200000  0.000000  0.000000      4.000000
  0.400000  0.000000  0.000000      4.000000
  0.200000  0.200000  0.000000      2.000000
  0.400000  0.200000  0.000000      4.000000
 -0.400000  0.200000  0.000000      4.000000
 -0.200000  0.200000  0.000000      2.000000
  0.400000  0.400000  0.000000      2.000000
 -0.400000  0.400000  0.000000      2.000000
  0.000000  0.000000  0.125000      2.000000
  0.200000  0.000000  0.125000      4.000000
  0.400000  0.000000  0.125000      4.000000
 -0.400000  0.000000  0.125000      4.000000
 -0.200000  0.000000  0.125000      4.000000
  0.200000  0.200000  0.125000      2.000000
  0.400000  0.200000  0.125000      4.000000
 -0.400000  0.200000  0.125000      4.000000
 -0.200000  0.200000  0.125000      4.000000
  0.400000  0.400000  0.125000      2.000000
 -0.400000  0.400000  0.125000      4.000000
 -0.200000  0.400000  0.125000      4.000000
 -0.400000 -0.400000  0.125000      2.000000
 -0.200000 -0.400000  0.125000      4.000000
 -0.200000 -0.200000  0.125000      2.000000
  0.000000  0.000000  0.250000      2.000000
  0.200000  0.000000  0.250000      4.000000
  0.400000  0.000000  0.250000      4.000000
 -0.400000  0.000000  0.250000      4.000000
 -0.200000  0.000000  0.250000      4.000000
  0.200000  0.200000  0.250000      2.000000
  0.400000  0.200000  0.250000      4.000000
 -0.400000  0.200000  0.250000      4.000000
 -0.200000  0.200000  0.250000      4.000000
  0.400000  0.400000  0.250000      2.000000
 -0.400000  0.400000  0.250000      4.000000
 -0.200000  0.400000  0.250000      4.000000
 -0.400000 -0.400000  0.250000      2.000000
 -0.200000 -0.400000  0.250000      4.000000
 -0.200000 -0.200000  0.250000      2.000000
  0.000000  0.000000  0.375000      2.000000
  0.200000  0.000000  0.375000      4.000000
  0.400000  0.000000  0.375000      4.000000
 -0.400000  0.000000  0.375000      4.000000
 -0.200000  0.000000  0.375000      4.000000
  0.200000  0.200000  0.375000      2.000000
  0.400000  0.200000  0.375000      4.000000
 -0.400000  0.200000  0.375000      4.000000
 -0.200000  0.200000  0.375000      4.000000
  0.400000  0.400000  0.375000      2.000000
 -0.400000  0.400000  0.375000      4.000000
 -0.200000  0.400000  0.375000      4.000000
 -0.400000 -0.400000  0.375000      2.000000
 -0.200000 -0.400000  0.375000      4.000000
 -0.200000 -0.200000  0.375000      2.000000
  0.000000  0.000000  0.500000      1.000000
  0.200000  0.000000  0.500000      4.000000
  0.400000  0.000000  0.500000      4.000000
  0.200000  0.200000  0.500000      2.000000
  0.400000  0.200000  0.500000      4.000000
 -0.400000  0.200000  0.500000      4.000000
 -0.200000  0.200000  0.500000      2.000000
  0.400000  0.400000  0.500000      2.000000
 -0.400000  0.400000  0.500000      2.000000

 Following cartesian coordinates:
            Coordinates               Weight
  0.000000  0.000000  0.000000      1.000000
  0.048743  0.018073 -0.007042      4.000000
  0.097486  0.036146 -0.014085      4.000000
  0.000000  0.036146 -0.014085      2.000000
  0.048743  0.054219 -0.021127      4.000000
 -0.146228 -0.018073  0.007042      4.000000
 -0.097486  0.000000  0.000000      2.000000
  0.000000  0.072292 -0.028170      2.000000
 -0.194971  0.000000  0.000000      2.000000
  0.000000  0.000000  0.032647      2.000000
  0.048743  0.018073  0.025605      4.000000
  0.097486  0.036146  0.018562      4.000000
[...]
  287          fft3d_mpi                             0.000437                          3   4
  288            fftbrc_mpi                            0.000342                        3   5
  289              fftbas_plan_mpi                       0.000341                      3   6
  290                map_forward                           0.000178                    4   7
  291                  map_gather                            0.000039                  2   8
  292                  m_alltoallv_z                         0.000025                  2   8
  293                  map_scatter                           0.000084                  2   8
  294                map_backward                          0.000075                    2   7
  295                  map_gather                            0.000019                  1   8
  296                  m_alltoallv_z                         0.000011                  1   8
  297                  map_scatter                           0.000032                  1   8
  298          m_sumb_d                              0.000009                          2   4
  299          pothar                                0.000076                          1   4
  300            m_sumb_d                              0.000009                        1   5
  301        brmix                                 0.004697                            1   3
  302          m_sumb_d                              0.000022                          6   4
  303          brpre                                 0.000015                          2   4
  304          setg0                                 0.000531                          1   4
  305          broyd                                 0.003432                          1   4
  306            m_sumb_d                              0.000352                       51   5
  307            brget                                 0.000594                      229   5
  308            brsav                                 0.000131                       49   5
  309        m_bcast_d                             0.000017                            2   3
  310      potlok                                0.020890                              2   2
  311        fft3d_mpi                             0.013902                           36   3
  312          fftbrc_mpi                            0.011455                         36   4
  313            fftbas_plan_mpi                       0.011440                       36   5
  314              map_forward                           0.003410                     40   6
  315                map_gather                            0.001152                   24   7
  316                m_alltoallv_z                         0.001052                   24   7
  317                map_scatter                           0.001033                   24   7
  318              map_backward                          0.002613                     32   6
  319                map_gather                            0.000896                   16   7
  320                m_alltoallv_z                         0.000680                   16   7
  321                map_scatter                           0.000865                   16   7
  322              dfftw_execute                         0.003632                     30   6
  323        m_sumb_d                              0.000020                            5   3
  324        pothar                                0.000779                            2   3
  325          m_sumb_d                              0.000054                          2   4
  326        m_bcast_d                             0.001286                            4   3
  327      potlok_metagga                        0.000001                              1   2
  328      set_dd_magatom                        0.000005                              1   2
  329      set_dd_paw                            1.508830                              1   2
  330        m_sumb_d                              0.930236                            7   3
  331      augmentation_charge                   0.082982                              1   2
  332        fft3d_mpi                             0.024429                            2   3
  333          fftbrc_mpi                            0.021494                          2   4
  334            fftbas_plan_mpi                       0.021491                        2   5
  335              dfftw_execute                         0.015069                      6   6
  336              map_backward                          0.006222                      4   6
  337                map_gather                            0.001765                    2   7
  338                m_alltoallv_z                         0.003050                    2   7
  339                map_scatter                           0.001402                    2   7
  340      densta                                3.557754                              1   2

 Flat profile

 m_sumb_d                              359.373270     2071282
 raccmu_                               326.025141      675129
 eddav                                 307.207867         224
 lapack                                288.730687      675129
 set_dd_paw                            127.546273         222
 redis_pw                              122.725539     3712338
 m_alltoall_d                           68.587880     9855762
 phaser                                 63.063010       29043
 eccp                                   34.766254      395136
 densta                                 31.907858         225
 redis_proj                             31.496179     4667586
 fft3d                                  29.596039     3969343
 fftwav                                 25.023563     2619085
 orth1                                  21.455092     2025639
 w1_copy                                19.745110     4050774
 racc0mu_acc                            19.738087      675129
 soft_charge                            19.560788         220
 overl                                  19.346017     2305506
 rpromu_acc                             14.840509      484113
 setup_precond                          14.364513      395136
 hamiltmu                               13.875710      675129
 setdij_                                13.695261         248
 m_bcast_z                              13.681227      682185
 augmentation_charge                    12.965399         221
 m_bcast_d                              11.276480     1350707
 init_acc                               10.769710           1
 overl_mu                               10.377125      675129
 ggemm                                   9.109117      872697
 total_time                              7.786796           1
 pw_charge                               7.361263      290773
 dfftw_execute                           7.352136        5700
 depsum                                  6.358800         220
 kinhamil                                6.075614     1350258
 vhamil                                  6.074764     1350258
 newband                                 5.706257      703353
 fftext_mpi                              5.663591     1350258
 apply_precond                           5.239530      955122
 fftwav_mpi                              3.469840     2619085
 acc_init_cublas                         2.444027           1
 m_alltoallv_z                           2.214882        8555
 fft3d_mpi                               1.704644     1357929
 rpro_isp                                1.309551         819
 map_gather                              1.028501        8555
 set_charge                              1.027464         220
 map_scatter                             1.016362        8555
 lincom                                  0.911621       28350
 acc_init_cusolver                       0.788104           1
 potlok                                  0.629275         222
 w1_projall                              0.475163      477561
 broyd                                   0.441038         220
 elmin                                   0.393012           1
 fftbas_plan_mpi                         0.359317        7671
 rspher_all                              0.149476          14
 brmix                                   0.140188         220
 truncate_high_frequency_w1              0.135334     1745394
 sphpro_fast                             0.122735           2
 setg0                                   0.118915         222
 brget                                   0.118136       47769
 acc_cufft_makeplan                      0.109631          19
 proall                                  0.050349           1
 map_backward                            0.041061        8106
 map_forward                             0.040187        7236
 brsav                                   0.032207       13578
 orthch                                  0.029520           1
 choleski                                0.020550         126
 pothar                                  0.016660         223
 strnlr                                  0.016108           1
 force_and_stress                        0.011455           1
 fornlr                                  0.006179           1
 fft_gq                                  0.005888         220
 fftbrc_mpi                              0.004458        7671
 inisym                                  0.004341           1
 brpre                                   0.003606         440
 stufak                                  0.002483           1
 forhar                                  0.001417           2
 strelo                                  0.001258           1
 set_dd_magatom                          0.001040         222
 vectorpot                               0.000925         221
 strehar                                 0.000900           1
 forloc                                  0.000760           1
 strkin                                  0.000601           1
 fewald                                  0.000332           1
 chggra                                  0.000224           1
 brgrid                                  0.000132           1
 rsp                                     0.000075           1
 fordep                                  0.000053           1
 crpa_reader                             0.000026           1
 potlok_metagga                          0.000020         221
 rcp                                     0.000013           1
 posmap                                  0.000013           2
 acc_cufft_makeplans                     0.000010           3
 rotate_active_occupied_orbital          0.000000           1
 redis_pw_over_bands                     0.000000           1
  summed up times     2117.868525981903

 Accumulative profile

 total_time                           2117.868526           1
 elmin                                2080.759289           1
 eddav                                1635.699621         224
 hamiltmu                              397.873834      675129
 m_sumb_d                              359.373270     2071282
 raccmu_                               356.140353      675129
 set_dd_paw                            336.648511         222
 lapack                                288.730687      675129
 redis_pw                              156.731262     3712338
 newband                                83.921587      703353
 m_alltoall_d                           68.587880     9855762
 redis_proj                             66.078336     4667586
 phaser                                 63.063010       29043
 set_charge                             62.470254         220
 fftwav_mpi                             48.444200     2619085
 fftwav                                 44.974360     2619085
 soft_charge                            36.383105         220
 eccp                                   34.766254      395136
 densta                                 31.907858         225
 fft3d                                  29.596039     3969343
 fft3d_mpi                              23.406791     1357929
 kinhamil                               21.783006     1350258
 orth1                                  21.455092     2025639
 setdij_                                20.140601         248
 w1_copy                                19.745110     4050774
 racc0mu_acc                            19.738087      675129
 overl                                  19.346017     2305506
 augmentation_charge                    18.591118         221
 fftext_mpi                             15.707392     1350258
 rpromu_acc                             14.840509      484113
 setup_precond                          14.364513      395136
 w1_projall                             14.250999      477561
 m_bcast_z                              13.681227      682185
 fftbrc_mpi                             12.056905        7671
 fftbas_plan_mpi                        12.052447        7671
 m_bcast_d                              11.276480     1350707
 init_acc                               10.769710           1
 overl_mu                               10.377125      675129
 ggemm                                   9.109117      872697
 force_and_stress                        8.735937           1
 pw_charge                               7.361263      290773
 dfftw_execute                           7.352136        5700
 depsum                                  6.375580         220
 vhamil                                  6.074764     1350258
 apply_precond                           5.239530      955122
 strnlr                                  3.600061           1
 rpro_isp                                3.060522         819
 acc_init_cublas                         2.444027           1
 map_backward                            2.270724        8106
 m_alltoallv_z                           2.214882        8555
 map_forward                             2.070269        7236
 potlok                                  1.699409         222
 fornlr                                  1.203083           1
 map_gather                              1.028501        8555
 map_scatter                             1.016362        8555
 brmix                                   0.935798         220
 lincom                                  0.911621       28350
 acc_init_cusolver                       0.788104           1
 broyd                                   0.663240         220
 fordep                                  0.488840           1
 orthch                                  0.408051           1
 proall                                  0.280764           1
 fft_gq                                  0.241782         220
 rspher_all                              0.149476          14
 truncate_high_frequency_w1              0.135334     1745394
 sphpro_fast                             0.125814           2
 setg0                                   0.118915         222
 brget                                   0.118136       47769
 acc_cufft_makeplans                     0.109641           3
 acc_cufft_makeplan                      0.109631          19
 brsav                                   0.032207       13578
 choleski                                0.020550         126
 pothar                                  0.018386         223
 inisym                                  0.004354           1
 brpre                                   0.003606         440
 stufak                                  0.002483           1
 forhar                                  0.001431           2
 strelo                                  0.001348           1
 set_dd_magatom                          0.001040         222
 fewald                                  0.001012           1
 vectorpot                               0.000925         221
 strehar                                 0.000903           1
 forloc                                  0.000814           1
 chggra                                  0.000746           1
 strkin                                  0.000609           1
 brgrid                                  0.000132           1
 rsp                                     0.000075           1
 crpa_reader                             0.000026           1
 potlok_metagga                          0.000020         221
 rcp                                     0.000013           1
 posmap                                  0.000013           2
 rotate_active_occupied_orbital          0.000000           1
 redis_pw_over_bands                     0.000000           1

Profiling took   8.266406  4.116057  0.003295  0.003210 seconds
Profiling took   5.336925 seconds