 vasp.6.3.2 27Jun22 (build Jul  3 2023 11:46:21) complex
 executed on    LinuxNV_CrayMPICH date 2024.04.21  01:04:46

 INCAR:
   ADDGRID = True
   ALGO = Normal
   EDIFF = 0.0052
   ENCUT = 520.0
   IBRION = -1
   ICHARG = 0
   ISIF = 3
   ISMEAR = -5
   ISPIN = 2
   KPOINT_BSE = -1 0 0 0
   LAECHG = True
   LASPH = True
   LCHARG = True
   LELF = True
   LORBIT = 11
   LREAL = Auto
   LVHAR = True
   LWAVE = False
   MAGMOM = 2*7.0 102*0.6
   NELM = 1000
   NSW = 0
   PREC = accurate
   SIGMA = 0.05

 POTCAR:    PAW_PBE Eu 23Dec2003
 POTCAR:    PAW_PBE H 15Jun2001
 POTCAR:    PAW_PBE C 08Apr2002
 POTCAR:    PAW_PBE N 08Apr2002
 POTCAR:    PAW_PBE Cl 06Sep2000
 POTCAR:    PAW_PBE Eu 23Dec2003
   VRHFIN =Eu : [core=Kr4d]

   TITEL  = PAW_PBE Eu 23Dec2003
   POMASS =  151.965; ZVAL   =   17.000    mass and valenz
   ENMAX  =  249.668; ENMIN  =  187.251 eV

   TITEL  = PAW_PBE H 15Jun2001
   POMASS =    1.000; ZVAL   =    1.000    mass and valenz
   ENMAX  =  250.000; ENMIN  =  200.000 eV

   TITEL  = PAW_PBE C 08Apr2002
   POMASS =   12.011; ZVAL   =    4.000    mass and valenz
   ENMAX  =  400.000; ENMIN  =  300.000 eV

   TITEL  = PAW_PBE N 08Apr2002
   POMASS =   14.001; ZVAL   =    5.000    mass and valenz
   ENMAX  =  400.000; ENMIN  =  300.000 eV

   TITEL  = PAW_PBE Cl 06Sep2000
   POMASS =   35.453; ZVAL   =    7.000    mass and valenz
   ENMAX  =  262.472; ENMIN  =  196.854 eV

 Optimization of the real space projectors (new method)

 maximal supplied QI-value         = 13.42
 optimisation between [QCUT,QGAM] = [ 11.67, 23.35] = [ 38.16,152.62] Ry
 Optimized for a Real-space Cutoff    1.63 Angstroem

   l    n(q)    QCUT    max X(q) W(low)/X(q) W(high)/X(q)  e(spline)
   0     11    11.673    10.400    0.14E-04    0.18E-05    0.24E-07
   0     11    11.673    10.768    0.21E-04    0.32E-05    0.49E-07
   1     11    11.673     4.094    0.40E-05    0.13E-04    0.93E-07
   1     11    11.673     4.009    0.11E-04    0.46E-04    0.33E-06
   2     10    11.673    29.030    0.79E-04    0.60E-04    0.70E-06
   2     10    11.673    19.941    0.80E-04    0.60E-04    0.71E-06
   3     10    11.673    88.889    0.23E-03    0.29E-03    0.30E-06
   3     10    11.673    76.102    0.23E-03    0.30E-03    0.30E-06
 Optimization of the real space projectors (new method)

[...]

   l    n(q)    QCUT    max X(q) W(low)/X(q) W(high)/X(q)  e(spline)
   0     10    11.561    79.467    0.46E-04    0.78E-04    0.61E-06
   0     10    11.561    66.151    0.45E-04    0.77E-04    0.61E-06
   1      9    11.561    18.886    0.22E-03    0.13E-03    0.12E-05
   1      9    11.561    13.488    0.23E-03    0.13E-03    0.12E-05
 Optimization of the real space projectors (new method)

 maximal supplied QI-value         = 19.84
 optimisation between [QCUT,QGAM] = [ 11.51, 23.22] = [ 37.09,150.92] Ry
 Optimized for a Real-space Cutoff    1.21 Angstroem

   l    n(q)    QCUT    max X(q) W(low)/X(q) W(high)/X(q)  e(spline)
   0      8    11.508   168.010    0.86E-04    0.17E-03    0.49E-07
   0      8    11.508   164.674    0.84E-04    0.16E-03    0.48E-07
   1      8    11.508    69.222    0.18E-03    0.70E-04    0.97E-07
   1      8    11.508    56.786    0.18E-03    0.67E-04    0.95E-07
  PAW_PBE Eu 23Dec2003                  :
  PAW_PBE H 15Jun2001                   :
  PAW_PBE C 08Apr2002                   :
  PAW_PBE N 08Apr2002                   :
  PAW_PBE Cl 06Sep2000                  :

 POSCAR: Eu2 H64 C16 N8 Cl14
  positions in direct lattice
 exchange correlation table for  LEXCH =        8
   RHO(1)=    0.500       N(1)  =     2000
   RHO(2)=  100.500       N(2)  =     4000

 VTST: version 4.2, (08/11/21)

 CHAIN: initializing optimizer

 OPT: Using VASP Dynamics algorithm
 CHAIN: Read ICHAIN             0

 POSCAR: Eu2 H64 C16 N8 Cl14
  positions in direct lattice

 ion  position               nearest neighbor table
   1  0.929  0.500  0.000-  99 2.74 100 2.74  95 2.75  96 2.75  91 2.75  92 2.75
   2  0.071  0.000  0.500- 101 2.74 102 2.74  97 2.75  98 2.75  93 2.75  94 2.75
   3  0.977  0.773  0.174-  83 1.05
   4  0.977  0.227  0.826-  84 1.05
   5  0.023  0.727  0.674-  85 1.05
   6  0.023  0.273  0.326-  86 1.05
   7  0.962  0.889  0.256-  83 1.04
   8  0.962  0.111  0.744-  84 1.04
   9  0.038  0.611  0.756-  85 1.04
  10  0.038  0.389  0.244-  86 1.04
  11  0.625  0.678  0.934-  87 1.04
  12  0.625  0.322  0.066-  88 1.04
  13  0.375  0.822  0.434-  89 1.04
  14  0.375  0.178  0.566-  90 1.04
  15  0.542  0.822  0.942-  87 1.06
  16  0.542  0.178  0.058-  88 1.06
  17  0.458  0.678  0.442-  89 1.06
  18  0.458  0.322  0.558-  90 1.06
  19  0.546  0.657  0.762-  67 1.10
  20  0.546  0.343  0.238-  68 1.10
  21  0.454  0.843  0.262-  69 1.10
  22  0.454  0.157  0.738-  70 1.10
  23  0.662  0.794  0.783-  67 1.10
  24  0.662  0.206  0.217-  68 1.10
  25  0.338  0.706  0.283-  69 1.10
  26  0.338  0.294  0.717-  70 1.10
  27  0.462  0.812  0.772-  67 1.10
  28  0.462  0.188  0.228-  68 1.10
  29  0.538  0.688  0.272-  69 1.10
  30  0.538  0.312  0.728-  70 1.10
  31  0.814  0.016  0.141-  71 1.10
  32  0.814  0.984  0.859-  72 1.10
  33  0.186  0.484  0.641-  73 1.10
  34  0.186  0.516  0.359-  74 1.10
  35  0.729  0.866  0.169-  71 1.10
  36  0.729  0.134  0.831-  72 1.10
  37  0.271  0.634  0.669-  73 1.10
  38  0.271  0.366  0.331-  74 1.10
  39  0.826  0.887  0.055-  71 1.10
  40  0.826  0.113  0.945-  72 1.10
  41  0.174  0.613  0.555-  73 1.10
  42  0.174  0.387  0.445-  74 1.10
  43  0.121  0.900  0.063-  75 1.10
  44  0.121  0.100  0.937-  76 1.10
  45  0.879  0.600  0.563-  77 1.10
  46  0.879  0.400  0.437-  78 1.10
  47  0.204  0.899  0.183-  75 1.10
  48  0.204  0.101  0.817-  76 1.10
  49  0.796  0.601  0.683-  77 1.10
  50  0.796  0.399  0.317-  78 1.10
  51  0.096  0.033  0.144-  75 1.10
  52  0.096  0.967  0.856-  76 1.10
  53  0.904  0.467  0.644-  77 1.10
  54  0.904  0.533  0.356-  78 1.10
  55  0.297  0.729  0.910-  79 1.10
  56  0.297  0.271  0.090-  80 1.10
  57  0.703  0.771  0.410-  81 1.10
  58  0.703  0.229  0.590-  82 1.10
  59  0.386  0.667  0.018-  79 1.10
  60  0.386  0.333  0.982-  80 1.10
[...]
  88  0.536  0.268  0.093-  12 1.04  16 1.06  68 1.49  80 1.49
  89  0.464  0.768  0.407-  13 1.04  17 1.06  69 1.49  81 1.49
  90  0.464  0.232  0.593-  14 1.04  18 1.06  70 1.49  82 1.49
  91  0.938  0.731  0.907-   1 2.75
  92  0.938  0.269  0.093-   1 2.75
  93  0.062  0.769  0.407-   2 2.75
  94  0.062  0.231  0.593-   2 2.75
  95  0.127  0.586  0.141-   1 2.75
  96  0.127  0.414  0.859-   1 2.75
  97  0.873  0.914  0.641-   2 2.75
  98  0.873  0.086  0.359-   2 2.75
  99  0.701  0.421  0.879-   1 2.74
 100  0.701  0.579  0.121-   1 2.74
 101  0.299  0.079  0.379-   2 2.74
 102  0.299  0.921  0.621-   2 2.74
 103  0.481  0.000  0.000-
 104  0.519  0.500  0.500-

  LATTYP: Found a simple orthorhombic cell.
 ALAT       =     8.8953210000
 B/A-ratio  =     1.1922476997
 C/A-ratio  =     1.5260839940

  Lattice vectors:

 A1 = (   8.8953210000,   0.0000000000,   0.0000000000)
 A2 = (   0.0000000000,  10.6054260000,   0.0000000000)
 A3 = (   0.0000000000,   0.0000000000,  13.5750070000)

Analysis of symmetry for initial positions (statically):
 Subroutine PRICEL returns:
 Original cell was already a primitive cell.

 Routine SETGRP: Setting up the symmetry group for a
 simple orthorhombic supercell.

 Subroutine GETGRP returns: Found  4 space group operations
 (whereof  2 operations were pure point group operations)
 out of a pool of  8 trial point group operations.

The static configuration has the point symmetry C_2 .
 The point group associated with its full space group is D_2 .

Analysis of symmetry for dynamics (positions and initial velocities):
 Subroutine PRICEL returns:
 Original cell was already a primitive cell.

[...]

The dynamic configuration has the point symmetry C_2 .
 The point group associated with its full space group is D_2 .

Analysis of structural, dynamic, and magnetic symmetry:
 Subroutine PRICEL returns:
 Original cell was already a primitive cell.

 Routine SETGRP: Setting up the symmetry group for a
 simple orthorhombic supercell.

 Subroutine GETGRP returns: Found  4 space group operations
 (whereof  2 operations were pure point group operations)
 out of a pool of  8 trial point group operations.

The overall configuration has the point symmetry C_2 .
 The point group associated with its full space group is D_2 .

 Subroutine INISYM returns: Found  4 space group operations
 (whereof  2 operations are pure point group operations),
 and found     1 'primitive' translations

                                     Primitive cell

  volume of cell :    1280.6481

  direct lattice vectors                    reciprocal lattice vectors
     8.895321000  0.000000000  0.000000000     0.112418652  0.000000000  0.000000000
     0.000000000 10.605426000  0.000000000     0.000000000  0.094291356  0.000000000
     0.000000000  0.000000000 13.575007000     0.000000000  0.000000000  0.073664787

  length of vectors
     8.895321000 10.605426000 13.575007000     0.112418652  0.094291356  0.073664787

  position of ions in fractional coordinates (direct lattice)
     0.929396000  0.500000000  0.000000000
     0.070604000  0.000000000  0.500000000
     0.977313000  0.772582000  0.173977000
     0.977313000  0.227418000  0.826023000
     0.022687000  0.727418000  0.673977000
     0.022687000  0.272582000  0.326023000
     0.962177000  0.889407000  0.256010000
     0.962177000  0.110593000  0.743990000
     0.037823000  0.610593000  0.756010000
     0.037823000  0.389407000  0.243990000
     0.624777000  0.678222000  0.933824000
     0.624777000  0.321778000  0.066176000
     0.375223000  0.821778000  0.433824000
     0.375223000  0.178222000  0.566176000
     0.542240000  0.821972000  0.942150000
     0.542240000  0.178028000  0.057850000
     0.457760000  0.678028000  0.442150000
     0.457760000  0.321972000  0.557850000
     0.545938000  0.657225000  0.762486000
     0.545938000  0.342775000  0.237514000
     0.454062000  0.842775000  0.262486000
     0.454062000  0.157225000  0.737514000
     0.661689000  0.793647000  0.783132000
     0.661689000  0.206353000  0.216868000
     0.338311000  0.706353000  0.283132000
     0.338311000  0.293647000  0.716868000
     0.461811000  0.811613000  0.771693000
     0.461811000  0.188387000  0.228307000
     0.538189000  0.688387000  0.271693000
     0.538189000  0.311613000  0.728307000
     0.814235000  0.016211000  0.141217000
     0.814235000  0.983789000  0.858783000
     0.185765000  0.483789000  0.641217000
     0.185765000  0.516211000  0.358783000
     0.728822000  0.866442000  0.169083000
     0.728822000  0.133558000  0.830917000
     0.271178000  0.633558000  0.669083000
     0.271178000  0.366442000  0.330917000
     0.826203000  0.887115000  0.054866000
     0.826203000  0.112885000  0.945134000
     0.173797000  0.612885000  0.554866000
     0.173797000  0.387115000  0.445134000
     0.120696000  0.899757000  0.062627000
     0.120696000  0.100243000  0.937373000
     0.879304000  0.600243000  0.562627000
     0.879304000  0.399757000  0.437373000
     0.203751000  0.899397000  0.183015000
[...]
  318                map_forward                           0.000471                    4   7
  319                  map_gather                            0.000078                  2   8
  320                  m_alltoallv_z                         0.000029                  2   8
  321                  map_scatter                           0.000321                  2   8
  322                map_backward                          0.000178                    2   7
  323                  map_gather                            0.000039                  1   8
  324                  m_alltoallv_z                         0.000013                  1   8
  325                  map_scatter                           0.000104                  1   8
  326          m_sumb_d                              0.000010                          2   4
  327          pothar                                0.000116                          1   4
  328            m_sumb_d                              0.000020                        1   5
  329        brmix                                 0.023047                            1   3
  330          m_sumb_d                              0.000042                          6   4
  331          brpre                                 0.000167                          2   4
  332          setg0                                 0.004919                          1   4
  333          broyd                                 0.012445                          1   4
  334            m_sumb_d                              0.000628                       38   5
  335            brget                                 0.002885                      164   5
  336            brsav                                 0.000612                       36   5
  337        m_bcast_d                             0.000146                            2   3
  338      potlok                                0.154002                              2   2
  339        fft3d_mpi                             0.087831                           36   3
  340          fftbrc_mpi                            0.073668                         36   4
  341            fftbas_plan_mpi                       0.073642                       36   5
  342              map_forward                           0.020116                     40   6
  343                map_gather                            0.005431                   24   7
  344                m_alltoallv_z                         0.008612                   24   7
  345                map_scatter                           0.005776                   24   7
  346              map_backward                          0.016931                     32   6
  347                map_gather                            0.003806                   16   7
  348                m_alltoallv_z                         0.007817                   16   7
  349                map_scatter                           0.005019                   16   7
  350              dfftw_execute                         0.034438                     30   6
  351        m_sumb_d                              0.000031                            5   3
  352        pothar                                0.006046                            2   3
  353          m_sumb_d                              0.000028                          2   4
  354        m_bcast_d                             0.009943                            4   3
  355      potlok_metagga                        0.000000                              1   2
  356      set_dd_magatom                        0.000005                              1   2
  357      set_dd_paw                            6.321500                              1   2
  358        m_sumb_d                              0.742146                            7   3
  359      augmentation_charge                   0.369426                              1   2
  360        fft3d_mpi                             0.248471                            2   3
  361          fftbrc_mpi                            0.214925                          2   4
  362            fftbas_plan_mpi                       0.214920                        2   5
  363              dfftw_execute                         0.133536                      6   6
  364              map_backward                          0.081101                      4   6
  365                map_gather                            0.029633                    2   7
  366                m_alltoallv_z                         0.017818                    2   7
  367                map_scatter                           0.033637                    2   7
  368      fftwav_mpi                           12.059573                           2928   2
  369        fftwav                               12.055358                         2928   3
  370          fft3d                                11.138851                       2928   4
  371      densta                               11.301002                              1   2

 Flat profile

 set_dd_paw                            188.901320          34
 m_sumb_d                               45.311011      211907
 eddav                                  40.907770          36
 total_time                             35.450400           1
 lapack                                 32.315633       68821
 raccmu_                                32.315156       68821
 redis_pw                               17.634835      370712
 fft3d                                  16.460587      405080
 dfftw_execute                          15.522748        1260
 densta                                 12.972688          37
 init_acc                               12.123158           1
 phaser                                  8.476159         680
 m_alltoall_d                            7.612386      984232
 setdij_                                 6.591398          60
 eccp                                    4.957619       35136
 augmentation_charge                     4.138803          34
 fftwav                                  3.798239      270192
 orth1                                   3.672784      206591
 hamiltmu                                3.497777       68821
 fft3d_mpi                               3.491794      136191
 redis_proj                              3.203777      470480
 map_scatter                             3.066603        1457
 map_gather                              2.792759        1457
 m_bcast_z                               2.631861       72725
 rpromu_acc                              2.525057       54293
 acc_init_cublas                         2.419450           1
 m_alltoallv_z                           2.387616        1457
 racc0mu_acc                             2.011490       68821
 w1_copy                                 2.003266      404664
 overl                                   1.948271      234656
 soft_charge                             1.307604          33
 setup_precond                           1.292657       35136
 set_charge                              1.251460          33
 ggemm                                   1.219883       86677
 pw_charge                               1.187025       19936
 m_bcast_d                               1.138873      137715
 overl_mu                                1.082554       68821
 acc_init_cusolver                       0.784149           1
 rpro_isp                                0.761617         104
 sphpro_fast                             0.657111           2
 vhamil                                  0.623462      134888
 kinhamil                                0.608793      134888
 fftext_mpi                              0.577239      134888
 newband                                 0.574834       69397
 apply_precond                           0.541354       99752
 depsum                                  0.525043          33
 rspher_all                              0.517579          14
 potlok                                  0.473321          34
 fftwav_mpi                              0.359529      270192
 elmin                                   0.209811           1
 stufak                                  0.186443           1
 brmix                                   0.185196          32
 acc_cufft_makeplan                      0.157382          19
 proall                                  0.141062           1
 setg0                                   0.138447          34
 broyd                                   0.104823          32
 fftbas_plan_mpi                         0.094760        1303
 orthch                                  0.089518           1
 force_and_stress                        0.058426           1
 w1_projall                              0.049748       50965
 brget                                   0.047503        2762
 lincom                                  0.041073         592
 truncate_high_frequency_w1              0.013361      170024
 fft_gq                                  0.012361          33
 brsav                                   0.011532         662
 choleski                                0.011176          16
 rsp                                     0.010465           1
 map_forward                             0.010394        1248
 map_backward                            0.010338        1358
 pothar                                  0.009748          35
 forhar                                  0.009262           2
 strnlr                                  0.007576           1
 strelo                                  0.006633           1
 strehar                                 0.005634           1
 forloc                                  0.005267           1
 inisym                                  0.005104           1
 strkin                                  0.004120           1
 brpre                                   0.003210          64
 fornlr                                  0.002592           1
 fftbrc_mpi                              0.001040        1303
 brgrid                                  0.000691           1
 fewald                                  0.000358           1
 chggra                                  0.000349           1
 fordep                                  0.000260           1
 rcp                                     0.000245           1
 set_dd_magatom                          0.000165          34
 vectorpot                               0.000141          33
 posmap                                  0.000097           2
 crpa_reader                             0.000026           1
 acc_cufft_makeplans                     0.000011           3
 potlok_metagga                          0.000005          33
 rotate_active_occupied_orbital          0.000000           1
 redis_pw_over_bands                     0.000000           1
  summed up times     538.2728540897369

 Accumulative profile

 total_time                            538.272854           1
 elmin                                 427.647019           1
 set_dd_paw                            214.089414          34
 eddav                                 193.342050          36
 m_sumb_d                               45.311011      211907
 hamiltmu                               41.728004       68821
 raccmu_                                35.409199       68821
 lapack                                 32.315633       68821
 fft3d_mpi                              28.349860      136191
 fftbrc_mpi                             23.886259        1303
 fftbas_plan_mpi                        23.885218        1303
 setdij_                                23.735637          60
 redis_pw                               21.658156      370712
 force_and_stress                       21.091059           1
 set_charge                             20.682197          33
 fftwav_mpi                             19.646548      270192
 fftwav                                 19.287019      270192
 fft3d                                  16.460587      405080
 dfftw_execute                          15.522748        1260
 densta                                 12.972688          37
 augmentation_charge                    12.635069          34
 init_acc                               12.123158           1
 newband                                 9.752030       69397
 phaser                                  8.476159         680
 m_alltoall_d                            7.612386      984232
 redis_proj                              6.792842      470480
 soft_charge                             6.369912          33
 eccp                                    4.957619       35136
 map_forward                             4.517028        1248
 map_backward                            3.750683        1358
 orth1                                   3.672784      206591
 map_scatter                             3.066603        1457
 strnlr                                  2.928834           1
 map_gather                              2.792759        1457
 m_bcast_z                               2.631861       72725
 rpromu_acc                              2.525057       54293
 acc_init_cublas                         2.419450           1
 m_alltoallv_z                           2.387616        1457
 fordep                                  2.366963           1
 rpro_isp                                2.241680         104
 kinhamil                                2.197566      134888
 racc0mu_acc                             2.011490       68821
 w1_copy                                 2.003266      404664
 overl                                   1.948271      234656
 fftext_mpi                              1.588773      134888
 w1_projall                              1.532046       50965
 setup_precond                           1.292657       35136
 ggemm                                   1.219883       86677
 pw_charge                               1.187025       19936
 m_bcast_d                               1.138873      137715
 overl_mu                                1.082554       68821
 fornlr                                  0.976035           1
 potlok                                  0.968621          34
 acc_init_cusolver                       0.784149           1
 sphpro_fast                             0.691666           2
 vhamil                                  0.623462      134888
 depsum                                  0.575227          33
 apply_precond                           0.541354       99752
 rspher_all                              0.517579          14
 brmix                                   0.514696          32
 orthch                                  0.389970           1
 fft_gq                                  0.302800          33
 proall                                  0.295533           1
 stufak                                  0.186443           1
 broyd                                   0.182145          32
 acc_cufft_makeplans                     0.157394           3
 acc_cufft_makeplan                      0.157382          19
 setg0                                   0.138447          34
 brget                                   0.047503        2762
 lincom                                  0.041073         592
 truncate_high_frequency_w1              0.013361      170024
 fewald                                  0.012216           1
 brsav                                   0.011532         662
 choleski                                0.011176          16
 rsp                                     0.010465           1
 strelo                                  0.010280           1
 pothar                                  0.010237          35
 forhar                                  0.009330           2
 forloc                                  0.006208           1
 strehar                                 0.005638           1
 inisym                                  0.005201           1
 strkin                                  0.004126           1
 brpre                                   0.003210          64
 chggra                                  0.001379           1
 brgrid                                  0.000691           1
 rcp                                     0.000245           1
 set_dd_magatom                          0.000165          34
 vectorpot                               0.000141          33
 posmap                                  0.000097           2
 crpa_reader                             0.000026           1
 potlok_metagga                          0.000005          33
 rotate_active_occupied_orbital          0.000000           1
 redis_pw_over_bands                     0.000000           1

Profiling took   0.842625  0.412016  0.003268  0.003157 seconds
Profiling took   0.520167 seconds