 vasp.6.3.2 27Jun22 (build Jul  3 2023 11:46:21) complex
 executed on    LinuxNV_CrayMPICH date 2024.04.22  02:43:30

 INCAR:
   ADDGRID = True
   ALGO = Normal
   EDIFF = 0.0013
   ENCUT = 520.0
   IBRION = -1
   ICHARG = 0
   ISIF = 3
   ISMEAR = -5
   ISPIN = 2
   ISTART = 1
   ISYM = 0
   LAECHG = True
   LASPH = True
   LCHARG = True
   LDAU = True
   LDAUJ = 0.0 0.0 0.0 0.0 0.0
   LDAUL = 0 0 2 0 0
   LDAUPRINT = 1
   LDAUTYPE = 2
   LDAUU = 0.0 0.0 3.32 0.0 0.0
   LMAXMIX = 6
   LORBIT = 11
   LREAL = False
   LVHAR = True
   LWAVE = False
   MAGMOM = 4*0.0 2*7.0 1*0.286 1*-1.68 1*0.004 1*0.007 1*0.041 1*-0.029 1*-0.003 1*0.006 1*0.001 1*-0.04 1*0.03 1*0.005 1*0.0 1*-0.053 1*0.005 1*-0.042 1*0.005 1*0.003 1*-0.002 1*-0.039
   NELM = 1000
   NSW = 0
   PREC = Accurate
   SIGMA = 0.05

 POTCAR:    PAW_PBE Sr_sv 07Sep2000
 POTCAR:    PAW_PBE Gd 23Dec2003
 POTCAR:    PAW_PBE Co 02Aug2007
 POTCAR:    PAW_PBE Cu_pv 06Sep2000
 POTCAR:    PAW_PBE O 08Apr2002
 POTCAR:    PAW_PBE Sr_sv 07Sep2000
   VRHFIN =Sr: 4s4p5s

   TITEL  = PAW_PBE Sr_sv 07Sep2000
   POMASS =   87.620; ZVAL   =   10.000    mass and valenz
   ENMAX  =  229.353; ENMIN  =  172.014 eV

   TITEL  = PAW_PBE Gd 23Dec2003
   POMASS =  157.250; ZVAL   =   18.000    mass and valenz
   ENMAX  =  256.472; ENMIN  =  192.354 eV

   TITEL  = PAW_PBE Co 02Aug2007
   POMASS =   58.933; ZVAL   =    9.000    mass and valenz
   ENMAX  =  267.968; ENMIN  =  200.976 eV

   TITEL  = PAW_PBE Cu_pv 06Sep2000
   POMASS =   63.546; ZVAL   =   17.000    mass and valenz
   ENMAX  =  368.648; ENMIN  =  276.486 eV

   TITEL  = PAW_PBE O 08Apr2002
   POMASS =   16.000; ZVAL   =    6.000    mass and valenz
   ENMAX  =  400.000; ENMIN  =  300.000 eV

  PAW_PBE Sr_sv 07Sep2000               :
  PAW_PBE Gd 23Dec2003                  :
  PAW_PBE Co 02Aug2007                  :
  PAW_PBE Cu_pv 06Sep2000               :
  PAW_PBE O 08Apr2002                   :

 POSCAR: Sr4 Gd2 Co2 Cu4 O14
  positions in direct lattice
 exchange correlation table for  LEXCH =        8
   RHO(1)=    0.500       N(1)  =     2000
   RHO(2)=  100.500       N(2)  =     4000

 VTST: version 4.2, (08/11/21)

 CHAIN: initializing optimizer

 OPT: Using VASP Dynamics algorithm
 CHAIN: Read ICHAIN             0

 POSCAR: Sr4 Gd2 Co2 Cu4 O14
  positions in direct lattice

 ion  position               nearest neighbor table
   1  0.850  0.836  0.695-  20 2.45  17 2.54  26 2.68  18 2.79  13 2.81  21 2.81  19 2.82  26 2.90
                            17 3.10   9 3.27  10 3.29  10 3.30   7 3.36   9 3.38   8 3.42   6 3.51
   2  0.155  0.164  0.305-  22 2.45  16 2.54  24 2.66  14 2.79  15 2.81  23 2.81  25 2.82  24 2.91
                            16 3.10  11 3.28  12 3.29  12 3.30   8 3.36  11 3.38   7 3.43   6 3.52
   3  0.349  0.359  0.695-  22 2.45  26 2.54  17 2.66  21 2.79  19 2.81  18 2.81  13 2.82  17 2.91
                            26 3.10  10 3.27   9 3.29   9 3.30   8 3.36  10 3.38   7 3.43   5 3.51
   4  0.655  0.641  0.305-  20 2.45  24 2.54  16 2.68  23 2.79  25 2.81  14 2.81  15 2.82  16 2.90
                            24 3.10  12 3.27  11 3.29  11 3.30   7 3.36  12 3.38   8 3.42   5 3.51
   5  0.502  0.500  1.000-  23 2.42  21 2.42  18 2.44  14 2.44  19 2.46  25 2.47  15 2.48  13 2.48
                             4 3.51   3 3.51
   6  0.002  0.000  0.000-  18 2.42  14 2.42  23 2.44  21 2.44  15 2.46  13 2.47  19 2.47  25 2.48
                             1 3.51   2 3.52
   7  0.720  0.188  0.500-  17 1.82  24 1.82  22 1.93  20 1.94   4 3.36   1 3.36   2 3.43   3 3.43
                             3 3.69   2 3.69   1 3.79   4 3.79
   8  0.219  0.812  0.500-  16 1.83  26 1.83  20 1.93  22 1.94   3 3.36   2 3.36   4 3.42   1 3.42
                             1 3.70   4 3.70   3 3.79   2 3.79
   9  0.931  0.427  0.855-  13 1.95  19 1.95  21 1.95  18 1.96   1 3.27   3 3.29   3 3.30   1 3.38

  10  0.431  0.928  0.855-  19 1.95  13 1.95  18 1.95  21 1.96   3 3.27   1 3.29   1 3.30   3 3.38

[...]

  13  0.687  0.183  0.867-   9 1.95  10 1.95   6 2.47   5 2.48   1 2.81   3 2.82
  14  0.315  0.311  0.126-  12 1.95  11 1.96   6 2.42   5 2.44   2 2.79   4 2.81
  15  0.820  0.817  0.132-  12 1.95  11 1.95   6 2.46   5 2.48   2 2.81   4 2.82
  16  0.199  0.636  0.351-   8 1.83   2 2.54   4 2.68   4 2.90   2 3.10
  17  0.850  0.364  0.648-   7 1.82   1 2.54   3 2.66   3 2.91   1 3.10
  18  0.188  0.689  0.874-  10 1.95   9 1.96   6 2.42   5 2.44   1 2.79   3 2.81
  19  0.188  0.184  0.868-  10 1.95   9 1.95   5 2.46   6 2.47   3 2.81   1 2.82
  20  0.870  0.871  0.500-   8 1.93   7 1.94   4 2.45   1 2.45
  21  0.688  0.685  0.874-   9 1.95  10 1.96   5 2.42   6 2.44   3 2.79   1 2.81
  22  0.371  0.128  0.500-   7 1.93   8 1.94   3 2.45   2 2.45
  23  0.814  0.315  0.126-  11 1.96  12 1.96   5 2.42   6 2.44   4 2.79   2 2.81
  24  0.701  0.216  0.352-   7 1.82   4 2.54   2 2.66   2 2.91   4 3.10
  25  0.320  0.816  0.133-  12 1.95  11 1.95   5 2.47   6 2.48   4 2.81   2 2.82
  26  0.347  0.785  0.649-   8 1.83   3 2.54   1 2.68   1 2.90   3 3.10

IMPORTANT INFORMATION: All symmetrisations will be switched off!
NOSYMM: (Re-)initialisation of all symmetry stuff for point group C_1.

                                     Primitive cell

  volume of cell :     348.1415

  direct lattice vectors                    reciprocal lattice vectors
     5.321783000  0.000393000 -1.235209000     0.187844831  0.010139002 -0.000264400
    -0.292128000  5.379381000 -1.260139000    -0.000020478  0.185887069 -0.000029086
     0.017008000  0.001904000 12.156450000     0.019084669  0.020299292  0.082230977

  length of vectors
     5.463251388  5.532723471 12.156462047     0.188118446  0.185887072  0.086822920

  position of ions in fractional coordinates (direct lattice)
     0.849600000  0.835892000  0.695031000
     0.154795000  0.164064000  0.305214000
     0.349479000  0.358902000  0.694796000
     0.654669000  0.640843000  0.304987000
     0.502295000  0.500176000  0.999918000
     0.002338000  0.000204000  0.000043000
     0.720267000  0.187908000  0.500004000
     0.219025000  0.811543000  0.500023000
     0.930601000  0.427449000  0.855189000
     0.430501000  0.927816000  0.855080000
     0.075538000  0.572853000  0.144884000
     0.575515000  0.072296000  0.144750000
     0.687233000  0.183293000  0.867395000
     0.314594000  0.310977000  0.126372000
     0.819679000  0.817001000  0.132196000
     0.198761000  0.636062000  0.351385000
     0.849503000  0.363993000  0.648352000
     0.188129000  0.689344000  0.873935000
     0.187513000  0.184454000  0.867819000
     0.870059000  0.870648000  0.500008000
     0.687941000  0.684737000  0.873611000
     0.371496000  0.127607000  0.500010000
     0.814087000  0.315375000  0.126085000
     0.701134000  0.215518000  0.351613000
     0.320200000  0.816228000  0.132616000
     0.347249000  0.784816000  0.648685000

  ion indices of the primitive-cell ions
   primitive index   ion index
                 1           1
                 2           2
                 3           3
                 4           4
                 5           5
                 6           6
                 7           7
                 8           8
                 9           9
                10          10
                11          11
                12          12
                13          13
                14          14
                15          15
                16          16
                17          17
                18          18
                19          19
                20          20
                21          21
                22          22
                23          23
                24          24
                25          25
                26          26

 KPOINTS: Kpoints from vasprun.xml

Automatic generation of k-mesh.
 Grid dimensions read from file:
 generate k-points for:    5    5    2

 Generating k-lattice:

  Cartesian coordinates                     Fractional coordinates (reciprocal lattice)
     0.037568966  0.002027800 -0.000052880     0.200000000  0.000000000 -0.000000000
    -0.000004096  0.037177414 -0.000005817     0.000000000  0.200000000  0.000000000
     0.009542334  0.010149646  0.041115488    -0.000000000 -0.000000000  0.500000000

  Length of vectors
     0.037623689  0.037177414  0.043411460

  Shift w.r.t. Gamma in fractional coordinates (k-lattice)
     0.000000000  0.000000000  0.000000000

 TETIRR: Found    147 inequivalent tetrahedra from      300

 Subroutine IBZKPT returns following result:

 Found     26 irreducible k-points:

 Following reciprocal coordinates:
            Coordinates               Weight
  0.000000  0.000000  0.000000      1.000000
  0.200000  0.000000  0.000000      2.000000
  0.400000  0.000000  0.000000      2.000000
  0.000000  0.200000  0.000000      2.000000
  0.200000  0.200000  0.000000      2.000000
  0.400000  0.200000  0.000000      2.000000
 -0.400000  0.200000  0.000000      2.000000
 -0.200000  0.200000  0.000000      2.000000
  0.000000  0.400000  0.000000      2.000000
  0.200000  0.400000  0.000000      2.000000
  0.400000  0.400000  0.000000      2.000000
 -0.400000  0.400000  0.000000      2.000000
 -0.200000  0.400000  0.000000      2.000000
  0.000000  0.000000  0.500000      1.000000
  0.200000  0.000000  0.500000      2.000000
  0.400000  0.000000  0.500000      2.000000
  0.000000  0.200000  0.500000      2.000000
  0.200000  0.200000  0.500000      2.000000
  0.400000  0.200000  0.500000      2.000000
 -0.400000  0.200000  0.500000      2.000000
 -0.200000  0.200000  0.500000      2.000000
  0.000000  0.400000  0.500000      2.000000
  0.200000  0.400000  0.500000      2.000000
  0.400000  0.400000  0.500000      2.000000
 -0.400000  0.400000  0.500000      2.000000
 -0.200000  0.400000  0.500000      2.000000

 Following cartesian coordinates:
            Coordinates               Weight
  0.000000  0.000000  0.000000      1.000000
  0.037569  0.002028 -0.000053      2.000000
  0.075138  0.004056 -0.000106      2.000000
 -0.000004  0.037177 -0.000006      2.000000
  0.037565  0.039205 -0.000059      2.000000
  0.075134  0.041233 -0.000112      2.000000
 -0.075142  0.033122  0.000100      2.000000
 -0.037573  0.035150  0.000047      2.000000
 -0.000008  0.074355 -0.000012      2.000000
  0.037561  0.076383 -0.000065      2.000000
  0.075130  0.078410 -0.000117      2.000000
 -0.075146  0.070299  0.000094      2.000000
 -0.037577  0.072327  0.000041      2.000000
  0.009542  0.010150  0.041115      1.000000
  0.047111  0.012177  0.041063      2.000000
  0.084680  0.014205  0.041010      2.000000
  0.009538  0.047327  0.041110      2.000000
  0.047107  0.049355  0.041057      2.000000
  0.084676  0.051383  0.041004      2.000000
 -0.065600  0.043271  0.041215      2.000000
 -0.028031  0.045299  0.041163      2.000000
  0.009534  0.084504  0.041104      2.000000
  0.047103  0.086532  0.041051      2.000000
  0.084672  0.088560  0.040998      2.000000
 -0.065604  0.080449  0.041210      2.000000
 -0.028035  0.082477  0.041157      2.000000

 SYSTEM =  unknown system
 POSCAR =  Sr4 Gd2 Co2 Cu4 O14

 Startparameter for this run:
[...]
  267        strehar                               0.001651                            1   3
  268          m_sumb_d                              0.000023                          1   4
  269        chggra                                0.000849                            1   3
  270          fft3d_mpi                             0.000508                          3   4
  271            fftbrc_mpi                            0.000401                        3   5
  272              fftbas_plan_mpi                       0.000400                      3   6
  273                map_forward                           0.000216                    4   7
  274                  map_gather                            0.000046                  2   8
  275                  m_alltoallv_z                         0.000025                  2   8
  276                  map_scatter                           0.000114                  2   8
  277                map_backward                          0.000099                    2   7
  278                  map_gather                            0.000024                  1   8
  279                  m_alltoallv_z                         0.000010                  1   8
  280                  map_scatter                           0.000047                  1   8
  281          m_sumb_d                              0.000010                          2   4
  282          pothar                                0.000088                          1   4
  283            m_sumb_d                              0.000014                        1   5
  284        brmix                                 0.011515                            1   3
  285          m_sumb_d                              0.000099                          6   4
  286          brpre                                 0.000033                          2   4
  287          setg0                                 0.001136                          1   4
  288          broyd                                 0.008993                          1   4
  289            m_sumb_d                              0.001593                       51   5
  290            brget                                 0.001779                      273   5
  291            brsav                                 0.000316                       49   5
  292        m_bcast_d                             0.000024                            2   3
  293      potlok                                0.043453                              2   2
  294        fft3d_mpi                             0.025249                           36   3
  295          fftbrc_mpi                            0.021417                         36   4
  296            fftbas_plan_mpi                       0.021398                       36   5
  297              map_forward                           0.005862                     40   6
  298                map_gather                            0.001894                   24   7
  299                m_alltoallv_z                         0.002053                   24   7
  300                map_scatter                           0.001710                   24   7
  301              map_backward                          0.005052                     32   6
  302                map_gather                            0.001680                   16   7
  303                m_alltoallv_z                         0.001529                   16   7
  304                map_scatter                           0.001621                   16   7
  305              dfftw_execute                         0.008864                     30   6
  306        m_sumb_d                              0.000029                            5   3
  307        pothar                                0.001544                            2   3
  308          m_sumb_d                              0.000080                          2   4
  309        m_bcast_d                             0.002675                            4   3
  310      potlok_metagga                        0.000001                              1   2
  311      set_dd_magatom                        0.000004                              1   2
  312      set_dd_paw                            2.731756                              1   2
  313        m_sumb_d                              0.663298                            7   3
  314      augmentation_charge                   0.140579                              1   2
  315        fft3d_mpi                             0.056973                            2   3
  316          fftbrc_mpi                            0.052110                          2   4
  317            fftbas_plan_mpi                       0.052107                        2   5
  318              dfftw_execute                         0.035573                      6   6
  319              map_backward                          0.016222                      4   6
  320                map_gather                            0.004274                    2   7
  321                m_alltoallv_z                         0.005715                    2   7
  322                map_scatter                           0.006224                    2   7
  323      densta                               10.629473                              1   2

 Flat profile

 m_sumb_d                              504.804439     2781629
 set_dd_paw                            462.014861         222
 lapack                                430.511544      917081
 eddav                                 410.315970         224
 redis_pw                              209.805731     4897662
 hamiltmu                              149.766659      917081
 m_alltoall_d                           89.609387    12897658
 densta                                 47.494273         225
 eccp                                   46.914117      454272
 redis_proj                             42.202446     6219620
 orth1                                  41.930744     2751503
 fft3d                                  28.744733     3911938
 overl1                                 27.645584     1776178
 overl                                  26.081511     3098136
 w1_copy                                26.063280     5328534
 fftwav                                 22.895548     2135760
 vnlac0_acc                             20.730177     1776178
 m_bcast_z                              20.339228      925193
 setdij_                                19.437704         248
 dfftw_execute                          19.140194        5700
 projmu_acc                             18.904141      684121
 augmentation_charge                    18.673819         221
 soft_charge                            18.546456         220
 setup_precond                          16.598200      454272
 m_bcast_d                              15.175974     1834611
 total_time                             14.176555           1
 ggemm                                  14.125667     1150041
 pw_charge                              11.597064      359582
 init_acc                                9.812043           1
 vhamil                                  8.256672     1776178
 kinhamil                                7.882453     1776178
 fftext_mpi                              7.280933     1776178
 depsum                                  7.187157         220
 apply_precond                           7.170289     1321906
 newband                                 7.060939      928729
 spher                                   3.991611          20
 m_alltoallv_z                           3.720681        8555
 fft3d_mpi                               3.293834     1783849
 fftwav_mpi                              2.792142     2135760
 map_scatter                             2.757167        8555
 strenl                                  2.567064           1
 acc_init_cublas                         2.457190           1
 fornl                                   2.215036           1
 map_gather                              2.140550        8555
 proj1_acc                               1.362877       20280
 broyd                                   1.091069         220
 potlok                                  0.973477         222
 acc_init_cusolver                       0.801392           1
 w1_projall                              0.694770      684121
 elmin                                   0.543602           1
 lincom                                  0.444921       11700
 sphpro_fast                             0.417087           2
 fftbas_plan_mpi                         0.412644        7671
 brmix                                   0.402740         220
 brget                                   0.325283       49353
 setg0                                   0.250674         222
 phase                                   0.243313       11935
 truncate_high_frequency_w1              0.173724     2230450
 proj                                    0.135757          26
 acc_cufft_makeplan                      0.132912          19
 proall                                  0.115277           1
 brsav                                   0.087849       13578
 set_charge                              0.081280         220
 orthch                                  0.058086           1
 map_backward                            0.052802        8106
 force_and_stress                        0.050996           1
 map_forward                             0.046636        7236
 choleski                                0.020123          52
 pothar                                  0.019215         223
 fft_gq                                  0.018634         220
 stufak                                  0.014048           1
 brpre                                   0.007691         440
 fftbrc_mpi                              0.004470        7671
 forhar                                  0.002974           2
 strelo                                  0.002226           1
 strkin                                  0.002208           1
 strehar                                 0.001628           1
 forloc                                  0.001550           1
 set_dd_magatom                          0.001018         222
 vectorpot                               0.000905         221
 rsp                                     0.000811           1
 fewald                                  0.000378           1
 chggra                                  0.000243           1
 brgrid                                  0.000223           1
 fordep                                  0.000117           1
 rcp                                     0.000037           1
 crpa_reader                             0.000029           1
 potlok_metagga                          0.000023         221
 acc_cufft_makeplans                     0.000011           3
 rotate_active_occupied_orbital          0.000000           1
 redis_pw_over_bands                     0.000000           1
  summed up times     2863.829496145248

 Accumulative profile

 total_time                           2863.829496           1
 elmin                                2803.298188           1
 eddav                                2042.317919         224
 set_dd_paw                            611.697892         222
 m_sumb_d                              504.804439     2781629
 lapack                                430.511544      917081
 redis_pw                              254.227661     4897662
 hamiltmu                              234.523646      917081
 newband                               109.850302      928729
 m_alltoall_d                           89.609387    12897658
 redis_proj                             87.389904     6219620
 set_charge                             81.467070         220
 densta                                 47.494273         225
 eccp                                   46.914117      454272
 fft3d_mpi                              43.974658     1783849
 soft_charge                            42.497914         220
 fftwav_mpi                             42.026743     2135760
 orth1                                  41.930744     2751503
 fftwav                                 39.234601     2135760
 setdij_                                35.734457         248
 augmentation_charge                    31.700251         221
 fft3d                                  28.744733     3911938
 fftbrc_mpi                             28.275143        7671
 fftbas_plan_mpi                        28.270673        7671
 kinhamil                               28.124553     1776178
 overl1                                 27.645584     1776178
 overl                                  26.081511     3098136
 w1_copy                                26.063280     5328534
 vnlac0_acc                             20.730177     1776178
 m_bcast_z                              20.339228      925193
 fftext_mpi                             20.242100     1776178
 w1_projall                             19.598911      684121
 dfftw_execute                          19.140194        5700
 projmu_acc                             18.904141      684121
 force_and_stress                       16.926857           1
 setup_precond                          16.598200      454272
 m_bcast_d                              15.175974     1834611
 ggemm                                  14.125667     1150041
 pw_charge                              11.597064      359582
 init_acc                                9.812043           1
 vhamil                                  8.256672     1776178
 strenl                                  7.781524           1
 depsum                                  7.328204         220
 apply_precond                           7.170289     1321906
 map_backward                            4.870099        8106
 spher                                   3.991611          20
 map_forward                             3.847737        7236
 m_alltoallv_z                           3.720681        8555
 map_scatter                             2.757167        8555
 acc_init_cublas                         2.457190           1
 brmix                                   2.387781         220
 fornl                                   2.225785           1
 potlok                                  2.161727         222
 map_gather                              2.140550        8555
 broyd                                   1.706804         220
 proj1_acc                               1.362877       20280
 fordep                                  0.861864           1
 acc_init_cusolver                       0.801392           1
 fft_gq                                  0.537676         220
 orthch                                  0.453914           1
 lincom                                  0.444921       11700
 sphpro_fast                             0.435098           2
 brget                                   0.325283       49353
 proall                                  0.279244           1
 setg0                                   0.250674         222
 phase                                   0.243313       11935
 truncate_high_frequency_w1              0.173724     2230450
 proj                                    0.163540          26
 acc_cufft_makeplans                     0.132923           3
 acc_cufft_makeplan                      0.132912          19
 brsav                                   0.087849       13578
 pothar                                  0.021315         223
 choleski                                0.020123          52
 stufak                                  0.014048           1
 brpre                                   0.007691         440
 forhar                                  0.003041           2
 strelo                                  0.002292           1
 fewald                                  0.002287           1
 strkin                                  0.002230           1
 strehar                                 0.001651           1
 forloc                                  0.001588           1
 set_dd_magatom                          0.001018         222
 vectorpot                               0.000905         221
 chggra                                  0.000849           1
 rsp                                     0.000811           1
 brgrid                                  0.000223           1
 rcp                                     0.000037           1
 crpa_reader                             0.000029           1
 potlok_metagga                          0.000023         221
 rotate_active_occupied_orbital          0.000000           1
 redis_pw_over_bands                     0.000000           1

Profiling took  10.964546  5.424114  0.003431  0.003346 seconds
Profiling took   7.109415 seconds