 vasp.6.3.2 27Jun22 (build Jul  3 2023 11:46:21) complex
 executed on    LinuxNV_CrayMPICH date 2024.04.21  23:13:49

 INCAR:
   ADDGRID = True
   ALGO = Normal
   EDIFF = 0.0007
   ENCUT = 520.0
   IBRION = -1
   ICHARG = 0
   ISIF = 3
   ISMEAR = -5
   ISPIN = 2
   KPOINT_BSE = -1 0 0 0
   LAECHG = True
   LASPH = True
   LCHARG = True
   LELF = True
   LORBIT = 11
   LREAL = Auto
   LVHAR = True
   LWAVE = False
   MAGMOM = 2*7.0 12*0.6
   NELM = 1000
   NSW = 0
   PREC = accurate
   SIGMA = 0.05

 POTCAR:    PAW_PBE Eu 23Dec2003
 POTCAR:    PAW_PBE Mg_pv 13Apr2007
 POTCAR:    PAW_PBE Ge_d 03Jul2007
 POTCAR:    PAW_PBE Eu 23Dec2003
   VRHFIN =Eu : [core=Kr4d]

   TITEL  = PAW_PBE Eu 23Dec2003
   POMASS =  151.965; ZVAL   =   17.000    mass and valenz
   ENMAX  =  249.668; ENMIN  =  187.251 eV

   TITEL  = PAW_PBE Mg_pv 13Apr2007
   POMASS =   24.305; ZVAL   =    8.000    mass and valenz
   ENMAX  =  403.929; ENMIN  =  302.947 eV

   TITEL  = PAW_PBE Ge_d 03Jul2007
   POMASS =   72.610; ZVAL   =   14.000    mass and valenz
   ENMAX  =  310.294; ENMIN  =  232.720 eV

 Optimization of the real space projectors (new method)

 maximal supplied QI-value         = 13.42
 optimisation between [QCUT,QGAM] = [ 11.67, 23.35] = [ 38.16,152.62] Ry
 Optimized for a Real-space Cutoff    1.63 Angstroem

   l    n(q)    QCUT    max X(q) W(low)/X(q) W(high)/X(q)  e(spline)
   0     11    11.673    10.400    0.14E-04    0.18E-05    0.24E-07
   0     11    11.673    10.768    0.21E-04    0.32E-05    0.49E-07
   1     11    11.673     4.094    0.40E-05    0.13E-04    0.93E-07
   1     11    11.673     4.009    0.11E-04    0.46E-04    0.33E-06
   2     10    11.673    29.030    0.79E-04    0.60E-04    0.70E-06
   2     10    11.673    19.941    0.80E-04    0.60E-04    0.71E-06
   3     10    11.673    88.889    0.23E-03    0.29E-03    0.30E-06
   3     10    11.673    76.102    0.23E-03    0.30E-03    0.30E-06
 Optimization of the real space projectors (new method)

[...]

   l    n(q)    QCUT    max X(q) W(low)/X(q) W(high)/X(q)  e(spline)
   1      8    11.527     2.974    0.44E-04    0.56E-04    0.12E-06
   1      8    11.527     4.279    0.12E-03    0.12E-03    0.26E-06
   0      9    11.527    16.381    0.46E-04    0.64E-04    0.78E-07
   0      9    11.527     5.611    0.26E-04    0.43E-04    0.55E-07
   2      8    11.527     4.652    0.22E-03    0.72E-04    0.47E-07
 Optimization of the real space projectors (new method)

 maximal supplied QI-value         = 16.25
 optimisation between [QCUT,QGAM] = [ 11.54, 23.24] = [ 37.28,151.24] Ry
 Optimized for a Real-space Cutoff    1.53 Angstroem

   l    n(q)    QCUT    max X(q) W(low)/X(q) W(high)/X(q)  e(spline)
   2     10    11.539     8.936    0.13E-03    0.18E-03    0.23E-06
   2     10    11.539     8.183    0.16E-03    0.22E-03    0.28E-06
   0     11    11.539    62.777    0.61E-04    0.20E-04    0.15E-06
   0     11    11.539    50.556    0.58E-04    0.19E-04    0.14E-06
   1     10    11.539    38.422    0.20E-04    0.75E-05    0.16E-06
   1     10    11.539    22.623    0.19E-04    0.69E-05    0.15E-06
  PAW_PBE Eu 23Dec2003                  :
  PAW_PBE Mg_pv 13Apr2007               :
  PAW_PBE Ge_d 03Jul2007                :

 POSCAR: Eu2 Mg6 Ge6
  positions in direct lattice
 exchange correlation table for  LEXCH =        8
   RHO(1)=    0.500       N(1)  =     2000
   RHO(2)=  100.500       N(2)  =     4000

 VTST: version 4.2, (08/11/21)

 CHAIN: initializing optimizer

 OPT: Using VASP Dynamics algorithm
 CHAIN: Read ICHAIN             0

 POSCAR: Eu2 Mg6 Ge6
  positions in direct lattice

 ion  position               nearest neighbor table
   1  0.056  0.944  0.750-   9 3.17   9 3.17
   2  0.944  0.056  0.250-  12 3.17  12 3.17
   3  0.853  0.147  0.750-
   4  0.646  0.354  0.750-
   5  0.147  0.853  0.250-
   6  0.250  0.750  0.250-
   7  0.354  0.646  0.250-
   8  0.750  0.250  0.750-
   9  0.484  0.516  0.750-  10 2.50  12 2.52  12 2.52   1 3.17   1 3.17
  10  0.403  0.597  0.750-   9 2.50
  11  0.199  0.801  0.750-
  12  0.516  0.484  0.250-  14 2.50   9 2.52   9 2.52   2 3.17   2 3.17
  13  0.801  0.199  0.250-
  14  0.597  0.403  0.250-  12 2.50

  LATTYP: Found a base centered orthorhombic cell.
 ALAT       =     4.4864240000
 B/A-ratio  =     6.8947999565
 C/A-ratio  =     1.0278749846

  Lattice vectors:

 A1 = (   2.2432120000, -15.4664980000,   0.0000000000)
 A2 = (   2.2432120000,  15.4664980000,   0.0000000000)
 A3 = (   0.0000000000,   0.0000000000,   4.6114830000)

Analysis of symmetry for initial positions (statically):
 Subroutine PRICEL returns:
 Original cell was already a primitive cell.

 Routine SETGRP: Setting up the symmetry group for a
 base centered orthorhombic supercell.

 Subroutine GETGRP returns: Found  8 space group operations
 (whereof  4 operations were pure point group operations)
 out of a pool of  8 trial point group operations.

The static configuration has the point symmetry C_2h.
 The point group associated with its full space group is D_2h.

Analysis of symmetry for dynamics (positions and initial velocities):
 Subroutine PRICEL returns:
 Original cell was already a primitive cell.

[...]

The dynamic configuration has the point symmetry C_2h.
 The point group associated with its full space group is D_2h.

Analysis of structural, dynamic, and magnetic symmetry:
 Subroutine PRICEL returns:
 Original cell was already a primitive cell.

 Routine SETGRP: Setting up the symmetry group for a
 base centered orthorhombic supercell.

 Subroutine GETGRP returns: Found  8 space group operations
 (whereof  4 operations were pure point group operations)
 out of a pool of  8 trial point group operations.

The overall configuration has the point symmetry C_2h.
 The point group associated with its full space group is D_2h.

 Subroutine INISYM returns: Found  8 space group operations
 (whereof  4 operations are pure point group operations),
 and found     1 'primitive' translations

                                     Primitive cell

  volume of cell :     319.9874

  direct lattice vectors                    reciprocal lattice vectors
     2.243212000-15.466498000  0.000000000     0.222894671 -0.032327939  0.000000000
     2.243212000 15.466498000  0.000000000     0.222894671  0.032327939 -0.000000000
     0.000000000  0.000000000  4.611483000    -0.000000000  0.000000000  0.216849981

  length of vectors
    15.628325581 15.628325581  4.611483000     0.225226841  0.225226841  0.216849981

  position of ions in fractional coordinates (direct lattice)
     0.055969000  0.944031000  0.750000000
     0.944031000  0.055969000  0.250000000
     0.852528000  0.147472000  0.750000000
     0.645871000  0.354129000  0.750000000
     0.147472000  0.852528000  0.250000000
     0.250477000  0.749523000  0.250000000
     0.354129000  0.645871000  0.250000000
     0.749523000  0.250477000  0.750000000
     0.483751000  0.516249000  0.750000000
     0.402923000  0.597077000  0.750000000
     0.198842000  0.801158000  0.750000000
     0.516249000  0.483751000  0.250000000
     0.801158000  0.198842000  0.250000000
     0.597077000  0.402923000  0.250000000

  ion indices of the primitive-cell ions
   primitive index   ion index
                 1           1
                 2           2
                 3           3
                 4           4
                 5           5
                 6           6
                 7           7
                 8           8
                 9           9
                10          10
                11          11
                12          12
                13          13
                14          14

 KPOINTS: Kpoints from vasprun.xml

Automatic generation of k-mesh.
 Grid dimensions read from file:
 generate k-points for:    2    2    9

 Generating k-lattice:

  Cartesian coordinates                     Fractional coordinates (reciprocal lattice)
     0.111447335 -0.016163969  0.000000000     0.500000000 -0.000000000  0.000000000
     0.111447335  0.016163969 -0.000000000    -0.000000000  0.500000000  0.000000000
    -0.000000000  0.000000000  0.024094442     0.000000000  0.000000000  0.111111111

  Length of vectors
     0.112613420  0.112613420  0.024094442

  Shift w.r.t. Gamma in fractional coordinates (k-lattice)
     0.000000000  0.000000000  0.000000000

 TETIRR: Found     55 inequivalent tetrahedra from      216

 Subroutine IBZKPT returns following result:

 Found     15 irreducible k-points:

 Following reciprocal coordinates:
            Coordinates               Weight
  0.000000  0.000000  0.000000      1.000000
  0.500000  0.000000  0.000000      2.000000
  0.500000  0.500000  0.000000      1.000000
  0.000000  0.000000  0.111111      2.000000
  0.500000  0.000000  0.111111      4.000000
  0.500000  0.500000  0.111111      2.000000
  0.000000  0.000000  0.222222      2.000000
  0.500000  0.000000  0.222222      4.000000
  0.500000  0.500000  0.222222      2.000000
  0.000000  0.000000  0.333333      2.000000
  0.500000  0.000000  0.333333      4.000000
  0.500000  0.500000  0.333333      2.000000
  0.000000  0.000000  0.444444      2.000000
  0.500000  0.000000  0.444444      4.000000
  0.500000  0.500000  0.444444      2.000000

 Following cartesian coordinates:
            Coordinates               Weight
  0.000000  0.000000  0.000000      1.000000
  0.111447 -0.016164  0.000000      2.000000
  0.222895  0.000000  0.000000      1.000000
  0.000000  0.000000  0.024094      2.000000
  0.111447 -0.016164  0.024094      4.000000
  0.222895  0.000000  0.024094      2.000000
  0.000000  0.000000  0.048189      2.000000
  0.111447 -0.016164  0.048189      4.000000
  0.222895  0.000000  0.048189      2.000000
  0.000000  0.000000  0.072283      2.000000
  0.111447 -0.016164  0.072283      4.000000
  0.222895  0.000000  0.072283      2.000000
  0.000000  0.000000  0.096378      2.000000
  0.111447 -0.016164  0.096378      4.000000
  0.222895  0.000000  0.096378      2.000000

 SYSTEM =  unknown system
 POSCAR =  Eu2 Mg6 Ge6

 Startparameter for this run:
   NWRITE =      2    write-flag & timer
   PREC   = accura    normal or accurate (medium, high low for compatibility)
   ISTART =      0    job   : 0-new  1-cont  2-samecut
   ICHARG =      0    charge: 1-file 2-atom 10-const
   ISPIN  =      2    spin polarized calculation?
   LNONCOLLINEAR =      F non collinear calculations
   LSORBIT =      F    spin-orbit coupling
   INIWAV =      1    electr: 0-lowe 1-rand  2-diag
   LASPH  =      T    aspherical Exc in radial PAW
 Electronic Relaxation 1
   ENCUT  =  520.0 eV  38.22 Ry    6.18 a.u.  29.06 29.06  8.57*2*pi/ulx,y,z
   ENINI  =  520.0     initial cutoff
   ENAUG  =  758.8 eV  augmentation charge cutoff
   NELM   =   1000;   NELMIN=  2; NELMDL= -5     # of ELM steps
   EDIFF  = 0.7E-03   stopping-criterion for ELM
   LREAL  =      T    real-space projection
   NLSPLINE    = F    spline interpolate recip. space projectors
   LCOMPAT=      F    compatible to vasp.4.4
   GGA_COMPAT  = T    GGA compatible to vasp.4.4-vasp.4.6
   LMAXPAW     = -100 max onsite density
   LMAXMIX     =    2 max onsite mixed and CHGCAR
[...]
  318                map_forward                           0.000435                    4   7
  319                  map_gather                            0.000072                  2   8
  320                  m_alltoallv_z                         0.000028                  2   8
  321                  map_scatter                           0.000290                  2   8
  322                map_backward                          0.000183                    2   7
  323                  map_gather                            0.000038                  1   8
  324                  m_alltoallv_z                         0.000012                  1   8
  325                  map_scatter                           0.000110                  1   8
  326          m_sumb_d                              0.000011                          2   4
  327          pothar                                0.000098                          1   4
  328            m_sumb_d                              0.000007                        1   5
  329        brmix                                 0.029268                            1   3
  330          m_sumb_d                              0.000040                          6   4
  331          brpre                                 0.000176                          2   4
  332          setg0                                 0.004733                          1   4
  333          broyd                                 0.019728                          1   4
  334            m_sumb_d                              0.000405                       49   5
  335            brget                                 0.003992                      219   5
  336            brsav                                 0.000833                       47   5
  337        m_bcast_d                             0.000040                            2   3
  338      potlok                                0.111485                              2   2
  339        fft3d_mpi                             0.075965                           36   3
  340          fftbrc_mpi                            0.065239                         36   4
  341            fftbas_plan_mpi                       0.065216                       36   5
  342              map_forward                           0.017856                     40   6
  343                map_gather                            0.004550                   24   7
  344                m_alltoallv_z                         0.007782                   24   7
  345                map_scatter                           0.005233                   24   7
  346              map_backward                          0.013970                     32   6
  347                map_gather                            0.003448                   16   7
  348                m_alltoallv_z                         0.005990                   16   7
  349                map_scatter                           0.004250                   16   7
  350              dfftw_execute                         0.031414                     30   6
  351        m_sumb_d                              0.000028                            5   3
  352        pothar                                0.005399                            2   3
  353          m_sumb_d                              0.000401                          2   4
  354        m_bcast_d                             0.008514                            4   3
  355      potlok_metagga                        0.000000                              1   2
  356      set_dd_magatom                        0.000005                              1   2
  357      set_dd_paw                            2.571733                              1   2
  358        m_sumb_d                              1.010504                            7   3
  359      augmentation_charge                   0.482437                              1   2
  360        fft3d_mpi                             0.206467                            2   3
  361          fftbrc_mpi                            0.173139                          2   4
  362            fftbas_plan_mpi                       0.173135                        2   5
  363              dfftw_execute                         0.103808                      6   6
  364              map_backward                          0.069052                      4   6
  365                map_gather                            0.025080                    2   7
  366                m_alltoallv_z                         0.014954                    2   7
  367                map_scatter                           0.029007                    2   7
  368      fftwav_mpi                            8.414671                           2520   2
  369        fftwav                                8.411101                         2520   3
  370          fft3d                                 7.834554                       2520   4
  371      densta                                1.085566                              1   2

 Flat profile

 raccmu_                               343.381297      234021
 m_sumb_d                              265.788267      719742
 set_dd_paw                            249.511577         160
 eddav                                 145.658329         162
 lapack                                104.729530      234021
 phaser                                 68.965693        5055
 redis_pw                               55.818871     1277826
 setdij_                                50.339332         186
 dfftw_execute                          44.578801        4284
 augmentation_charge                    44.539418         160
 total_time                             32.632947           1
 m_alltoall_d                           23.957629     3416574
 fft3d                                  19.920631     1383786
 eccp                                   17.758895      136080
 fft3d_mpi                              11.634438      473629
 hamiltmu                               11.234957      234021
 init_acc                               10.720155           1
 redis_proj                             10.651067     1609818
 fftwav                                  9.885482      915744
 map_scatter                             9.537038        6245
 densta                                  8.972663         163
 map_gather                              8.622513        6245
 orth1                                   7.495368      702183
 m_alltoallv_z                           6.915287        6245
 racc0mu_acc                             6.891731      234021
 w1_copy                                 6.755237     1404126
 overl                                   6.642219      800034
 soft_charge                             6.153440         159
 set_charge                              5.937789         159
 rpromu_acc                              5.884441      168711
 m_bcast_z                               5.277676      237381
 setup_precond                           4.968904      136080
 pw_charge                               4.924265      102300
 ggemm                                   4.623516      302061
 m_bcast_d                               3.972853      468367
 overl_mu                                3.704551      234021
 acc_init_cublas                         3.404917           1
 depsum                                  2.200996         159
 vhamil                                  2.177953      468042
 kinhamil                                2.125764      468042
 fftext_mpi                              2.032753      468042
 newband                                 2.009806      238881
 potlok                                  1.902617         160
 apply_precond                           1.835348      331962
 broyd                                   1.731782         158
 fftwav_mpi                              1.236557      915744
 acc_init_cusolver                       1.044496           1
 brmix                                   0.825734         158
 rspher_all                              0.810437          14
 rpro_isp                                0.682271         195
 setg0                                   0.590088         160
 brget                                   0.584420       32772
 elmin                                   0.425618           1
 fftbas_plan_mpi                         0.332766        5587
 acc_cufft_makeplan                      0.254442          19
 lincom                                  0.180697        4890
 w1_projall                              0.168039      165981
 brsav                                   0.161926        9245
 sphpro_fast                             0.112612           2
 proall                                  0.066689           1
 fft_gq                                  0.049999         159
 truncate_high_frequency_w1              0.049824      604122
 map_backward                            0.049003        5894
 map_forward                             0.047112        5280
 force_and_stress                        0.030372           1
 orthch                                  0.023906           1
 stufak                                  0.023398           1
 pothar                                  0.022300         161
 choleski                                0.017503          30
 brpre                                   0.015134         316
 forhar                                  0.007948           2
 strelo                                  0.005811           1
 strnlr                                  0.005064           1
 strehar                                 0.004905           1
 inisym                                  0.004269           1
 forloc                                  0.004035           1
 fftbrc_mpi                              0.004015        5587
 fornlr                                  0.001710           1
 strkin                                  0.001010           1
 set_dd_magatom                          0.000724         160
 vectorpot                               0.000677         159
 rsp                                     0.000659           1
 brgrid                                  0.000613           1
 fewald                                  0.000348           1
 chggra                                  0.000327           1
 fordep                                  0.000103           1
 rcp                                     0.000028           1
 crpa_reader                             0.000028           1
 posmap                                  0.000027           2
 potlok_metagga                          0.000013         159
 acc_cufft_makeplans                     0.000010           3
 rotate_active_occupied_orbital          0.000000           1
 redis_pw_over_bands                     0.000000           1
  summed up times     1656.256412982941

 Accumulative profile

 total_time                           1656.256413           1
 elmin                                1567.576372           1
 eddav                                 961.378095         162
 set_dd_paw                            412.154491         160
 hamiltmu                              375.013022      234021
 raccmu_                               353.977579      234021
 m_sumb_d                              265.788267      719742
 set_charge                            106.114988         159
 lapack                                104.729530      234021
 setdij_                                95.182375         186
 fft3d_mpi                              85.043420      473629
 augmentation_charge                    77.989093         160
 fftbrc_mpi                             70.086534        5587
 fftbas_plan_mpi                        70.082519        5587
 phaser                                 68.965693        5055
 redis_pw                               67.659992     1277826
 dfftw_execute                          44.578801        4284
 newband                                35.265456      238881
 fftwav_mpi                             27.720223      915744
 fftwav                                 26.483666      915744
 m_alltoall_d                           23.957629     3416574
 redis_proj                             22.767575     1609818
 force_and_stress                       21.784358           1
 fft3d                                  19.920631     1383786
 soft_charge                            19.356084         159
 eccp                                   17.758895      136080
 map_backward                           13.330955        5894
 map_forward                            11.839998        5280
 init_acc                               10.720155           1
 map_scatter                             9.537038        6245
 densta                                  8.972663         163
 map_gather                              8.622513        6245
 kinhamil                                7.622532      468042
 orth1                                   7.495368      702183
 m_alltoallv_z                           6.915287        6245
 racc0mu_acc                             6.891731      234021
 w1_copy                                 6.755237     1404126
 overl                                   6.642219      800034
 rpromu_acc                              5.884441      168711
 fftext_mpi                              5.496768      468042
 m_bcast_z                               5.277676      237381
 w1_projall                              5.006274      165981
 setup_precond                           4.968904      136080
 pw_charge                               4.924265      102300
 ggemm                                   4.623516      302061
 brmix                                   4.085148         158
 strnlr                                  3.975335           1
 m_bcast_d                               3.972853      468367
 overl_mu                                3.704551      234021
 acc_init_cublas                         3.404917           1
 potlok                                  3.298057         160
 fordep                                  3.046198           1
 broyd                                   2.639467         158
 depsum                                  2.324433         159
 vhamil                                  2.177953      468042
 rpro_isp                                2.095386         195
 apply_precond                           1.835348      331962
 fornlr                                  1.327056           1
 fft_gq                                  1.224786         159
 acc_init_cusolver                       1.044496           1
 rspher_all                              0.810437          14
 setg0                                   0.590088         160
 brget                                   0.584420       32772
 orthch                                  0.392067           1
 proall                                  0.315260           1
 acc_cufft_makeplans                     0.254452           3
 acc_cufft_makeplan                      0.254442          19
 lincom                                  0.180697        4890
 brsav                                   0.161926        9245
 sphpro_fast                             0.116697           2
 truncate_high_frequency_w1              0.049824      604122
 pothar                                  0.024730         161
 stufak                                  0.023398           1
 choleski                                0.017503          30
 brpre                                   0.015134         316
 forhar                                  0.008016           2
 strelo                                  0.005900           1
 strehar                                 0.004909           1
 inisym                                  0.004296           1
 forloc                                  0.004116           1
 fewald                                  0.001757           1
 chggra                                  0.001296           1
 strkin                                  0.001015           1
 set_dd_magatom                          0.000724         160
 vectorpot                               0.000677         159
 rsp                                     0.000659           1
 brgrid                                  0.000613           1
 rcp                                     0.000028           1
 crpa_reader                             0.000028           1
 posmap                                  0.000027           2
 potlok_metagga                          0.000013         159
 rotate_active_occupied_orbital          0.000000           1
 redis_pw_over_bands                     0.000000           1

Profiling took   2.922110  1.421398  0.003228  0.003119 seconds
Profiling took   1.820552 seconds