 vasp.6.3.2 27Jun22 (build Jul  3 2023 11:46:21) complex
 executed on    LinuxNV_CrayMPICH date 2024.04.22  03:28:01

 INCAR:
   ADDGRID = True
   ALGO = Normal
   EDIFF = 0.0039
   ENCUT = 520.0
   IBRION = -1
   ICHARG = 0
   ISIF = 3
   ISMEAR = -5
   ISPIN = 2
   KPOINT_BSE = -1 0 0 0
   LAECHG = True
   LASPH = True
   LCHARG = True
   LELF = True
   LORBIT = 11
   LREAL = Auto
   LVHAR = True
   LWAVE = False
   MAGMOM = 18*0.6 6*7.0 54*0.6
   NELM = 1000
   NSW = 0
   PREC = accurate
   SIGMA = 0.05

 POTCAR:    PAW_PBE K_sv 06Sep2000
 POTCAR:    PAW_PBE Gd 23Dec2003
 POTCAR:    PAW_PBE Si 05Jan2001
 POTCAR:    PAW_PBE O 08Apr2002
 POTCAR:    PAW_PBE K_sv 06Sep2000
   VRHFIN =K:  3s3p4s

   TITEL  = PAW_PBE K_sv 06Sep2000
   POMASS =   39.098; ZVAL   =    9.000    mass and valenz
   ENMAX  =  259.264; ENMIN  =  194.448 eV

   TITEL  = PAW_PBE Gd 23Dec2003
   POMASS =  157.250; ZVAL   =   18.000    mass and valenz
   ENMAX  =  256.472; ENMIN  =  192.354 eV

   TITEL  = PAW_PBE Si 05Jan2001
   POMASS =   28.085; ZVAL   =    4.000    mass and valenz
   ENMAX  =  245.345; ENMIN  =  184.009 eV

   TITEL  = PAW_PBE O 08Apr2002
   POMASS =   16.000; ZVAL   =    6.000    mass and valenz
   ENMAX  =  400.000; ENMIN  =  300.000 eV

 Optimization of the real space projectors (new method)

 maximal supplied QI-value         = 16.25
 optimisation between [QCUT,QGAM] = [ 11.54, 23.24] = [ 37.28,151.24] Ry
 Optimized for a Real-space Cutoff    1.32 Angstroem

   l    n(q)    QCUT    max X(q) W(low)/X(q) W(high)/X(q)  e(spline)
   0      9    11.539    11.234    0.52E-04    0.40E-04    0.14E-07
   0      9    11.539    12.505    0.97E-04    0.77E-04    0.27E-07
   1      9    11.539   167.359    0.18E-03    0.11E-02    0.48E-06
   1      9    11.539   168.875    0.18E-03    0.11E-02    0.48E-06
   2      8    11.539     3.435    0.16E-03    0.11E-03    0.38E-07
 Optimization of the real space projectors (new method)

[...]

   l    n(q)    QCUT    max X(q) W(low)/X(q) W(high)/X(q)  e(spline)
   0      8    11.508   159.560    0.71E-04    0.15E-03    0.51E-07
   0      8    11.508   115.863    0.70E-04    0.15E-03    0.51E-07
   1      8    11.508    88.339    0.16E-03    0.38E-04    0.82E-07
   1      8    11.508    48.592    0.15E-03    0.36E-04    0.79E-07
 Optimization of the real space projectors (new method)

 maximal supplied QI-value         = 24.76
 optimisation between [QCUT,QGAM] = [ 11.64, 23.27] = [ 37.91,151.63] Ry
 Optimized for a Real-space Cutoff    1.14 Angstroem

   l    n(q)    QCUT    max X(q) W(low)/X(q) W(high)/X(q)  e(spline)
   0      8    11.635    20.381    0.10E-03    0.33E-03    0.24E-06
   0      8    11.635    15.268    0.11E-03    0.35E-03    0.26E-06
   1      7    11.635     5.964    0.24E-03    0.31E-03    0.30E-06
   1      7    11.635     5.382    0.22E-03    0.25E-03    0.26E-06
  PAW_PBE K_sv 06Sep2000                :
  PAW_PBE Gd 23Dec2003                  :
  PAW_PBE Si 05Jan2001                  :
  PAW_PBE O 08Apr2002                   :

 POSCAR: K18 Gd6 Si12 O42
  positions in direct lattice
 exchange correlation table for  LEXCH =        8
   RHO(1)=    0.500       N(1)  =     2000
   RHO(2)=  100.500       N(2)  =     4000

 VTST: version 4.2, (08/11/21)

 CHAIN: initializing optimizer

 OPT: Using VASP Dynamics algorithm
 CHAIN: Read ICHAIN             0

 POSCAR: K18 Gd6 Si12 O42
  positions in direct lattice

 ion  position               nearest neighbor table
   1  0.000  0.668  0.409-  47 2.80  55 2.80  35 3.37  29 3.41  27 3.46  34 3.46  17 3.58  19 3.60
                            21 3.60
   2  0.668  0.000  0.091-  40 2.80  37 2.80  26 3.37  25 3.41  32 3.46  33 3.46  10 3.58  20 3.60
                            23 3.60
   3  0.333  0.667  0.750-  19 3.64  23 3.64
   4  0.000  0.332  0.591-  72 2.80  61 2.80  29 3.37  35 3.41  30 3.46  36 3.46  17 3.58  21 3.60
                            19 3.60
   5  0.668  0.668  0.909-  69 2.80  75 2.80  31 3.37  32 3.41  25 3.46  28 3.46  10 3.58  20 3.60
                            23 3.60
   6  0.332  0.332  0.409-  50 2.80  59 2.80  27 3.37  30 3.41  34 3.46  35 3.46  17 3.58  19 3.60
                            21 3.60
   7  0.332  0.000  0.591-  78 2.80  48 2.80  36 3.37  34 3.41  30 3.46  29 3.46  17 3.58  19 3.60
                            21 3.60
   8  0.667  0.333  0.250-  20 3.64  21 3.64
   9  0.332  0.000  0.909-  62 2.80  58 2.80  25 3.37  26 3.41  31 3.46  28 3.46  10 3.58  23 3.60
                            20 3.60
  10  0.000  0.000  0.000-  39 2.78  49 2.78  68 2.78  77 2.78  43 2.78  65 2.78  12 3.58  15 3.58
                             2 3.58   9 3.58   5 3.58  18 3.58  22 3.64  24 3.64
  11  0.668  0.000  0.409-  57 2.80  66 2.80  34 3.37  36 3.41  27 3.46  35 3.46  17 3.58  21 3.60
                            19 3.60
  12  0.000  0.668  0.091-  38 2.80  73 2.80  33 3.37  28 3.41  32 3.46  26 3.46  10 3.58  23 3.60
                            20 3.60
  13  0.667  0.333  0.750-  20 3.64  21 3.64
  14  0.668  0.668  0.591-  46 2.80  52 2.80  30 3.37  27 3.41  36 3.46  29 3.46  17 3.58  19 3.60
                            21 3.60
  15  0.000  0.332  0.909-  51 2.80  42 2.80  28 3.37  33 3.41  31 3.46  25 3.46  10 3.58  20 3.60
                            23 3.60
  16  0.333  0.667  0.250-  19 3.64  23 3.64
  17  0.000  0.000  0.500-  44 2.78  63 2.78  70 2.78  71 2.78  60 2.78  41 2.78   7 3.58  11 3.58
                             1 3.58   4 3.58   6 3.58  14 3.58  22 3.64  24 3.64
  18  0.332  0.332  0.091-  54 2.80  67 2.80  32 3.37  31 3.41  26 3.46  33 3.46  10 3.58  20 3.60
                            23 3.60
  19  0.333  0.667  0.500-  48 2.30  55 2.30  57 2.30  72 2.30  50 2.30  46 2.30   1 3.60   7 3.60
                             4 3.60  11 3.60   6 3.60  14 3.60   3 3.64  16 3.64
  20  0.667  0.333  0.000-  37 2.30  42 2.30  38 2.30  62 2.30  54 2.30  69 2.30   2 3.60  15 3.60
                            12 3.60   9 3.60   5 3.60  18 3.60   8 3.64  13 3.64
  21  0.667  0.333  0.500-  61 2.30  66 2.30  47 2.30  78 2.30  59 2.30  52 2.30   4 3.60  11 3.60
                             7 3.60   1 3.60   6 3.60  14 3.60  13 3.64   8 3.64
  22  0.000  0.000  0.750-  44 2.33  49 2.33  68 2.33  71 2.33  43 2.33  60 2.33  10 3.64  17 3.64

  23  0.333  0.667  0.000-  58 2.30  73 2.30  40 2.30  51 2.30  67 2.30  75 2.30   9 3.60  12 3.60
                             2 3.60  15 3.60   5 3.60  18 3.60  16 3.64   3 3.64
  24  0.000  0.000  0.250-  39 2.33  63 2.33  70 2.33  77 2.33  41 2.33  65 2.33  10 3.64  17 3.64

  25  0.659  0.000  0.857-  42 1.64  75 1.64  68 1.64  76 1.69  36 3.12   9 3.37   2 3.41   5 3.46
                            15 3.46
  26  0.341  0.000  0.143-  73 1.64  54 1.64  77 1.64  56 1.69  34 3.12   2 3.37   9 3.41  18 3.46
                            12 3.46
  27  0.659  0.659  0.357-  47 1.64  57 1.64  41 1.64  45 1.69  32 3.12   6 3.37  14 3.41   1 3.46
                            11 3.46
  28  0.000  0.659  0.857-  58 1.64  69 1.64  49 1.64  74 1.69  29 3.12  15 3.37  12 3.41   5 3.46
                             9 3.46
  29  0.000  0.659  0.643-  48 1.64  52 1.64  44 1.64  74 1.69  28 3.12   4 3.37   1 3.41  14 3.46
                             7 3.46
  30  0.341  0.341  0.643-  72 1.64  78 1.64  60 1.64  64 1.69  31 3.12  14 3.37   6 3.41   4 3.46
                             7 3.46
  31  0.341  0.341  0.857-  51 1.64  62 1.64  43 1.64  64 1.69  30 3.12   5 3.37  18 3.41  15 3.46
                             9 3.46
  32  0.659  0.659  0.143-  38 1.64  40 1.64  65 1.64  45 1.69  27 3.12  18 3.37   5 3.41  12 3.46
                             2 3.46
  33  0.000  0.341  0.143-  37 1.64  67 1.64  39 1.64  53 1.69  35 3.12  12 3.37  15 3.41  18 3.46
                             2 3.46
  34  0.341  0.000  0.357-  55 1.64  59 1.64  63 1.64  56 1.69  26 3.12  11 3.37   7 3.41   6 3.46
                             1 3.46
  35  0.000  0.341  0.357-  66 1.64  50 1.64  70 1.64  53 1.69  33 3.12   1 3.37   4 3.41   6 3.46
                            11 3.46
  36  0.659  0.000  0.643-  61 1.64  46 1.64  71 1.64  76 1.69  25 3.12   7 3.37  11 3.41  14 3.46
                             4 3.46
  37  0.845  0.322  0.093-  33 1.64  20 2.30   2 2.80
  38  0.678  0.524  0.093-  32 1.64  20 2.30  12 2.80
  39  0.000  0.178  0.146-  33 1.64  24 2.33  10 2.78
  40  0.524  0.678  0.093-  32 1.64  23 2.30   2 2.80
  41  0.822  0.822  0.354-  27 1.64  24 2.33  17 2.78
  42  0.678  0.155  0.907-  25 1.64  20 2.30  15 2.80
  43  0.178  0.178  0.854-  31 1.64  22 2.33  10 2.78
  44  0.000  0.822  0.646-  29 1.64  22 2.33  17 2.78
  45  0.595  0.595  0.250-  27 1.69  32 1.69
  46  0.524  0.845  0.593-  36 1.64  19 2.30  14 2.80
  47  0.678  0.524  0.407-  27 1.64  21 2.30   1 2.80
  48  0.155  0.678  0.593-  29 1.64  19 2.30   7 2.80
  49  0.000  0.822  0.854-  28 1.64  22 2.33  10 2.78
  50  0.155  0.476  0.407-  35 1.64  19 2.30   6 2.80
  51  0.322  0.476  0.907-  31 1.64  23 2.30  15 2.80
  52  0.845  0.524  0.593-  29 1.64  21 2.30  14 2.80
  53  0.000  0.405  0.250-  33 1.69  35 1.69
  54  0.476  0.155  0.093-  26 1.64  20 2.30  18 2.80
  55  0.322  0.845  0.407-  34 1.64  19 2.30   1 2.80
  56  0.405  0.000  0.250-  26 1.69  34 1.69
  57  0.524  0.678  0.407-  27 1.64  19 2.30  11 2.80
  58  0.155  0.678  0.907-  28 1.64  23 2.30   9 2.80
  59  0.476  0.155  0.407-  34 1.64  21 2.30   6 2.80
  60  0.178  0.178  0.646-  30 1.64  22 2.33  17 2.78
  61  0.678  0.155  0.593-  36 1.64  21 2.30   4 2.80
  62  0.476  0.322  0.907-  31 1.64  20 2.30   9 2.80
  63  0.178  0.000  0.354-  34 1.64  24 2.33  17 2.78
  64  0.405  0.405  0.750-  30 1.69  31 1.69
  65  0.822  0.822  0.146-  32 1.64  24 2.33  10 2.78
  66  0.845  0.322  0.407-  35 1.64  21 2.30  11 2.80
  67  0.155  0.476  0.093-  33 1.64  23 2.30  18 2.80
  68  0.822  0.000  0.854-  25 1.64  22 2.33  10 2.78
  69  0.845  0.524  0.907-  28 1.64  20 2.30   5 2.80
  70  0.000  0.178  0.354-  35 1.64  24 2.33  17 2.78
  71  0.822  0.000  0.646-  36 1.64  22 2.33  17 2.78
  72  0.322  0.476  0.593-  30 1.64  19 2.30   4 2.80
  73  0.322  0.845  0.093-  26 1.64  23 2.30  12 2.80
  74  0.000  0.595  0.750-  28 1.69  29 1.69
  75  0.524  0.845  0.907-  25 1.64  23 2.30   5 2.80
  76  0.595  0.000  0.750-  25 1.69  36 1.69
  77  0.178  0.000  0.146-  26 1.64  24 2.33  10 2.78
  78  0.476  0.322  0.593-  30 1.64  21 2.30   7 2.80

  LATTYP: Found a hexagonal cell.
 ALAT       =    10.0280235378
 C/A-ratio  =     1.4538050240

  Lattice vectors:

 A1 = (   5.0140120000,  -8.6845230000,   0.0000000000)
 A2 = (   5.0140120000,   8.6845230000,   0.0000000000)
 A3 = (   0.0000000000,   0.0000000000,  14.5787910000)

Analysis of symmetry for initial positions (statically):
 Subroutine PRICEL returns:
 Original cell was already a primitive cell.

 Routine SETGRP: Setting up the symmetry group for a
 hexagonal supercell.

 Subroutine GETGRP returns: Found 24 space group operations
 (whereof 12 operations were pure point group operations)
 out of a pool of 24 trial point group operations.

The static configuration has the point symmetry D_3d.
 The point group associated with its full space group is D_6h.

[...]
  318                map_forward                           0.000461                    4   7
  319                  map_gather                            0.000076                  2   8
  320                  m_alltoallv_z                         0.000030                  2   8
  321                  map_scatter                           0.000313                  2   8
  322                map_backward                          0.000188                    2   7
  323                  map_gather                            0.000040                  1   8
  324                  m_alltoallv_z                         0.000013                  1   8
  325                  map_scatter                           0.000111                  1   8
  326          m_sumb_d                              0.000009                          2   4
  327          pothar                                0.000120                          1   4
  328            m_sumb_d                              0.000018                        1   5
  329        brmix                                 0.035586                            1   3
  330          m_sumb_d                              0.000048                          6   4
  331          brpre                                 0.000114                          2   4
  332          setg0                                 0.004768                          1   4
  333          broyd                                 0.024687                          1   4
  334            m_sumb_d                              0.002330                       50   5
  335            brget                                 0.004830                      224   5
  336            brsav                                 0.001036                       48   5
  337        m_bcast_d                             0.000092                            2   3
  338      potlok                                0.169569                              2   2
  339        fft3d_mpi                             0.101979                           36   3
  340          fftbrc_mpi                            0.081378                         36   4
  341            fftbas_plan_mpi                       0.081346                       36   5
  342              map_forward                           0.022268                     40   6
  343                map_gather                            0.005847                   24   7
  344                m_alltoallv_z                         0.009559                   24   7
  345                map_scatter                           0.006576                   24   7
  346              map_backward                          0.017916                     32   6
  347                map_gather                            0.003976                   16   7
  348                m_alltoallv_z                         0.007936                   16   7
  349                map_scatter                           0.005698                   16   7
  350              dfftw_execute                         0.039021                     30   6
  351        m_sumb_d                              0.000029                            5   3
  352        pothar                                0.007011                            2   3
  353          m_sumb_d                              0.000422                          2   4
  354        m_bcast_d                             0.011725                            4   3
  355      potlok_metagga                        0.000000                              1   2
  356      set_dd_magatom                        0.000004                              1   2
  357      set_dd_paw                            6.635541                              1   2
  358        m_sumb_d                              0.000882                            7   3
  359      augmentation_charge                   0.553744                              1   2
  360        fft3d_mpi                             0.267588                            2   3
  361          fftbrc_mpi                            0.229777                          2   4
  362            fftbas_plan_mpi                       0.229772                        2   5
  363              dfftw_execute                         0.131673                      6   6
  364              map_backward                          0.097858                      4   6
  365                map_gather                            0.034414                    2   7
  366                m_alltoallv_z                         0.023054                    2   7
  367                map_scatter                           0.040378                    2   7
  368      fftwav_mpi                           18.209979                           3492   2
  369        fftwav                               18.204160                         3492   3
  370          fft3d                                16.998936                       3492   4
  371      densta                                5.253004                              1   2

 Flat profile

 set_dd_paw                            904.942254         136
 eddav                                 213.506780         138
 raccmu_                               180.905531      314844
 lapack                                150.789028      314844
 m_sumb_d                               93.054318      959054
 redis_pw                               82.564475     1708065
 dfftw_execute                          48.661035        3708
 total_time                             44.728680           1
 setdij_                                43.377774         162
 augmentation_charge                    38.934583         136
 fft3d                                  34.941021     1839491
 m_alltoall_d                           33.653255     4518961
 eccp                                   23.713908      160632
 phaser                                 20.567533        1734
 hamiltmu                               18.797614      314844
 orth1                                  18.678104      944688
 redis_proj                             14.593139     2169232
 fftwav                                 13.553773     1217704
 fft3d_mpi                              12.684572      626558
 map_scatter                            11.367110        5333
 init_acc                               10.897055           1
 map_gather                             10.013052        5333
 densta                                  9.977671         139
 racc0mu_acc                             9.268176      314844
 w1_copy                                 9.039932     1865361
 overl                                   8.953828     1082954
 rpromu_acc                              8.255722      237600
 m_bcast_z                               8.019089      319500
 m_alltoallv_z                           7.955268        5333
 set_charge                              6.906319         135
 pw_charge                               6.623533      116138
 soft_charge                             6.385020         135
 setup_precond                           5.834988      160632
 ggemm                                   5.579273      395988
 m_bcast_d                               5.464861      629965
 overl_mu                                4.885570      314844
 vhamil                                  2.849358      621787
 kinhamil                                2.791279      621787
 depsum                                  2.662355         135
 fftext_mpi                              2.631748      621787
 newband                                 2.519975      316500
 apply_precond                           2.483532      461155
 acc_init_cublas                         2.453604           1
 potlok                                  1.891955         136
 broyd                                   1.885059         134
 fftwav_mpi                              1.587097     1217704
 rpro_isp                                0.967860          78
 brmix                                   0.878295         134
 acc_init_cusolver                       0.799818           1
 setg0                                   0.659272         136
 rspher_all                              0.653355          14
 sphpro_fast                             0.626688           2
 brget                                   0.591270       26936
 elmin                                   0.552401           1
 fftbas_plan_mpi                         0.273501        4771
 w1_projall                              0.225589      233700
 brsav                                   0.163516        7528
 proall                                  0.160997           1
 stufak                                  0.156419           1
 acc_cufft_makeplan                      0.123733          19
 lincom                                  0.113008        1668
 orthch                                  0.102955           1
 force_and_stress                        0.068380           1
 truncate_high_frequency_w1              0.062149      782419
 fft_gq                                  0.052725         135
 map_backward                            0.043396        5030
 map_forward                             0.039255        4512
 pothar                                  0.022692         137
 choleski                                0.015449          12
 brpre                                   0.015275         268
 forhar                                  0.013804           2
 strelo                                  0.011452           1
 strnlr                                  0.007299           1
 forloc                                  0.006980           1
 strehar                                 0.006434           1
 inisym                                  0.006201           1
 rsp                                     0.006108           1
 strkin                                  0.005339           1
 fftbrc_mpi                              0.003680        4771
 fornlr                                  0.002483           1
 brgrid                                  0.000779           1
 posmap                                  0.000778           2
 set_dd_magatom                          0.000651         136
 vectorpot                               0.000588         135
 chggra                                  0.000375           1
 fewald                                  0.000355           1
 fordep                                  0.000259           1
 rcp                                     0.000138           1
 crpa_reader                             0.000027           1
 acc_cufft_makeplans                     0.000009           3
 potlok_metagga                          0.000005         135
 rotate_active_occupied_orbital          0.000000           1
 redis_pw_over_bands                     0.000000           1
  summed up times     2159.271550893784

 Accumulative profile

 total_time                           2159.271551           1
 elmin                                2031.093774           1
 eddav                                 944.178151         138
 set_dd_paw                            905.424396         136
 hamiltmu                              226.763750      314844
 raccmu_                               195.059277      314844
 lapack                                150.789028      314844
 set_charge                            110.384038         135
 redis_pw                              100.535062     1708065
 fft3d_mpi                              95.490039      626558
 setdij_                                94.111549         162
 m_sumb_d                               93.054318      959054
 fftbrc_mpi                             78.356298        4771
 fftbas_plan_mpi                        78.352618        4771
 augmentation_charge                    75.423998         136
 dfftw_execute                          48.661035        3708
 newband                                45.647987      316500
 fftwav_mpi                             45.632722     1217704
 fftwav                                 44.045625     1217704
 fft3d                                  34.941021     1839491
 m_alltoall_d                           33.653255     4518961
 redis_proj                             30.275808     2169232
 force_and_stress                       26.993581           1
 soft_charge                            24.890858         135
 eccp                                   23.713908      160632
 phaser                                 20.567533        1734
 orth1                                  18.678104      944688
 map_backward                           15.749432        5030
 map_forward                            13.668650        4512
 map_scatter                            11.367110        5333
 init_acc                               10.897055           1
 kinhamil                               10.057501      621787
 map_gather                             10.013052        5333
 densta                                  9.977671         139
 racc0mu_acc                             9.268176      314844
 w1_copy                                 9.039932     1865361
 overl                                   8.953828     1082954
 rpromu_acc                              8.255722      237600
 m_bcast_z                               8.019089      319500
 m_alltoallv_z                           7.955268        5333
 fftext_mpi                              7.266222      621787
 w1_projall                              6.952439      233700
 pw_charge                               6.623533      116138
 setup_precond                           5.834988      160632
 ggemm                                   5.579273      395988
 m_bcast_d                               5.464861      629965
 overl_mu                                4.885570      314844
 brmix                                   4.391961         134
 fordep                                  3.468074           1
 strnlr                                  3.308028           1
 potlok                                  3.248751         136
 rpro_isp                                3.063808          78
 vhamil                                  2.849358      621787
 broyd                                   2.824372         134
 depsum                                  2.774697         135
 apply_precond                           2.483532      461155
 acc_init_cublas                         2.453604           1
 fft_gq                                  1.570947         135
 fornlr                                  1.108255           1
 acc_init_cusolver                       0.799818           1
 setg0                                   0.659272         136
 sphpro_fast                             0.655714           2
 rspher_all                              0.653355          14
 brget                                   0.591270       26936
 orthch                                  0.436581           1
 proall                                  0.362594           1
 brsav                                   0.163516        7528
 stufak                                  0.156419           1
 acc_cufft_makeplans                     0.123742           3
 acc_cufft_makeplan                      0.123733          19
 lincom                                  0.113008        1668
 truncate_high_frequency_w1              0.062149      782419
 pothar                                  0.024442         137
 choleski                                0.015449          12
 brpre                                   0.015275         268
 forhar                                  0.013911           2
 strelo                                  0.012250           1
 forloc                                  0.007573           1
 inisym                                  0.006979           1
 fewald                                  0.006783           1
 strehar                                 0.006438           1
 rsp                                     0.006108           1
 strkin                                  0.005366           1
 chggra                                  0.001404           1
 brgrid                                  0.000779           1
 posmap                                  0.000778           2
 set_dd_magatom                          0.000651         136
 vectorpot                               0.000588         135
 rcp                                     0.000138           1
 crpa_reader                             0.000027           1
 potlok_metagga                          0.000005         135
 rotate_active_occupied_orbital          0.000000           1
 redis_pw_over_bands                     0.000000           1

Profiling took   3.914195  1.951024  0.003221  0.003114 seconds
Profiling took   2.488718 seconds