 vasp.6.3.2 27Jun22 (build Jul  3 2023 11:46:21) complex
 executed on    LinuxNV_CrayMPICH date 2024.04.21  04:04:44

 INCAR:
   ADDGRID = True
   ALGO = Normal
   EDIFF = 0.0016
   ENCUT = 520.0
   IBRION = -1
   ICHARG = 0
   ISIF = 3
   ISMEAR = -5
   ISPIN = 2
   KPOINT_BSE = -1 0 0 0
   LAECHG = True
   LASPH = True
   LCHARG = True
   LELF = True
   LORBIT = 11
   LREAL = Auto
   LVHAR = True
   LWAVE = False
   MAGMOM = 8*0.6 4*7.0 20*0.6
   NELM = 1000
   NSW = 0
   PREC = accurate
   SIGMA = 0.05

 POTCAR:    PAW_PBE K_sv 06Sep2000
 POTCAR:    PAW_PBE Eu 23Dec2003
 POTCAR:    PAW_PBE F 08Apr2002
 POTCAR:    PAW_PBE K_sv 06Sep2000
   VRHFIN =K:  3s3p4s

   TITEL  = PAW_PBE K_sv 06Sep2000
   POMASS =   39.098; ZVAL   =    9.000    mass and valenz
   ENMAX  =  259.264; ENMIN  =  194.448 eV

   TITEL  = PAW_PBE Eu 23Dec2003
   POMASS =  151.965; ZVAL   =   17.000    mass and valenz
   ENMAX  =  249.668; ENMIN  =  187.251 eV

   TITEL  = PAW_PBE F 08Apr2002
   POMASS =   18.998; ZVAL   =    7.000    mass and valenz
   ENMAX  =  400.000; ENMIN  =  300.000 eV

 Optimization of the real space projectors (new method)

 maximal supplied QI-value         = 16.25
 optimisation between [QCUT,QGAM] = [ 11.54, 23.24] = [ 37.28,151.24] Ry
 Optimized for a Real-space Cutoff    1.32 Angstroem

   l    n(q)    QCUT    max X(q) W(low)/X(q) W(high)/X(q)  e(spline)
   0      9    11.539    11.234    0.52E-04    0.40E-04    0.14E-07
   0      9    11.539    12.505    0.97E-04    0.77E-04    0.27E-07
   1      9    11.539   167.359    0.18E-03    0.11E-02    0.48E-06
   1      9    11.539   168.875    0.18E-03    0.11E-02    0.48E-06
   2      8    11.539     3.435    0.16E-03    0.11E-03    0.38E-07
 Optimization of the real space projectors (new method)

[...]

   l    n(q)    QCUT    max X(q) W(low)/X(q) W(high)/X(q)  e(spline)
   0     11    11.673    10.400    0.14E-04    0.18E-05    0.24E-07
   0     11    11.673    10.768    0.21E-04    0.32E-05    0.49E-07
   1     11    11.673     4.094    0.40E-05    0.13E-04    0.93E-07
   1     11    11.673     4.009    0.11E-04    0.46E-04    0.33E-06
   2     10    11.673    29.030    0.79E-04    0.60E-04    0.70E-06
   2     10    11.673    19.941    0.80E-04    0.60E-04    0.71E-06
   3     10    11.673    88.889    0.23E-03    0.29E-03    0.30E-06
   3     10    11.673    76.102    0.23E-03    0.30E-03    0.30E-06
 Optimization of the real space projectors (new method)

 maximal supplied QI-value         = 24.76
 optimisation between [QCUT,QGAM] = [ 11.64, 23.27] = [ 37.91,151.63] Ry
 Optimized for a Real-space Cutoff    1.04 Angstroem

   l    n(q)    QCUT    max X(q) W(low)/X(q) W(high)/X(q)  e(spline)
   0      7    11.635    14.049    0.77E-04    0.36E-03    0.13E-06
   0      7    11.635     8.945    0.12E-03    0.48E-03    0.17E-06
   1      7    11.635     7.086    0.24E-03    0.44E-03    0.21E-06
   1      7    11.635     6.747    0.23E-03    0.35E-03    0.19E-06
  PAW_PBE K_sv 06Sep2000                :
  PAW_PBE Eu 23Dec2003                  :
  PAW_PBE F 08Apr2002                   :

 POSCAR: K8 Eu4 F20
  positions in direct lattice
 exchange correlation table for  LEXCH =        8
   RHO(1)=    0.500       N(1)  =     2000
   RHO(2)=  100.500       N(2)  =     4000

 VTST: version 4.2, (08/11/21)

 CHAIN: initializing optimizer

 OPT: Using VASP Dynamics algorithm
 CHAIN: Read ICHAIN             0

 POSCAR: K8 Eu4 F20
  positions in direct lattice

 ion  position               nearest neighbor table
   1  0.525  0.498  0.828-  23 2.73  15 2.75  32 2.76  13 2.81  24 2.84  17 2.85   6 3.76   3 3.79
                             3 3.79
   2  0.475  0.502  0.172-  24 2.73  16 2.75  31 2.76  14 2.81  23 2.84  18 2.85   4 3.76   5 3.79
                             5 3.79
   3  0.025  0.502  0.672-  21 2.73  13 2.75  30 2.76  15 2.81  22 2.84  19 2.85   8 3.76   1 3.79
                             1 3.79
   4  0.475  0.998  0.172-  24 2.73  16 2.75  29 2.76  14 2.81  23 2.84  18 2.85   2 3.76   7 3.79
                             7 3.79
   5  0.975  0.498  0.328-  22 2.73  14 2.75  28 2.76  16 2.81  21 2.84  20 2.85   7 3.76   2 3.79
                             2 3.79
   6  0.525  0.002  0.828-  23 2.73  15 2.75  27 2.76  13 2.81  24 2.84  17 2.85   1 3.76   8 3.79
                             8 3.79
   7  0.975  0.002  0.328-  22 2.73  14 2.75  26 2.76  16 2.81  21 2.84  20 2.85   5 3.76   4 3.79
                             4 3.79
   8  0.025  0.998  0.672-  21 2.73  13 2.75  25 2.76  15 2.81  22 2.84  19 2.85   3 3.76   6 3.79
                             6 3.79
   9  0.561  0.750  0.500-  17 2.28  16 2.30  21 2.32  26 2.36  28 2.36  25 2.39  30 2.39
  10  0.439  0.250  0.500-  18 2.28  15 2.30  22 2.32  25 2.36  30 2.36  28 2.39  26 2.39
  11  0.061  0.250  1.000-  19 2.28  14 2.30  23 2.32  29 2.36  31 2.36  27 2.39  32 2.39
  12  0.939  0.750  0.000-  20 2.28  13 2.30  24 2.32  27 2.36  32 2.36  31 2.39  29 2.39
  13  0.828  0.750  0.806-  12 2.30   8 2.75   3 2.75   1 2.81   6 2.81
  14  0.172  0.250  0.194-  11 2.30   7 2.75   5 2.75   4 2.81   2 2.81
  15  0.328  0.250  0.694-  10 2.30   6 2.75   1 2.75   8 2.81   3 2.81
  16  0.672  0.750  0.306-   9 2.30   4 2.75   2 2.75   7 2.81   5 2.81
  17  0.364  0.750  0.666-   9 2.28   6 2.85   1 2.85
  18  0.636  0.250  0.334-  10 2.28   4 2.85   2 2.85
  19  0.864  0.250  0.834-  11 2.28   8 2.85   3 2.85
  20  0.136  0.750  0.166-  12 2.28   7 2.85   5 2.85
  21  0.905  0.750  0.511-   9 2.32   8 2.73   3 2.73   5 2.84   7 2.84
  22  0.095  0.250  0.489-  10 2.32   7 2.73   5 2.73   8 2.84   3 2.84
  23  0.405  0.250  0.989-  11 2.32   6 2.73   1 2.73   2 2.84   4 2.84
  24  0.595  0.750  0.011-  12 2.32   4 2.73   2 2.73   6 2.84   1 2.84
  25  0.644  0.031  0.583-  10 2.36   9 2.39   8 2.76
  26  0.356  0.969  0.417-   9 2.36  10 2.39   7 2.76
  27  0.144  0.969  0.917-  12 2.36  11 2.39   6 2.76
  28  0.356  0.531  0.417-   9 2.36  10 2.39   5 2.76
  29  0.856  0.031  0.083-  11 2.36  12 2.39   4 2.76
  30  0.644  0.469  0.583-  10 2.36   9 2.39   3 2.76
  31  0.856  0.469  0.083-  11 2.36  12 2.39   2 2.76
  32  0.144  0.531  0.917-  12 2.36  11 2.39   1 2.76

  LATTYP: Found a simple orthorhombic cell.
 ALAT       =     6.7325940000
 B/A-ratio  =     1.1288576142
 C/A-ratio  =     1.6597613045

  Lattice vectors:

 A1 = (   6.7325940000,   0.0000000000,   0.0000000000)
 A2 = (   0.0000000000,   7.6001400000,   0.0000000000)
 A3 = (   0.0000000000,   0.0000000000,  11.1744990000)

Analysis of symmetry for initial positions (statically):
 Subroutine PRICEL returns:
 Original cell was already a primitive cell.

 Routine SETGRP: Setting up the symmetry group for a
 simple orthorhombic supercell.

 Subroutine GETGRP returns: Found  8 space group operations
 (whereof  2 operations were pure point group operations)
 out of a pool of  8 trial point group operations.

The static configuration has the point symmetry S_2 .
 The point group associated with its full space group is D_2h.

Analysis of symmetry for dynamics (positions and initial velocities):
 Subroutine PRICEL returns:
 Original cell was already a primitive cell.

[...]

The dynamic configuration has the point symmetry S_2 .
 The point group associated with its full space group is D_2h.

Analysis of structural, dynamic, and magnetic symmetry:
 Subroutine PRICEL returns:
 Original cell was already a primitive cell.

 Routine SETGRP: Setting up the symmetry group for a
 simple orthorhombic supercell.

 Subroutine GETGRP returns: Found  8 space group operations
 (whereof  2 operations were pure point group operations)
 out of a pool of  8 trial point group operations.

The overall configuration has the point symmetry S_2 .
 The point group associated with its full space group is D_2h.

 Subroutine INISYM returns: Found  8 space group operations
 (whereof  2 operations are pure point group operations),
 and found     1 'primitive' translations

                                     Primitive cell

  volume of cell :     571.7841

  direct lattice vectors                    reciprocal lattice vectors
     6.732594000  0.000000000  0.000000000     0.148531161  0.000000000  0.000000000
     0.000000000  7.600140000  0.000000000     0.000000000  0.131576524  0.000000000
     0.000000000  0.000000000 11.174499000     0.000000000  0.000000000  0.089489471

  length of vectors
     6.732594000  7.600140000 11.174499000     0.148531161  0.131576524  0.089489471

  position of ions in fractional coordinates (direct lattice)
     0.525447000  0.497636000  0.828216000
     0.474553000  0.502364000  0.171784000
     0.025447000  0.502364000  0.671784000
     0.474553000  0.997636000  0.171784000
     0.974553000  0.497636000  0.328216000
     0.525447000  0.002364000  0.828216000
     0.974553000  0.002364000  0.328216000
     0.025447000  0.997636000  0.671784000
     0.560891000  0.750000000  0.500436000
     0.439109000  0.250000000  0.499564000
     0.060891000  0.250000000  0.999564000
     0.939109000  0.750000000  0.000436000
     0.827638000  0.750000000  0.806196000
     0.172362000  0.250000000  0.193804000
     0.327638000  0.250000000  0.693804000
     0.672362000  0.750000000  0.306196000
     0.364082000  0.750000000  0.666212000
     0.635918000  0.250000000  0.333788000
     0.864082000  0.250000000  0.833788000
     0.135918000  0.750000000  0.166212000
     0.905256000  0.750000000  0.510641000
     0.094744000  0.250000000  0.489359000
     0.405256000  0.250000000  0.989359000
     0.594744000  0.750000000  0.010641000
     0.644209000  0.030877000  0.583188000
     0.355791000  0.969123000  0.416812000
     0.144209000  0.969123000  0.916812000
     0.355791000  0.530877000  0.416812000
     0.855791000  0.030877000  0.083188000
     0.644209000  0.469123000  0.583188000
     0.855791000  0.469123000  0.083188000
     0.144209000  0.530877000  0.916812000

  ion indices of the primitive-cell ions
   primitive index   ion index
                 1           1
                 2           2
                 3           3
                 4           4
                 5           5
                 6           6
                 7           7
                 8           8
                 9           9
                10          10
                11          11
                12          12
                13          13
                14          14
                15          15
                16          16
                17          17
                18          18
                19          19
                20          20
                21          21
                22          22
                23          23
                24          24
                25          25
                26          26
                27          27
                28          28
                29          29
                30          30
                31          31
                32          32

 KPOINTS: Kpoints from vasprun.xml

Automatic generation of k-mesh.
 Grid dimensions read from file:
 generate k-points for:    4    3    2

 Generating k-lattice:

[...]
  318                map_forward                           0.000255                    4   7
  319                  map_gather                            0.000050                  2   8
  320                  m_alltoallv_z                         0.000029                  2   8
  321                  map_scatter                           0.000138                  2   8
  322                map_backward                          0.000119                    2   7
  323                  map_gather                            0.000028                  1   8
  324                  m_alltoallv_z                         0.000013                  1   8
  325                  map_scatter                           0.000058                  1   8
  326          m_sumb_d                              0.000009                          2   4
  327          pothar                                0.000086                          1   4
  328            m_sumb_d                              0.000008                        1   5
  329        brmix                                 0.015491                            1   3
  330          m_sumb_d                              0.000034                          6   4
  331          brpre                                 0.000050                          2   4
  332          setg0                                 0.001796                          1   4
  333          broyd                                 0.011429                          1   4
  334            m_sumb_d                              0.000391                       51   5
  335            brget                                 0.002108                      229   5
  336            brsav                                 0.000435                       49   5
  337        m_bcast_d                             0.000033                            2   3
  338      potlok                                0.057601                              2   2
  339        fft3d_mpi                             0.036230                           36   3
  340          fftbrc_mpi                            0.031286                         36   4
  341            fftbas_plan_mpi                       0.031270                       36   5
  342              map_forward                           0.008974                     40   6
  343                map_gather                            0.002730                   24   7
  344                m_alltoallv_z                         0.003379                   24   7
  345                map_scatter                           0.002626                   24   7
  346              map_backward                          0.007469                     32   6
  347                map_gather                            0.002538                   16   7
  348                m_alltoallv_z                         0.002468                   16   7
  349                map_scatter                           0.002215                   16   7
  350              dfftw_execute                         0.012986                     30   6
  351        m_sumb_d                              0.000026                            5   3
  352        pothar                                0.002447                            2   3
  353          m_sumb_d                              0.000129                          2   4
  354        m_bcast_d                             0.004211                            4   3
  355      potlok_metagga                        0.000000                              1   2
  356      set_dd_magatom                        0.000005                              1   2
  357      set_dd_paw                            3.024378                              1   2
  358        m_sumb_d                              0.025037                            7   3
  359      augmentation_charge                   0.195571                              1   2
  360        fft3d_mpi                             0.093236                            2   3
  361          fftbrc_mpi                            0.083046                          2   4
  362            fftbas_plan_mpi                       0.083042                        2   5
  363              dfftw_execute                         0.051959                      6   6
  364              map_backward                          0.030807                      4   6
  365                map_gather                            0.011087                    2   7
  366                m_alltoallv_z                         0.010053                    2   7
  367                map_scatter                           0.009655                    2   7
  368      fftwav_mpi                            5.577867                           3456   2
  369        fftwav                                5.573196                         3456   3
  370          fft3d                                 5.123684                       3456   4
  371      densta                                5.358888                              1   2

 Flat profile

 set_dd_paw                            437.766524         147
 eddav                                 184.907458         149
 lapack                                170.695395      355996
 raccmu_                               156.076230      355996
 redis_pw                               87.480880     1971528
 m_sumb_d                               77.878897     1084564
 m_alltoall_d                           36.312165     5161352
 fft3d                                  22.077187     2106232
 orth1                                  19.157889     1068132
 eccp                                   18.892331      171648
 dfftw_execute                          18.766133        3972
 total_time                             18.386281           1
 redis_proj                             16.905164     2511896
 setdij_                                16.584711         173
 densta                                 15.798365         150
 augmentation_charge                    15.134823         147
 fftwav                                 13.707496     1394240
 phaser                                 13.406164        3732
 hamiltmu                               11.880313      355996
 init_acc                               11.164756           1
 w1_copy                                10.660573     2135976
 overl                                  10.527716     1252360
 racc0mu_acc                            10.516791      355996
 rpromu_acc                              8.868914      273916
 m_bcast_z                               8.205536      360604
 ggemm                                   7.455310      441820
 soft_charge                             6.934100         146
 setup_precond                           6.279624      171648
 m_bcast_d                               6.038180      712291
 overl_mu                                5.537407      355996
 pw_charge                               4.463362      123472
 m_alltoallv_z                           4.060418        5751
 acc_init_cublas                         3.618872           1
 fft3d_mpi                               3.522443      717137
 vhamil                                  3.321444      711992
 kinhamil                                3.302130      711992
 map_gather                              3.294790        5751
 map_scatter                             3.273906        5751
 fftext_mpi                              3.050492      711992
 apply_precond                           2.978706      540344
 depsum                                  2.779408         146
 newband                                 2.760418      359572
 set_charge                              2.167175         146
 fftwav_mpi                              1.863790     1394240
 acc_init_cusolver                       1.108531           1
 potlok                                  0.865643         147
 broyd                                   0.810622         145
 rpro_isp                                0.806842         156
 brmix                                   0.460367         145
 elmin                                   0.356278           1
 fftbas_plan_mpi                         0.298414        5145
 sphpro_fast                             0.282827           2
 w1_projall                              0.280595      270172
 brget                                   0.270710       29589
 setg0                                   0.259382         147
 acc_cufft_makeplan                      0.258836          19
 rspher_all                              0.226737          14
 lincom                                  0.152212        3600
 proall                                  0.095035           1
 brsav                                   0.073153        8283
 truncate_high_frequency_w1              0.071352      883640
 orthch                                  0.049630           1
 map_backward                            0.039413        5426
 map_forward                             0.035802        4864
 force_and_stress                        0.031002           1
 stufak                                  0.025199           1
 fft_gq                                  0.021632         146
 choleski                                0.019260          24
 pothar                                  0.014892         148
 brpre                                   0.007079         290
 strnlr                                  0.005613           1
 inisym                                  0.004586           1
 strelo                                  0.003598           1
 fftbrc_mpi                              0.003079        5145
 forhar                                  0.002766           2
 strkin                                  0.002455           1
 strehar                                 0.002416           1
 fornlr                                  0.001955           1
 forloc                                  0.001411           1
 rsp                                     0.001094           1
 set_dd_magatom                          0.000669         147
 vectorpot                               0.000617         146
 fewald                                  0.000349           1
 brgrid                                  0.000322           1
 chggra                                  0.000261           1
 fordep                                  0.000121           1
 posmap                                  0.000061           2
 rcp                                     0.000046           1
 crpa_reader                             0.000027           1
 potlok_metagga                          0.000012         146
 acc_cufft_makeplans                     0.000012           3
 rotate_active_occupied_orbital          0.000001           1
 redis_pw_over_bands                     0.000001           1
  summed up times     1495.413581132889

 Accumulative profile

 total_time                           1495.413581           1
 elmin                                1431.013535           1
 eddav                                 902.888929         149
 set_dd_paw                            440.996065         147
 hamiltmu                              199.009126      355996
 raccmu_                               172.130428      355996
 lapack                                170.695395      355996
 redis_pw                              105.478568     1971528
 m_sumb_d                               77.878897     1084564
 set_charge                             52.236665         146
 newband                                41.775962      359572
 fft3d_mpi                              38.396261      717137
 m_alltoall_d                           36.312165     5161352
 redis_proj                             35.219641     2511896
 setdij_                                33.946134         173
 fftwav_mpi                             32.546610     1394240
 fftwav                                 30.682820     1394240
 fftbrc_mpi                             29.771956        5145
 fftbas_plan_mpi                        29.768877        5145
 augmentation_charge                    29.133187         147
 fft3d                                  22.077187     2106232
 orth1                                  19.157889     1068132
 eccp                                   18.892331      171648
 dfftw_execute                          18.766133        3972
 soft_charge                            17.913438         146
 densta                                 15.798365         150
 phaser                                 13.406164        3732
 kinhamil                               11.676942      711992
 force_and_stress                       11.332871           1
 init_acc                               11.164756           1
 w1_copy                                10.660573     2135976
 overl                                  10.527716     1252360
 racc0mu_acc                            10.516791      355996
 rpromu_acc                              8.868914      273916
 fftext_mpi                              8.374812      711992
 w1_projall                              8.315084      270172
 m_bcast_z                               8.205536      360604
 ggemm                                   7.455310      441820
 setup_precond                           6.279624      171648
 m_bcast_d                               6.038180      712291
 map_backward                            5.891449        5426
 overl_mu                                5.537407      355996
 map_forward                             4.812881        4864
 pw_charge                               4.463362      123472
 m_alltoallv_z                           4.060418        5751
 acc_init_cublas                         3.618872           1
 vhamil                                  3.321444      711992
 map_gather                              3.294790        5751
 map_scatter                             3.273906        5751
 apply_precond                           2.978706      540344
 depsum                                  2.830871         146
 rpro_isp                                2.111784         156
 strnlr                                  2.087784           1
 brmix                                   2.040524         145
 potlok                                  1.822526         147
 broyd                                   1.303152         145
 fordep                                  1.178049           1
 acc_init_cusolver                       1.108531           1
 fornlr                                  0.697608           1
 fft_gq                                  0.558086         146
 orthch                                  0.421987           1
 sphpro_fast                             0.294880           2
 brget                                   0.270710       29589
 setg0                                   0.259382         147
 acc_cufft_makeplans                     0.258848           3
 acc_cufft_makeplan                      0.258836          19
 rspher_all                              0.226737          14
 proall                                  0.215277           1
 lincom                                  0.152212        3600
 brsav                                   0.073153        8283
 truncate_high_frequency_w1              0.071352      883640
 stufak                                  0.025199           1
 choleski                                0.019260          24
 pothar                                  0.016620         148
 brpre                                   0.007079         290
 inisym                                  0.004647           1
 strelo                                  0.003610           1
 fewald                                  0.003556           1
 forhar                                  0.002846           2
 strkin                                  0.002474           1
 strehar                                 0.002429           1
 forloc                                  0.002253           1
 rsp                                     0.001094           1
 chggra                                  0.000940           1
 set_dd_magatom                          0.000669         147
 vectorpot                               0.000617         146
 brgrid                                  0.000322           1
 posmap                                  0.000061           2
 rcp                                     0.000046           1
 crpa_reader                             0.000027           1
 potlok_metagga                          0.000012         146
 rotate_active_occupied_orbital          0.000001           1
 redis_pw_over_bands                     0.000001           1

Profiling took   4.451196  2.155983  0.003405  0.003303 seconds
Profiling took   3.015907 seconds