 vasp.6.3.2 27Jun22 (build Jul  3 2023 11:46:21) complex
 executed on    LinuxNV_CrayMPICH date 2024.04.21  21:30:01

 INCAR:
   ADDGRID = True
   ALGO = Normal
   EDIFF = 0.004
   ENCUT = 520.0
   IBRION = -1
   ICHARG = 0
   ISIF = 3
   ISMEAR = -5
   ISPIN = 2
   KPOINT_BSE = -1 0 0 0
   LAECHG = True
   LASPH = True
   LCHARG = True
   LELF = True
   LORBIT = 11
   LREAL = Auto
   LVHAR = True
   LWAVE = False
   MAGMOM = 4*7.0 76*0.6
   NELM = 1000
   NSW = 0
   PREC = accurate
   SIGMA = 0.05

 POTCAR:    PAW_PBE Eu 23Dec2003
 POTCAR:    PAW_PBE P 06Sep2000
 POTCAR:    PAW_PBE O 08Apr2002
 POTCAR:    PAW_PBE Eu 23Dec2003
   VRHFIN =Eu : [core=Kr4d]

   TITEL  = PAW_PBE Eu 23Dec2003
   POMASS =  151.965; ZVAL   =   17.000    mass and valenz
   ENMAX  =  249.668; ENMIN  =  187.251 eV

   TITEL  = PAW_PBE P 06Sep2000
   POMASS =   30.974; ZVAL   =    5.000    mass and valenz
   ENMAX  =  255.040; ENMIN  =  191.280 eV

   TITEL  = PAW_PBE O 08Apr2002
   POMASS =   16.000; ZVAL   =    6.000    mass and valenz
   ENMAX  =  400.000; ENMIN  =  300.000 eV

 Optimization of the real space projectors (new method)

 maximal supplied QI-value         = 13.42
 optimisation between [QCUT,QGAM] = [ 11.67, 23.35] = [ 38.16,152.62] Ry
 Optimized for a Real-space Cutoff    1.63 Angstroem

   l    n(q)    QCUT    max X(q) W(low)/X(q) W(high)/X(q)  e(spline)
   0     11    11.673    10.400    0.14E-04    0.18E-05    0.24E-07
   0     11    11.673    10.768    0.21E-04    0.32E-05    0.49E-07
   1     11    11.673     4.094    0.40E-05    0.13E-04    0.93E-07
   1     11    11.673     4.009    0.11E-04    0.46E-04    0.33E-06
   2     10    11.673    29.030    0.79E-04    0.60E-04    0.70E-06
   2     10    11.673    19.941    0.80E-04    0.60E-04    0.71E-06
   3     10    11.673    88.889    0.23E-03    0.29E-03    0.30E-06
   3     10    11.673    76.102    0.23E-03    0.30E-03    0.30E-06
 Optimization of the real space projectors (new method)

[...]

   l    n(q)    QCUT    max X(q) W(low)/X(q) W(high)/X(q)  e(spline)
   0      8    11.508   160.924    0.96E-04    0.17E-03    0.52E-07
   0      8    11.508   130.086    0.95E-04    0.17E-03    0.51E-07
   1      8    11.508    74.434    0.16E-03    0.74E-04    0.91E-07
   1      8    11.508    49.120    0.16E-03    0.71E-04    0.89E-07
 Optimization of the real space projectors (new method)

 maximal supplied QI-value         = 24.76
 optimisation between [QCUT,QGAM] = [ 11.64, 23.27] = [ 37.91,151.63] Ry
 Optimized for a Real-space Cutoff    1.14 Angstroem

   l    n(q)    QCUT    max X(q) W(low)/X(q) W(high)/X(q)  e(spline)
   0      8    11.635    20.381    0.10E-03    0.33E-03    0.24E-06
   0      8    11.635    15.268    0.11E-03    0.35E-03    0.26E-06
   1      7    11.635     5.964    0.24E-03    0.31E-03    0.30E-06
   1      7    11.635     5.382    0.22E-03    0.25E-03    0.26E-06
  PAW_PBE Eu 23Dec2003                  :
  PAW_PBE P 06Sep2000                   :
  PAW_PBE O 08Apr2002                   :

 POSCAR: Eu4 P20 O56
  positions in direct lattice
 exchange correlation table for  LEXCH =        8
   RHO(1)=    0.500       N(1)  =     2000
   RHO(2)=  100.500       N(2)  =     4000

 VTST: version 4.2, (08/11/21)

 CHAIN: initializing optimizer

 OPT: Using VASP Dynamics algorithm
 CHAIN: Read ICHAIN             0

 POSCAR: Eu4 P20 O56
  positions in direct lattice

 ion  position               nearest neighbor table
   1  0.691  0.778  0.001-  51 2.35  34 2.37  40 2.38  32 2.40  74 2.43  55 2.44  54 2.47  76 2.47

   2  0.309  0.222  0.999-  64 2.35  36 2.37  52 2.38  27 2.40  72 2.43  60 2.44  39 2.47  46 2.47

[...]

   5  0.745  0.186  1.000-  72 1.48  76 1.49  29 1.63  38 1.63  22 2.89   9 2.91
   6  0.552  0.275  0.663-  58 1.47  65 1.57  37 1.57  35 1.58  23 2.90  12 2.91
   7  0.448  0.725  0.337-  78 1.47  68 1.57  33 1.57  41 1.58  10 2.90  18 2.91
   8  0.497  0.493  0.172-  32 1.48  52 1.48  59 1.62  33 1.62
   9  0.948  0.275  0.163-  39 1.47  38 1.57  66 1.57  62 1.58  21 2.90   5 2.91
  10  0.494  0.991  0.203-  34 1.49  64 1.49  41 1.61  25 1.62   7 2.90  11 2.93
  11  0.547  0.254  0.335-  53 1.47  59 1.57  25 1.57  28 1.57  12 2.89  10 2.93
  12  0.755  0.186  0.500-  45 1.48  69 1.49  28 1.63  65 1.63  11 2.89   6 2.91
  13  0.052  0.725  0.837-  54 1.47  44 1.57  73 1.57  26 1.58  20 2.90  16 2.91
  14  0.997  0.507  0.328-  47 1.48  77 1.48  31 1.62  66 1.62
  15  0.453  0.746  0.665-  63 1.47  79 1.57  61 1.57  48 1.57  18 2.89  23 2.93
  16  0.255  0.814  0.000-  74 1.48  46 1.49  49 1.63  44 1.63  17 2.89  13 2.91
  17  0.047  0.746  0.165-  55 1.47  31 1.57  42 1.57  49 1.57  16 2.89  21 2.93
  18  0.245  0.814  0.500-  56 1.48  50 1.49  48 1.63  68 1.63  15 2.89   7 2.91
  19  0.003  0.493  0.672-  30 1.48  43 1.48  80 1.62  73 1.62
  20  0.006  0.991  0.703-  57 1.49  67 1.49  26 1.61  70 1.62  13 2.90  22 2.93
  21  0.994  0.009  0.297-  71 1.49  75 1.49  62 1.61  42 1.62   9 2.90  17 2.93
  22  0.953  0.254  0.835-  60 1.47  80 1.57  70 1.57  29 1.57   5 2.89  20 2.93
  23  0.506  0.009  0.797-  36 1.49  51 1.49  35 1.61  61 1.62   6 2.90  15 2.93
  24  0.503  0.507  0.828-  27 1.48  40 1.48  79 1.62  37 1.62
  25  0.573  0.088  0.293-  11 1.57  10 1.62
  26  0.101  0.871  0.772-  13 1.58  20 1.61
  27  0.383  0.417  0.878-  24 1.48   2 2.40
  28  0.694  0.280  0.400-  11 1.57  12 1.63
  29  0.806  0.280  0.900-  22 1.57   5 1.63
  30  0.883  0.583  0.622-  19 1.48   3 2.40
  31  0.082  0.637  0.259-  17 1.57  14 1.62
  32  0.617  0.583  0.122-   8 1.48   1 2.40
  33  0.416  0.587  0.263-   7 1.57   8 1.62
  34  0.619  0.911  0.150-  10 1.49   1 2.37
  35  0.601  0.129  0.728-   6 1.58  23 1.61
  36  0.381  0.089  0.850-  23 1.49   2 2.37
  37  0.584  0.413  0.737-   6 1.57  24 1.62
  38  0.813  0.297  0.088-   9 1.57   5 1.63
  39  0.097  0.269  0.116-   9 1.47   2 2.47
  40  0.626  0.577  0.888-  24 1.48   1 2.38
  41  0.399  0.871  0.272-   7 1.58  10 1.61
  42  0.073  0.912  0.207-  17 1.57  21 1.62
  43  0.126  0.423  0.612-  19 1.48   4 2.38
  44  0.187  0.703  0.912-  13 1.57  16 1.63
  45  0.920  0.209  0.501-  12 1.48   4 2.43
  46  0.184  0.969  0.994-  16 1.49   2 2.47
  47  0.117  0.417  0.378-  14 1.48   4 2.40
  48  0.306  0.720  0.600-  15 1.57  18 1.63
  49  0.194  0.720  0.100-  17 1.57  16 1.63
  50  0.316  0.969  0.494-  18 1.49   4 2.47
  51  0.620  0.914  0.851-  23 1.49   1 2.35
  52  0.374  0.423  0.112-   8 1.48   2 2.38
  53  0.406  0.281  0.390-  11 1.47   4 2.44
  54  0.903  0.731  0.884-  13 1.47   1 2.47
  55  0.906  0.719  0.110-  17 1.47   1 2.44
  56  0.080  0.791  0.499-  18 1.48   3 2.43
  57  0.881  0.911  0.650-  20 1.49   3 2.37
  58  0.403  0.269  0.616-   6 1.47   4 2.47
  59  0.582  0.363  0.241-  11 1.57   8 1.62
  60  0.094  0.281  0.890-  22 1.47   2 2.44
  61  0.427  0.912  0.707-  15 1.57  23 1.62
  62  0.899  0.129  0.228-   9 1.58  21 1.61
  63  0.594  0.719  0.610-  15 1.47   3 2.44
  64  0.380  0.086  0.149-  10 1.49   2 2.35
  65  0.687  0.297  0.588-   6 1.57  12 1.63
  66  0.916  0.413  0.237-   9 1.57  14 1.62
  67  0.120  0.086  0.649-  20 1.49   4 2.35
  68  0.313  0.703  0.412-   7 1.57  18 1.63
  69  0.684  0.031  0.506-  12 1.49   3 2.47
  70  0.927  0.088  0.793-  22 1.57  20 1.62
  71  0.119  0.089  0.350-  21 1.49   4 2.37
  72  0.580  0.209  0.001-   5 1.48   2 2.43
  73  0.084  0.587  0.763-  13 1.57  19 1.62
  74  0.420  0.791  0.999-  16 1.48   1 2.43
  75  0.880  0.914  0.351-  21 1.49   3 2.35
  76  0.816  0.031  0.006-   5 1.49   1 2.47
  77  0.874  0.577  0.388-  14 1.48   3 2.38
  78  0.597  0.731  0.384-   7 1.47   3 2.47
  79  0.418  0.637  0.759-  15 1.57  24 1.62
  80  0.918  0.363  0.741-  22 1.57  19 1.62

  LATTYP: Found a simple monoclinic cell.
 ALAT       =     8.7092970000
 B/A-ratio  =     1.0268917227
 C/A-ratio  =     1.4944244099
 COS(beta)  =    -0.0158841236

  Lattice vectors:

 A1 = (   0.0000000000,   8.7092970000,   0.0000000000)
 A2 = (   8.9435050000,   0.0000000000,   0.0000000000)
 A3 = (   0.0000000000,  -0.2067380000, -13.0137440000)

Analysis of symmetry for initial positions (statically):
 Subroutine PRICEL returns:
 Original cell was already a primitive cell.

 Routine SETGRP: Setting up the symmetry group for a
 simple monoclinic supercell.

 Subroutine GETGRP returns: Found  4 space group operations
 (whereof  2 operations were pure point group operations)
 out of a pool of  4 trial point group operations.

The static configuration has the point symmetry S_2 .
 The point group associated with its full space group is C_2h.

Analysis of symmetry for dynamics (positions and initial velocities):
 Subroutine PRICEL returns:
 Original cell was already a primitive cell.

[...]

The dynamic configuration has the point symmetry S_2 .
 The point group associated with its full space group is C_2h.

Analysis of structural, dynamic, and magnetic symmetry:
 Subroutine PRICEL returns:
 Original cell was already a primitive cell.

 Routine SETGRP: Setting up the symmetry group for a
 simple monoclinic supercell.

 Subroutine GETGRP returns: Found  4 space group operations
 (whereof  2 operations were pure point group operations)
 out of a pool of  4 trial point group operations.

The overall configuration has the point symmetry S_2 .
 The point group associated with its full space group is C_2h.

 Subroutine INISYM returns: Found  4 space group operations
 (whereof  2 operations are pure point group operations),
 and found     1 'primitive' translations

                                     Primitive cell

  volume of cell :    1013.6619

  direct lattice vectors                    reciprocal lattice vectors
     8.943505000  0.000000000  0.000000000     0.111812986  0.000000000  0.000000000
     0.000000000  8.709297000  0.000000000     0.000000000  0.114819830 -0.001824042
     0.000000000  0.206738000 13.013744000     0.000000000  0.000000000  0.076841837

  length of vectors
     8.943505000  8.709297000 13.015386030     0.111812986  0.114834317  0.076841837

  position of ions in fractional coordinates (direct lattice)
     0.691085000  0.778339000  0.000968000
     0.308915000  0.221661000  0.999032000
     0.808915000  0.778339000  0.500968000
     0.191085000  0.221661000  0.499032000
     0.744887000  0.186022000  0.999896000
     0.551931000  0.275333000  0.663447000
     0.448069000  0.724667000  0.336553000
     0.496750000  0.492544000  0.172461000
     0.948069000  0.275333000  0.163447000
     0.494193000  0.990988000  0.203125000
     0.547098000  0.254094000  0.335259000
     0.755113000  0.186022000  0.499896000
     0.051931000  0.724667000  0.836553000
     0.996750000  0.507456000  0.327539000
     0.452902000  0.745906000  0.664741000
     0.255113000  0.813978000  0.000104000
     0.047098000  0.745906000  0.164741000
     0.244887000  0.813978000  0.500104000
     0.003250000  0.492544000  0.672461000
     0.005807000  0.990988000  0.703125000
     0.994193000  0.009012000  0.296875000
     0.952902000  0.254094000  0.835259000
     0.505807000  0.009012000  0.796875000
     0.503250000  0.507456000  0.827539000
     0.572626000  0.088190000  0.293206000
[...]
  318                map_forward                           0.000390                    4   7
  319                  map_gather                            0.000070                  2   8
  320                  m_alltoallv_z                         0.000029                  2   8
  321                  map_scatter                           0.000247                  2   8
  322                map_backward                          0.000155                    2   7
  323                  map_gather                            0.000037                  1   8
  324                  m_alltoallv_z                         0.000013                  1   8
  325                  map_scatter                           0.000071                  1   8
  326          m_sumb_d                              0.000009                          2   4
  327          pothar                                0.000117                          1   4
  328            m_sumb_d                              0.000027                        1   5
  329        brmix                                 0.029370                            1   3
  330          m_sumb_d                              0.000155                          6   4
  331          brpre                                 0.000080                          2   4
  332          setg0                                 0.003413                          1   4
  333          broyd                                 0.021504                          1   4
  334            brget                                 0.005826                      326   5
  335            brsav                                 0.002750                      163   5
  336            m_sumb_d                              0.000473                       47   5
  337        m_bcast_d                             0.000103                            2   3
  338      potlok                                0.110954                              2   2
  339        fft3d_mpi                             0.070742                           36   3
  340          fftbrc_mpi                            0.059702                         36   4
  341            fftbas_plan_mpi                       0.059681                       36   5
  342              map_forward                           0.016733                     40   6
  343                map_gather                            0.004136                   24   7
  344                m_alltoallv_z                         0.007737                   24   7
  345                map_scatter                           0.004548                   24   7
  346              map_backward                          0.012944                     32   6
  347                map_gather                            0.002879                   16   7
  348                m_alltoallv_z                         0.005741                   16   7
  349                map_scatter                           0.003903                   16   7
  350              dfftw_execute                         0.027772                     30   6
  351        m_sumb_d                              0.000030                            5   3
  352        pothar                                0.004745                            2   3
  353          m_sumb_d                              0.000436                          2   4
  354        m_bcast_d                             0.007905                            4   3
  355      potlok_metagga                        0.000000                              1   2
  356      set_dd_magatom                        0.000004                              1   2
  357      set_dd_paw                            5.070664                              1   2
  358        m_sumb_d                              0.007903                            7   3
  359      augmentation_charge                   0.359541                              1   2
  360        fft3d_mpi                             0.211379                            2   3
  361          fftbrc_mpi                            0.184567                          2   4
  362            fftbas_plan_mpi                       0.184562                        2   5
  363              dfftw_execute                         0.120390                      6   6
  364              map_backward                          0.063809                      4   6
  365                map_gather                            0.023201                    2   7
  366                m_alltoallv_z                         0.015757                    2   7
  367                map_scatter                           0.024839                    2   7
  368      fftwav_mpi                           12.975677                           4080   2
  369        fftwav                               12.970238                         4080   3
  370          fft3d                                11.977682                       4080   4
  371      densta                               16.527918                              1   2

 Flat profile

 set_dd_paw                            719.538972         143
 eddav                                 254.363360         145
 lapack                                198.414458      409728
 raccmu_                               197.446589      409728
 m_sumb_d                              116.416407     1244702
 redis_pw                              101.670987     2231394
 m_alltoall_d                           42.813524     5859818
 dfftw_execute                          38.561478        3876
 fft3d                                  37.249351     2391930
 total_time                             30.911874           1
 eccp                                   27.378443      197200
 densta                                 27.334544         146
 setdij_                                23.219748         169
 hamiltmu                               22.617998      409728
 orth1                                  22.120188     1229360
 phaser                                 22.037543        2424
 augmentation_charge                    21.189373         143
 redis_proj                             19.128116     2842184
 fftwav                                 16.573477     1583956
 racc0mu_acc                            12.107029      409728
 overl                                  11.764866     1418764
 w1_copy                                11.609848     2423922
 init_acc                               10.983017           1
 rpromu_acc                             10.473466      314544
 m_bcast_z                              10.103646      415168
 fft3d_mpi                               9.170389      812983
 map_scatter                             7.768973        5599
 soft_charge                             7.719369         142
 pw_charge                               7.628180      143448
 ggemm                                   7.566833      509488
 setup_precond                           7.246611      197200
 map_gather                              7.099444        5599
 m_bcast_d                               6.801260      819747
 overl_mu                                6.352828      409728
 m_alltoallv_z                           5.966101        5599
 set_charge                              4.336450         142
 vhamil                                  3.689455      807974
 kinhamil                                3.626017      807974
 fftext_mpi                              3.467181      807974
 apply_precond                           3.323783      610774
 acc_init_cublas                         3.323405           1
 depsum                                  3.185318         142
 newband                                 3.162859      412048
 fftwav_mpi                              2.097999     1583956
 broyd                                   1.532943         141
 potlok                                  1.467064         143
 rpro_isp                                1.105075         104
 acc_init_cusolver                       1.063519           1
 sphpro_fast                             0.731778           2
 brmix                                   0.681428         141
 brget                                   0.512574       28703
 elmin                                   0.492499           1
 setg0                                   0.476266         143
 rspher_all                              0.460240          14
 fftbas_plan_mpi                         0.332542        5009
 w1_projall                              0.296962      309968
 acc_cufft_makeplan                      0.280989          19
 lincom                                  0.156431        2336
 proall                                  0.150238           1
 brsav                                   0.141593        8093
 stufak                                  0.113025           1
 orthch                                  0.097338           1
 truncate_high_frequency_w1              0.081767     1005174
 map_backward                            0.061443        5282
 force_and_stress                        0.057879           1
 map_forward                             0.041286        4736
 fft_gq                                  0.040216         142
 choleski                                0.021477          16
 pothar                                  0.019540         144
 brpre                                   0.012162         282
 strnlr                                  0.008295           1
 strelo                                  0.006104           1
 rsp                                     0.006087           1
 forhar                                  0.005024           2
 inisym                                  0.004732           1
 strkin                                  0.004526           1
 strehar                                 0.004436           1
 fftbrc_mpi                              0.003567        5009
 fornlr                                  0.003398           1
 forloc                                  0.002523           1
 set_dd_magatom                          0.000668         143
 vectorpot                               0.000582         142
 brgrid                                  0.000571           1
 fewald                                  0.000360           1
 chggra                                  0.000319           1
 fordep                                  0.000233           1
 rcp                                     0.000154           1
 posmap                                  0.000115           2
 crpa_reader                             0.000026           1
 acc_cufft_makeplans                     0.000016           3
 potlok_metagga                          0.000013         142
 rotate_active_occupied_orbital          0.000000           1
 redis_pw_over_bands                     0.000000           1
  summed up times     2120.040782928467

 Accumulative profile

 total_time                           2120.040783           1
 elmin                                2007.983587           1
 eddav                                1149.125941         145
 set_dd_paw                            721.520046         143
 hamiltmu                              256.707899      409728
 raccmu_                               215.906447      409728
 lapack                                198.414458      409728
 redis_pw                              123.860386     2231394
 m_sumb_d                              116.416407     1244702
 set_charge                             85.495959         142
 fft3d_mpi                              76.166333      812983
 fftbrc_mpi                             59.834836        5009
 fftbas_plan_mpi                        59.831268        5009
 setdij_                                58.925466         169
 newband                                54.242941      412048
 augmentation_charge                    51.506837         143
 fftwav_mpi                             48.759718     1583956
 fftwav                                 46.661719     1583956
 m_alltoall_d                           42.813524     5859818
 redis_proj                             39.752241     2842184
 dfftw_execute                          38.561478        3876
 fft3d                                  37.249351     2391930
 eccp                                   27.378443      197200
 densta                                 27.334544         146
 soft_charge                            25.947228         142
 orth1                                  22.120188     1229360
 phaser                                 22.037543        2424
 force_and_stress                       19.177158           1
 kinhamil                               14.493999      807974
 racc0mu_acc                            12.107029      409728
 overl                                  11.764866     1418764
 w1_copy                                11.609848     2423922
 map_backward                           11.202694        5282
 init_acc                               10.983017           1
 fftext_mpi                             10.867982      807974
 rpromu_acc                             10.473466      314544
 m_bcast_z                              10.103646      415168
 map_forward                             9.734554        4736
 w1_projall                              9.340045      309968
 map_scatter                             7.768973        5599
 pw_charge                               7.628180      143448
 ggemm                                   7.566833      509488
 setup_precond                           7.246611      197200
 map_gather                              7.099444        5599
 m_bcast_d                               6.801260      819747
 overl_mu                                6.352828      409728
 m_alltoallv_z                           5.966101        5599
 vhamil                                  3.689455      807974
 brmix                                   3.401131         141
 apply_precond                           3.323783      610774
 acc_init_cublas                         3.323405           1
 depsum                                  3.307765         142
 strnlr                                  3.295478           1
 rpro_isp                                3.187303         104
 potlok                                  2.738657         143
 broyd                                   2.214930         141
 fordep                                  2.081037           1
 fornlr                                  1.098758           1
 acc_init_cusolver                       1.063519           1
 fft_gq                                  1.013911         142
 sphpro_fast                             0.768413           2
 orthch                                  0.566044           1
 brget                                   0.512574       28703
 setg0                                   0.476266         143
 rspher_all                              0.460240          14
 proall                                  0.353525           1
 acc_cufft_makeplans                     0.281005           3
 acc_cufft_makeplan                      0.280989          19
 lincom                                  0.156431        2336
 brsav                                   0.141593        8093
 stufak                                  0.113025           1
 truncate_high_frequency_w1              0.081767     1005174
 choleski                                0.021477          16
 pothar                                  0.021229         144
 brpre                                   0.012162         282
 strelo                                  0.008367           1
 fewald                                  0.007181           1
 rsp                                     0.006087           1
 forhar                                  0.005068           2
 inisym                                  0.004847           1
 strkin                                  0.004540           1
 strehar                                 0.004450           1
 forloc                                  0.002632           1
 chggra                                  0.001285           1
 set_dd_magatom                          0.000668         143
 vectorpot                               0.000582         142
 brgrid                                  0.000571           1
 rcp                                     0.000154           1
 posmap                                  0.000115           2
 crpa_reader                             0.000026           1
 potlok_metagga                          0.000013         142
 rotate_active_occupied_orbital          0.000000           1
 redis_pw_over_bands                     0.000000           1

Profiling took   5.157122  2.475389  0.003267  0.003136 seconds
Profiling took   3.275473 seconds