 vasp.6.3.2 27Jun22 (build Jul  3 2023 11:46:21) complex
 executed on    LinuxNV_CrayMPICH date 2024.04.20  22:36:18

 INCAR:
   ADDGRID = True
   ALGO = Fast
   EDIFF = 0.0001
   ENCUT = 520.0
   IBRION = -1
   ISIF = 3
   ISMEAR = -5
   ISPIN = 2
   LAECHG = True
   LASPH = True
   LCHARG = True
   LORBIT = 11
   LREAL = Auto
   LVHAR = True
   LWAVE = False
   MAGMOM = 1*0.6 1*7.0 8*0.6
   NELM = 1000
   NSW = 0
   PREC = Accurate
   SIGMA = 0.05

 POTCAR:    PAW_PBE La 06Sep2000
 POTCAR:    PAW_PBE Gd 23Dec2003
 POTCAR:    PAW_PBE Cu_pv 06Sep2000
 POTCAR:    PAW_PBE Sn_d 06Sep2000
 POTCAR:    PAW_PBE La 06Sep2000
   VRHFIN =La : [core=Kr4d]

   TITEL  = PAW_PBE La 06Sep2000
   POMASS =  138.900; ZVAL   =   11.000    mass and valenz
   ENMAX  =  219.292; ENMIN  =  164.469 eV

   TITEL  = PAW_PBE Gd 23Dec2003
   POMASS =  157.250; ZVAL   =   18.000    mass and valenz
   ENMAX  =  256.472; ENMIN  =  192.354 eV

   TITEL  = PAW_PBE Cu_pv 06Sep2000
   POMASS =   63.546; ZVAL   =   17.000    mass and valenz
   ENMAX  =  368.648; ENMIN  =  276.486 eV

   TITEL  = PAW_PBE Sn_d 06Sep2000
   POMASS =  118.710; ZVAL   =   14.000    mass and valenz
   ENMAX  =  241.083; ENMIN  =  180.812 eV

 Optimization of the real space projectors (new method)

 maximal supplied QI-value         = 13.42
 optimisation between [QCUT,QGAM] = [ 11.67, 23.35] = [ 38.16,152.62] Ry
 Optimized for a Real-space Cutoff    1.63 Angstroem

   l    n(q)    QCUT    max X(q) W(low)/X(q) W(high)/X(q)  e(spline)
   0     11    11.673    13.882    0.27E-04    0.79E-05    0.11E-06
   0     11    11.673    12.184    0.39E-04    0.13E-04    0.19E-06
   1     11    11.673     4.523    0.73E-05    0.76E-05    0.12E-06
   1     11    11.673     4.424    0.87E-05    0.13E-04    0.19E-06
   2     10    11.673    52.481    0.65E-04    0.36E-04    0.18E-06
   2     10    11.673    38.501    0.61E-04    0.33E-04    0.17E-06
   3     10    11.673    65.631    0.17E-03    0.14E-03    0.37E-06
   3     10    11.673    56.854    0.17E-03    0.14E-03    0.37E-06
 Optimization of the real space projectors (new method)

[...]

   l    n(q)    QCUT    max X(q) W(low)/X(q) W(high)/X(q)  e(spline)
   1      9    11.527     3.172    0.21E-04    0.38E-04    0.11E-06
   1      9    11.527     4.083    0.67E-04    0.79E-04    0.20E-06
   2      9    11.527    65.342    0.13E-03    0.28E-03    0.26E-06
   2      9    11.527    61.381    0.13E-03    0.29E-03    0.26E-06
   0      9    11.527    65.742    0.32E-04    0.21E-04    0.72E-07
   0      9    11.527    30.431    0.28E-04    0.19E-04    0.65E-07
 Optimization of the real space projectors (new method)

 maximal supplied QI-value         = 15.12
 optimisation between [QCUT,QGAM] = [ 11.64, 23.28] = [ 37.95,151.78] Ry
 Optimized for a Real-space Cutoff    1.36 Angstroem

   l    n(q)    QCUT    max X(q) W(low)/X(q) W(high)/X(q)  e(spline)
   2      9    11.641     5.880    0.49E-04    0.15E-04    0.99E-07
   2      9    11.641     7.804    0.17E-03    0.18E-03    0.15E-06
   0      9    11.641    20.557    0.10E-03    0.34E-04    0.76E-07
   0      9    11.641     9.400    0.13E-03    0.43E-04    0.95E-07
   1      9    11.641    94.178    0.25E-03    0.19E-03    0.20E-06
   1      9    11.641    56.401    0.24E-03    0.18E-03    0.20E-06
  PAW_PBE La 06Sep2000                  :
  PAW_PBE Gd 23Dec2003                  :
  PAW_PBE Cu_pv 06Sep2000               :
  PAW_PBE Sn_d 06Sep2000                :

 POSCAR: La1 Gd1 Cu4 Sn4
  positions in direct lattice
 exchange correlation table for  LEXCH =        8
   RHO(1)=    0.500       N(1)  =     2000
   RHO(2)=  100.500       N(2)  =     4000

 VTST: version 4.2, (08/11/21)

 CHAIN: initializing optimizer

 OPT: Using VASP Dynamics algorithm
 CHAIN: Read ICHAIN             0

 POSCAR: La1 Gd1 Cu4 Sn4
  positions in direct lattice

 ion  position               nearest neighbor table
   1  0.000  0.000  0.761-   7 3.39   7 3.39   7 3.39   7 3.39  10 3.59  10 3.59   9 3.59   9 3.59

   2  0.500  0.500  0.237-   8 3.38   8 3.38   8 3.38   8 3.38   9 3.57  10 3.57  10 3.57   9 3.57

   3  0.500  0.500  0.635-   7 2.55   9 2.67  10 2.67   9 2.67  10 2.67
   4  0.000  0.000  0.365-   8 2.52   9 2.65  10 2.65  10 2.65   9 2.65
   5  0.500  0.000  0.001-   8 2.62   8 2.62   7 2.62   7 2.62
   6  0.000  0.500  0.001-   8 2.62   8 2.62   7 2.62   7 2.62
   7  0.500  0.500  0.874-   3 2.55   5 2.62   6 2.62   5 2.62   6 2.62   1 3.39   1 3.39   1 3.39
                             1 3.39
   8  0.000  0.000  0.128-   4 2.52   5 2.62   6 2.62   6 2.62   5 2.62   2 3.38   2 3.38   2 3.38
                             2 3.38
   9  0.500  0.000  0.498-   4 2.65   4 2.65   3 2.67   3 2.67  10 3.17  10 3.17  10 3.17  10 3.17
                             2 3.57   2 3.57   1 3.59   1 3.59
  10  0.000  0.500  0.498-   4 2.65   4 2.65   3 2.67   3 2.67   9 3.17   9 3.17   9 3.17   9 3.17
                             2 3.57   2 3.57   1 3.59   1 3.59

  LATTYP: Found a simple tetragonal cell.
 ALAT       =     4.4896830000
 C/A-ratio  =     2.3693681714

  Lattice vectors:

 A1 = (   4.4896830000,   0.0000000000,   0.0000000000)
 A2 = (   0.0000000000,   4.4896830000,   0.0000000000)
 A3 = (   0.0000000000,   0.0000000000,  10.6377120000)

Analysis of symmetry for initial positions (statically):
 Subroutine PRICEL returns:
 Original cell was already a primitive cell.

 Routine SETGRP: Setting up the symmetry group for a
 simple tetragonal supercell.

 Subroutine GETGRP returns: Found  8 space group operations
 (whereof  8 operations were pure point group operations)
 out of a pool of 16 trial point group operations.

The static configuration has the point symmetry C_4v.

Analysis of symmetry for dynamics (positions and initial velocities):
 Subroutine PRICEL returns:
 Original cell was already a primitive cell.

[...]

The dynamic configuration has the point symmetry C_4v.

Analysis of structural, dynamic, and magnetic symmetry:
 Subroutine PRICEL returns:
 Original cell was already a primitive cell.

 Routine SETGRP: Setting up the symmetry group for a
 simple tetragonal supercell.

 Subroutine GETGRP returns: Found  8 space group operations
 (whereof  8 operations were pure point group operations)
 out of a pool of 16 trial point group operations.

The overall configuration has the point symmetry C_4v.

 Subroutine INISYM returns: Found  8 space group operations
 (whereof  8 operations are pure point group operations),
 and found     1 'primitive' translations

                                     Primitive cell

  volume of cell :     214.4271

  direct lattice vectors                    reciprocal lattice vectors
     4.489683000  0.000000000  0.000000000     0.222732874  0.000000000  0.000000000
     0.000000000  4.489683000  0.000000000     0.000000000  0.222732874  0.000000000
     0.000000000  0.000000000 10.637712000     0.000000000  0.000000000  0.094005177

  length of vectors
     4.489683000  4.489683000 10.637712000     0.222732874  0.222732874  0.094005177

  position of ions in fractional coordinates (direct lattice)
     0.000000000  0.000000000  0.761317000
     0.500000000  0.500000000  0.236746000
     0.500000000  0.500000000  0.634891000
     0.000000000  0.000000000  0.365264000
     0.500000000  0.000000000  0.001499000
     0.000000000  0.500000000  0.001499000
     0.500000000  0.500000000  0.874374000
     0.000000000  0.000000000  0.128076000
     0.500000000  0.000000000  0.498152000
     0.000000000  0.500000000  0.498152000

  ion indices of the primitive-cell ions
   primitive index   ion index
                 1           1
                 2           2
                 3           3
                 4           4
                 5           5
                 6           6
                 7           7
                 8           8
                 9           9
                10          10

 KPOINTS: Kpoints from vasprun.xml

Automatic generation of k-mesh.
 Grid dimensions read from file:
 generate k-points for:    6    6    2

 Generating k-lattice:

  Cartesian coordinates                     Fractional coordinates (reciprocal lattice)
     0.037122146  0.000000000  0.000000000     0.166666667  0.000000000  0.000000000
     0.000000000  0.037122146  0.000000000     0.000000000  0.166666667  0.000000000
     0.000000000  0.000000000  0.047002589     0.000000000  0.000000000  0.500000000

  Length of vectors
     0.037122146  0.037122146  0.047002589

  Shift w.r.t. Gamma in fractional coordinates (k-lattice)
     0.500000000  0.500000000  0.500000000

 TETIRR: Found     37 inequivalent tetrahedra from      432

 Subroutine IBZKPT returns following result:

 Found      6 irreducible k-points:

 Following reciprocal coordinates:
            Coordinates               Weight
  0.083333  0.083333  0.250000      8.000000
  0.250000  0.083333  0.250000     16.000000
  0.416667  0.083333  0.250000     16.000000
  0.250000  0.250000  0.250000      8.000000
  0.416667  0.250000  0.250000     16.000000
  0.416667  0.416667  0.250000      8.000000

 Following cartesian coordinates:
            Coordinates               Weight
  0.018561  0.018561  0.023501      8.000000
  0.055683  0.018561  0.023501     16.000000
  0.092805  0.018561  0.023501     16.000000
  0.055683  0.055683  0.023501      8.000000
  0.092805  0.055683  0.023501     16.000000
  0.092805  0.092805  0.023501      8.000000

 SYSTEM =  unknown system
 POSCAR =  La1 Gd1 Cu4 Sn4

 Startparameter for this run:
   NWRITE =      2    write-flag & timer
   PREC   = accura    normal or accurate (medium, high low for compatibility)
   ISTART =      0    job   : 0-new  1-cont  2-samecut
   ICHARG =      2    charge: 1-file 2-atom 10-const
   ISPIN  =      2    spin polarized calculation?
   LNONCOLLINEAR =      F non collinear calculations
   LSORBIT =      F    spin-orbit coupling
   INIWAV =      1    electr: 0-lowe 1-rand  2-diag
   LASPH  =      T    aspherical Exc in radial PAW
 Electronic Relaxation 1
   ENCUT  =  520.0 eV  38.22 Ry    6.18 a.u.   8.35  8.35 19.78*2*pi/ulx,y,z
   ENINI  =  520.0     initial cutoff
   ENAUG  =  758.2 eV  augmentation charge cutoff
   NELM   =   1000;   NELMIN=  2; NELMDL= -5     # of ELM steps
   EDIFF  = 0.1E-03   stopping-criterion for ELM
   LREAL  =      T    real-space projection
   NLSPLINE    = F    spline interpolate recip. space projectors
   LCOMPAT=      F    compatible to vasp.4.4
   GGA_COMPAT  = T    GGA compatible to vasp.4.4-vasp.4.6
   LMAXPAW     = -100 max onsite density
   LMAXMIX     =    2 max onsite mixed and CHGCAR
   VOSKOWN=      0    Vosko Wilk Nusair interpolation
   ROPT   =   -0.00025  -0.00025  -0.00025  -0.00025
 Ionic relaxation
   EDIFFG = 0.1E-02   stopping-criterion for IOM
   NSW    =      0    number of steps for IOM
   NBLOCK =      1;   KBLOCK =      1    inner block; outer block
   IBRION =     -1    ionic relax: 0-MD 1-quasi-New 2-CG
   NFREE  =      0    steps in history (QN), initial steepest desc. (CG)
   ISIF   =      3    stress and relaxation
   IWAVPR =     10    prediction:  0-non 1-charg 2-wave 3-comb
   ISYM   =      2    0-nonsym 1-usesym 2-fastsym
[...]
  382            brsav                                 0.000219                       48   5
  383        m_bcast_d                             0.000017                            2   3
  384      potlok                                0.027927                              2   2
  385        fft3d_mpi                             0.016984                           36   3
  386          fftbrc_mpi                            0.014501                         36   4
  387            fftbas_plan_mpi                       0.014485                       36   5
  388              map_forward                           0.004194                     40   6
  389                map_gather                            0.001409                   24   7
  390                m_alltoallv_z                         0.001423                   24   7
  391                map_scatter                           0.001174                   24   7
  392              map_backward                          0.003627                     32   6
  393                map_gather                            0.001227                   16   7
  394                m_alltoallv_z                         0.001168                   16   7
  395                map_scatter                           0.001053                   16   7
  396              dfftw_execute                         0.005039                     30   6
  397        m_sumb_d                              0.000025                            5   3
  398        pothar                                0.001097                            2   3
  399          m_sumb_d                              0.000114                          2   4
  400        m_bcast_d                             0.001679                            4   3
  401      potlok_metagga                        0.000000                              1   2
  402      set_dd_magatom                        0.000004                              1   2
  403      set_dd_paw                            1.879974                              1   2
  404        m_sumb_d                              0.928722                            7   3
  405      augmentation_charge                   0.092740                              1   2
  406        fft3d_mpi                             0.032007                            2   3
  407          fftbrc_mpi                            0.028372                          2   4
  408            fftbas_plan_mpi                       0.028370                        2   5
  409              dfftw_execute                         0.019910                      6   6
  410              map_backward                          0.008196                      4   6
  411                map_gather                            0.002103                    2   7
  412                m_alltoallv_z                         0.003858                    2   7
  413                map_scatter                           0.002226                    2   7
  414      densta                                0.479965                              1   2

 Flat profile

 m_sumb_d                              173.932079       28229
 set_dd_paw                            170.942756         181
 eccp                                   18.848670      238714
 raccmu_                                15.942874       38655
 setdij_                                11.415112         207
 init_acc                               11.033540           1
 augmentation_charge                    10.802318         180
 w1_gemv                                10.711171      454526
 eccp_nl                                10.134132      183814
 i2                                     10.058322       35925
 total_time                              9.510073           1
 dfftw_execute                           8.813241        4716
 eddiag                                  6.339728         178
 redis_pw                                5.880399       37848
 densta                                  5.339138         184
 cnorma                                  4.836468      183814
 eddrmm                                  4.388214         178
 phaser                                  4.298089        2274
 overl1                                  3.763437      227263
 m_alltoall_d                            3.705359      627052
 fft3d                                   3.378689      484276
 fftwav                                  2.913537      293713
 soft_charge                             2.528448         179
 acc_init_cublas                         2.459812           1
 w1_dscal                                2.186079      366750
 m_alltoallv_z                           2.153033        6997
 w1_copy                                 2.151992      411488
 hamilt_local                            2.114437       53400
 setup_precond                           1.913568       54900
 apply_precond                           1.887793      417269
 w1_gaxpy                                1.862750      360886
 newband                                 1.512662       40851
 w1_dot                                  1.483582       52644
 rpromu_acc                              1.463305       38967
 w1_daxpy                                1.450481      262342
 fft3d_mpi                               1.388456      196840
 racc0mu_acc                             1.348667       38655
 eddav                                   1.299211           5
 set_charge                              1.177959         179
 lapack                                  1.167728        2730
 pw_charge                               1.163862       42871
 map_scatter                             1.138683        6997
 map_gather                              1.085097        6997
 hamiltmu                                0.966644       38655
 redis_proj                              0.924140       30916
 depsum                                  0.882787         179
 vhamil                                  0.814843      190563
 acc_init_cusolver                       0.813679           1
 kinhamil                                0.809741      190563
 fftext_mpi                              0.760149      190563
 zhegv                                   0.674644       78527
 potlok                                  0.625891         181
 overl_mu                                0.585589       38655
 broyd                                   0.557265         179
 choleski                                0.489694        2148
 fftwav_mpi                              0.405498      293713
 orth1                                   0.381327       25326
 orthch                                  0.347116         179
 fftbas_plan_mpi                         0.336439        6277
 i3                                      0.336436       35925
 elmin                                   0.321479           1
 rpro_isp                                0.203544          78
 brget                                   0.167083       37844
 brmix                                   0.164440         179
 rspher_all                              0.139759          14
 acc_cufft_makeplan                      0.134288          19
 setg0                                   0.131188         181
 m_bcast_z                               0.120647        3930
 overl                                   0.119634       13256
 lincom                                  0.090969        4344
 m_bcast_d                               0.053441        5827
 ggemm                                   0.046681        3510
 proall                                  0.045951           1
 brsav                                   0.045516       10705
 i1                                      0.039517       35925
 sphpro_fast                             0.035852           2
 map_backward                            0.035308        6630
 map_forward                             0.033554        5924
 w1_projall                              0.033287       37875
 truncate_high_frequency_w1              0.014562      192063
 pothar                                  0.014402         182
 force_and_stress                        0.009279           1
 fft_gq                                  0.006541         179
 stufak                                  0.004570           1
 inisym                                  0.004346           1
 brpre                                   0.004295         358
 fftbrc_mpi                              0.003570        6277
 forhar                                  0.002100           2
 strnlr                                  0.001954           1
 strelo                                  0.001623           1
 strehar                                 0.001155           1
 forloc                                  0.001102           1
 set_dd_magatom                          0.000802         181
 vectorpot                               0.000751         180
 fornlr                                  0.000681           1
 strkin                                  0.000393           1
 fewald                                  0.000366           1
 shift_bands_between_low_high            0.000278        2136
 chggra                                  0.000236           1
 rsp                                     0.000168           1
 brgrid                                  0.000162           1
 fordep                                  0.000085           1
 crpa_reader                             0.000026           1
 posmap                                  0.000025           2
 rcp                                     0.000021           1
 potlok_metagga                          0.000018         180
 acc_cufft_makeplans                     0.000009           3
 rotate_active_occupied_orbital          0.000000           1
 redis_pw_over_bands                     0.000000           1
  summed up times     554.6724898815155

 Accumulative profile

 total_time                            554.672490           1
 elmin                                 522.218119           1
 set_dd_paw                            340.785777         181
 m_sumb_d                              173.932079       28229
 eddrmm                                107.442765         178
 i2                                     33.759123       35925
 i3                                     33.259451       35925
 set_charge                             24.441834         179
 hamiltmu                               21.538309       38655
 setdij_                                19.269149         207
 eccp                                   18.848670      238714
 raccmu_                                17.877130       38655
 augmentation_charge                    16.656346         180
 fft3d_mpi                              16.236521      196840
 eddiag                                 16.232878         178
 cnorma                                 14.970600      183814
 w1_gemv                                14.474608      454526
 fftbrc_mpi                             13.598924        6277
 fftbas_plan_mpi                        13.595354        6277
 init_acc                               11.033540           1
 eccp_nl                                10.134132      183814
 newband                                 9.286421       40851
 dfftw_execute                           8.813241        4716
 redis_pw                                7.522954       37848
 eddav                                   6.629875           5
 orthch                                  6.305802         179
 soft_charge                             5.595423         179
 fftwav_mpi                              5.448582      293713
 densta                                  5.339138         184
 force_and_stress                        5.211628           1
 fftwav                                  5.043084      293713
 phaser                                  4.298089        2274
 overl1                                  3.763437      227263
 m_alltoall_d                            3.705359      627052
 fft3d                                   3.378689      484276
 hamilt_local                            3.109006       53400
 redis_proj                              2.986944       30916
 kinhamil                                2.874261      190563
 acc_init_cublas                         2.459812           1
 map_backward                            2.304588        6630
 w1_dscal                                2.186079      366750
 m_alltoallv_z                           2.153033        6997
 w1_copy                                 2.151992      411488
 map_forward                             2.141086        5924
 fftext_mpi                              2.064520      190563
 setup_precond                           1.913568       54900
 apply_precond                           1.887793      417269
 w1_gaxpy                                1.862750      360886
 potlok                                  1.569074         181
 w1_dot                                  1.483582       52644
 rpromu_acc                              1.463305       38967
 w1_daxpy                                1.450481      262342
 racc0mu_acc                             1.348667       38655
 w1_projall                              1.316215       37875
 lapack                                  1.167728        2730
 pw_charge                               1.163862       42871
 map_scatter                             1.138683        6997
 brmix                                   1.110379         179
 map_gather                              1.085097        6997
 depsum                                  0.903905         179
 vhamil                                  0.814843      190563
 acc_init_cusolver                       0.813679           1
 broyd                                   0.804057         179
 zhegv                                   0.674644       78527
 i1                                      0.624937       35925
 overl_mu                                0.585589       38655
 strnlr                                  0.561377           1
 fordep                                  0.559294           1
 rpro_isp                                0.500886          78
 choleski                                0.489694        2148
 orth1                                   0.381327       25326
 fft_gq                                  0.252636         179
 fornlr                                  0.186486           1
 brget                                   0.167083       37844
 rspher_all                              0.139759          14
 acc_cufft_makeplans                     0.134296           3
 acc_cufft_makeplan                      0.134288          19
 setg0                                   0.131188         181
 m_bcast_z                               0.120647        3930
 overl                                   0.119634       13256
 lincom                                  0.090969        4344
 proall                                  0.079429           1
 m_bcast_d                               0.053441        5827
 ggemm                                   0.046681        3510
 brsav                                   0.045516       10705
 sphpro_fast                             0.037025           2
 pothar                                  0.016078         182
 truncate_high_frequency_w1              0.014562      192063
 stufak                                  0.004570           1
 inisym                                  0.004371           1
 brpre                                   0.004295         358
 forhar                                  0.002113           2
 strelo                                  0.001660           1
 strehar                                 0.001158           1
 forloc                                  0.001149           1
 set_dd_magatom                          0.000802         181
 chggra                                  0.000763           1
 vectorpot                               0.000751         180
 fewald                                  0.000616           1
 strkin                                  0.000397           1
 shift_bands_between_low_high            0.000278        2136
 rsp                                     0.000168           1
 brgrid                                  0.000162           1
 crpa_reader                             0.000026           1
 posmap                                  0.000025           2
 rcp                                     0.000021           1
 potlok_metagga                          0.000018         180
 rotate_active_occupied_orbital          0.000000           1
 redis_pw_over_bands                     0.000000           1

Profiling took   0.687818  0.493195  0.003243  0.003152 seconds
Profiling took   0.567384 seconds