 vasp.6.3.2 27Jun22 (build Jul  3 2023 11:46:21) complex
 executed on    LinuxNV_CrayMPICH date 2024.04.21  00:28:53

 INCAR:
   ADDGRID = True
   ALGO = Normal
   EDIFF = 1e-06
   ENCUT = 520.0
   IBRION = -1
   ICHARG = 0
   ISIF = 3
   ISMEAR = -5
   ISPIN = 2
   ISTART = 1
   ISYM = 0
   LAECHG = True
   LASPH = True
   LCHARG = True
   LORBIT = 11
   LREAL = Auto
   LVHAR = True
   LWAVE = False
   MAGMOM = 1*7.0 1*0.036 1*0.011 1*-0.003 1*0.036 1*0.0
   NELM = 1000
   NSW = 0
   PREC = Accurate
   SIGMA = 0.05

 POTCAR:    PAW_PBE Gd 23Dec2003
 POTCAR:    PAW_PBE Cu_pv 06Sep2000
 POTCAR:    PAW_PBE Au 04Oct2007
 POTCAR:    PAW_PBE Gd 23Dec2003
   VRHFIN =Gd : [core=Xe4]

   TITEL  = PAW_PBE Gd 23Dec2003
   POMASS =  157.250; ZVAL   =   18.000    mass and valenz
   ENMAX  =  256.472; ENMIN  =  192.354 eV

   TITEL  = PAW_PBE Cu_pv 06Sep2000
   POMASS =   63.546; ZVAL   =   17.000    mass and valenz
   ENMAX  =  368.648; ENMIN  =  276.486 eV

   TITEL  = PAW_PBE Au 04Oct2007
   POMASS =  196.966; ZVAL   =   11.000    mass and valenz
   ENMAX  =  229.943; ENMIN  =  172.457 eV

 Optimization of the real space projectors (new method)

 maximal supplied QI-value         = 13.42
 optimisation between [QCUT,QGAM] = [ 11.67, 23.35] = [ 38.16,152.62] Ry
 Optimized for a Real-space Cutoff    1.63 Angstroem

   l    n(q)    QCUT    max X(q) W(low)/X(q) W(high)/X(q)  e(spline)
   0     11    11.673    10.501    0.14E-04    0.17E-05    0.21E-07
   0     11    11.673     9.148    0.21E-04    0.32E-05    0.45E-07
   1     11    11.673     4.035    0.33E-05    0.11E-04    0.84E-07
   1     11    11.673     4.388    0.11E-04    0.47E-04    0.34E-06
   2     10    11.673    20.656    0.12E-04    0.28E-04    0.54E-06
   2     10    11.673    12.651    0.11E-04    0.26E-04    0.51E-06
   3     10    11.673    61.921    0.19E-03    0.22E-03    0.23E-06
   3     10    11.673    48.328    0.20E-03    0.23E-03    0.23E-06
 Optimization of the real space projectors (new method)

[...]

   l    n(q)    QCUT    max X(q) W(low)/X(q) W(high)/X(q)  e(spline)
   1      9    11.527     3.172    0.21E-04    0.38E-04    0.11E-06
   1      9    11.527     4.083    0.67E-04    0.79E-04    0.20E-06
   2      9    11.527    65.342    0.13E-03    0.28E-03    0.26E-06
   2      9    11.527    61.381    0.13E-03    0.29E-03    0.26E-06
   0      9    11.527    65.742    0.32E-04    0.21E-04    0.72E-07
   0      9    11.527    30.431    0.28E-04    0.19E-04    0.65E-07
 Optimization of the real space projectors (new method)

 maximal supplied QI-value         = 15.12
 optimisation between [QCUT,QGAM] = [ 11.64, 23.28] = [ 37.95,151.78] Ry
 Optimized for a Real-space Cutoff    1.49 Angstroem

   l    n(q)    QCUT    max X(q) W(low)/X(q) W(high)/X(q)  e(spline)
   2      9    11.641    60.898    0.24E-03    0.10E-03    0.19E-06
   2      9    11.641    58.894    0.25E-03    0.10E-03    0.19E-06
   0     10    11.641   109.617    0.73E-04    0.33E-04    0.11E-06
   0     10    11.641    75.026    0.71E-04    0.32E-04    0.11E-06
   1     10    11.641    16.344    0.27E-04    0.97E-04    0.16E-06
   1     10    11.641    10.160    0.23E-04    0.77E-04    0.13E-06
  PAW_PBE Gd 23Dec2003                  :
  PAW_PBE Cu_pv 06Sep2000               :
  PAW_PBE Au 04Oct2007                  :

 POSCAR: Gd1 Cu4 Au1
  positions in direct lattice
 exchange correlation table for  LEXCH =        8
   RHO(1)=    0.500       N(1)  =     2000
   RHO(2)=  100.500       N(2)  =     4000

 VTST: version 4.2, (08/11/21)

 CHAIN: initializing optimizer

 OPT: Using VASP Dynamics algorithm
 CHAIN: Read ICHAIN             0

 POSCAR: Gd1 Cu4 Au1
  positions in direct lattice

 ion  position               nearest neighbor table
   1  0.000  0.000  0.000-   2 2.96   3 2.96   4 2.96   5 2.96   5 2.96   5 2.96   3 2.96   4 2.96
                             2 2.96   4 2.96   3 2.96   2 2.96   6 3.09   6 3.09   6 3.09   6 3.09
   2  0.624  0.624  0.128-   3 2.51   4 2.51   5 2.51   6 2.96   6 2.96   6 2.96   1 2.96   1 2.96
                             1 2.96
   3  0.624  0.128  0.624-   2 2.51   4 2.51   5 2.51   6 2.96   6 2.96   6 2.96   1 2.96   1 2.96
                             1 2.96
   4  0.128  0.624  0.624-   2 2.51   3 2.51   5 2.51   6 2.96   6 2.96   6 2.96   1 2.96   1 2.96
                             1 2.96
   5  0.624  0.624  0.624-   2 2.51   3 2.51   4 2.51   6 2.96   6 2.96   6 2.96   1 2.96   1 2.96
                             1 2.96
   6  0.250  0.250  0.250-   3 2.96   4 2.96   2 2.96   4 2.96   2 2.96   3 2.96   5 2.96   5 2.96
                             5 2.96   4 2.96   3 2.96   2 2.96   1 3.09   1 3.09   1 3.09   1 3.09

IMPORTANT INFORMATION: All symmetrisations will be switched off!
NOSYMM: (Re-)initialisation of all symmetry stuff for point group C_1.

                                     Primitive cell

  volume of cell :      91.0426

  direct lattice vectors                    reciprocal lattice vectors
     0.000000000  3.570576000  3.570576000    -0.140033429  0.140033429  0.140033429
     3.570576000  0.000000000  3.570576000     0.140033429 -0.140033429  0.140033429
     3.570576000  3.570576000  0.000000000     0.140033429  0.140033429 -0.140033429

  length of vectors
     5.049557005  5.049557005  5.049557005     0.242545013  0.242545013  0.242545013

  position of ions in fractional coordinates (direct lattice)
     0.000000000  0.000000000  0.000000000
     0.624045000  0.624045000  0.127866000
     0.624045000  0.127866000  0.624045000
     0.127866000  0.624045000  0.624045000
     0.624045000  0.624045000  0.624045000
     0.250000000  0.250000000  0.250000000

  ion indices of the primitive-cell ions
   primitive index   ion index
                 1           1
                 2           2
                 3           3
                 4           4
                 5           5
                 6           6

 KPOINTS: Kpoints from vasprun.xml

Automatic generation of k-mesh.
 Grid dimensions read from file:
 generate k-points for:    6    6    6

 Generating k-lattice:

  Cartesian coordinates                     Fractional coordinates (reciprocal lattice)
    -0.023338905  0.023338905  0.023338905     0.166666667  0.000000000  0.000000000
     0.023338905 -0.023338905  0.023338905     0.000000000  0.166666667 -0.000000000
     0.023338905  0.023338905 -0.023338905    -0.000000000 -0.000000000  0.166666667

  Length of vectors
     0.040424169  0.040424169  0.040424169

  Shift w.r.t. Gamma in fractional coordinates (k-lattice)
     0.500000000  0.500000000  0.500000000

 TETIRR: Found   2592 inequivalent tetrahedra from     5184

 Subroutine IBZKPT returns following result:

 Found    432 irreducible k-points:

 Following reciprocal coordinates:
            Coordinates               Weight
  0.083333  0.083333  0.083333      2.000000
  0.083333  0.000000  0.000000      2.000000
  0.000000  0.000000 -0.083333      2.000000
  0.000000  0.083333  0.000000      2.000000
  0.250000  0.083333  0.083333      2.000000
  0.083333  0.250000  0.083333      2.000000
  0.083333  0.083333  0.250000      2.000000
  0.083333  0.000000 -0.166667      2.000000
  0.250000  0.166667  0.166667      2.000000
  0.083333 -0.166667  0.000000      2.000000
  0.000000  0.166667 -0.083333      2.000000
  0.166667  0.000000 -0.083333      2.000000
 -0.166667 -0.166667 -0.250000      2.000000
  0.166667  0.250000  0.166667      2.000000
  0.000000  0.083333 -0.166667      2.000000
 -0.166667  0.083333  0.000000      2.000000
  0.416667  0.083333  0.083333      2.000000
  0.083333  0.416667  0.083333      2.000000
  0.083333  0.083333  0.416667      2.000000
  0.083333  0.000000 -0.333333      2.000000
  0.416667  0.333333  0.333333      2.000000
  0.083333 -0.333333  0.000000      2.000000
  0.000000  0.333333 -0.083333      2.000000
  0.333333  0.000000 -0.083333      2.000000
 -0.333333 -0.333333 -0.416667      2.000000
  0.333333  0.416667  0.333333      2.000000
  0.000000  0.083333 -0.333333      2.000000
 -0.333333  0.083333  0.000000      2.000000
 -0.416667  0.083333  0.083333      2.000000
  0.083333 -0.416667  0.083333      2.000000
  0.083333  0.083333 -0.416667      2.000000
  0.083333  0.000000  0.500000      2.000000
 -0.416667  0.500000  0.500000      2.000000
  0.083333  0.500000  0.000000      2.000000
  0.000000  0.500000 -0.083333      2.000000
  0.500000  0.000000 -0.083333      2.000000
  0.500000  0.500000  0.416667      2.000000
  0.500000 -0.416667  0.500000      2.000000
  0.000000  0.083333  0.500000      2.000000
  0.500000  0.083333  0.000000      2.000000
 -0.250000  0.083333  0.083333      2.000000
  0.083333 -0.250000  0.083333      2.000000
  0.083333  0.083333 -0.250000      2.000000
  0.083333  0.000000  0.333333      2.000000
 -0.250000 -0.333333 -0.333333      2.000000
  0.083333  0.333333  0.000000      2.000000
  0.000000 -0.333333 -0.083333      2.000000
 -0.333333  0.000000 -0.083333      2.000000
  0.333333  0.333333  0.250000      2.000000
 -0.333333 -0.250000 -0.333333      2.000000
  0.000000  0.083333  0.333333      2.000000
  0.333333  0.083333  0.000000      2.000000
 -0.083333  0.083333  0.083333      2.000000
  0.083333 -0.083333  0.083333      2.000000
  0.083333  0.083333 -0.083333      2.000000
  0.083333  0.000000  0.166667      2.000000
 -0.083333 -0.166667 -0.166667      2.000000
  0.083333  0.166667  0.000000      2.000000
  0.000000 -0.166667 -0.083333      2.000000
 -0.166667  0.000000 -0.083333      2.000000
[...]
  0.416667  0.000000  0.000000      2.000000
  0.000000  0.000000 -0.416667      2.000000
  0.000000  0.416667  0.000000      2.000000
 -0.416667  0.416667  0.416667      2.000000
  0.416667 -0.416667  0.416667      2.000000
  0.416667  0.416667 -0.416667      2.000000
  0.416667  0.000000 -0.166667      2.000000
 -0.416667  0.166667  0.166667      2.000000
  0.416667 -0.166667  0.000000      2.000000
  0.000000  0.166667 -0.416667      2.000000
  0.166667  0.000000 -0.416667      2.000000
 -0.166667 -0.166667  0.416667      2.000000
  0.166667 -0.416667  0.166667      2.000000
  0.000000  0.416667 -0.166667      2.000000
 -0.166667  0.416667  0.000000      2.000000

 Following cartesian coordinates:
            Coordinates               Weight
  0.011669  0.011669  0.011669      2.000000
 -0.011669  0.011669  0.011669      2.000000
 -0.011669 -0.011669  0.011669      2.000000
  0.011669 -0.011669  0.011669      2.000000
 -0.011669  0.035008  0.035008      2.000000
  0.035008 -0.011669  0.035008      2.000000
  0.035008  0.035008 -0.011669      2.000000
 -0.035008 -0.011669  0.035008      2.000000
  0.011669  0.035008  0.035008      2.000000
 -0.035008  0.035008 -0.011669      2.000000
  0.011669 -0.035008  0.035008      2.000000
 -0.035008  0.011669  0.035008      2.000000
 -0.035008 -0.035008 -0.011669      2.000000
  0.035008  0.011669  0.035008      2.000000
 -0.011669 -0.035008  0.035008      2.000000
  0.035008 -0.035008 -0.011669      2.000000
 -0.035008  0.058347  0.058347      2.000000
  0.058347 -0.035008  0.058347      2.000000
  0.058347  0.058347 -0.035008      2.000000
 -0.058347 -0.035008  0.058347      2.000000
[...]
  280        strehar                               0.000867                            1   3
  281          m_sumb_d                              0.000002                          1   4
  282        chggra                                0.000768                            1   3
  283          fft3d_mpi                             0.000441                          3   4
  284            fftbrc_mpi                            0.000349                        3   5
  285              fftbas_plan_mpi                       0.000347                      3   6
  286                map_forward                           0.000168                    4   7
  287                  map_gather                            0.000049                  2   8
  288                  m_alltoallv_z                         0.000025                  2   8
  289                  map_scatter                           0.000065                  2   8
  290                map_backward                          0.000092                    2   7
  291                  map_gather                            0.000019                  1   8
  292                  m_alltoallv_z                         0.000012                  1   8
  293                  map_scatter                           0.000045                  1   8
  294          m_sumb_d                              0.000009                          2   4
  295          pothar                                0.000076                          1   4
  296            m_sumb_d                              0.000005                        1   5
  297        brmix                                 0.004669                            1   3
  298          m_sumb_d                              0.000024                          6   4
  299          brpre                                 0.000017                          2   4
  300          setg0                                 0.000518                          1   4
  301          broyd                                 0.003498                          1   4
  302            m_sumb_d                              0.000285                       51   5
  303            brget                                 0.000650                      229   5
  304            brsav                                 0.000143                       49   5
  305        m_bcast_d                             0.000016                            2   3
  306      potlok                                0.018464                              2   2
  307        fft3d_mpi                             0.012101                           36   3
  308          fftbrc_mpi                            0.010382                         36   4
  309            fftbas_plan_mpi                       0.010362                       36   5
  310              map_forward                           0.003103                     40   6
  311                map_gather                            0.001084                   24   7
  312                m_alltoallv_z                         0.000906                   24   7
  313                map_scatter                           0.000938                   24   7
  314              map_backward                          0.002523                     32   6
  315                map_gather                            0.000835                   16   7
  316                m_alltoallv_z                         0.000716                   16   7
  317                map_scatter                           0.000803                   16   7
  318              dfftw_execute                         0.003111                     30   6
  319        m_sumb_d                              0.000023                            5   3
  320        pothar                                0.000754                            2   3
  321          m_sumb_d                              0.000058                          2   4
  322        m_bcast_d                             0.001036                            4   3
  323      potlok_metagga                        0.000000                              1   2
  324      set_dd_magatom                        0.000004                              1   2
  325      set_dd_paw                            1.394717                              1   2
  326        m_sumb_d                              0.927744                            7   3
  327      augmentation_charge                   0.072006                              1   2
  328        fft3d_mpi                             0.017068                            2   3
  329          fftbrc_mpi                            0.015273                          2   4
  330            fftbas_plan_mpi                       0.015272                        2   5
  331              dfftw_execute                         0.008944                      6   6
  332              map_backward                          0.006176                      4   6
  333                map_gather                            0.001322                    2   7
  334                m_alltoallv_z                         0.003524                    2   7
  335                map_scatter                           0.001321                    2   7
  336      densta                               38.579784                              1   2

 Flat profile

 eddav                                3726.076575         304
 lapack                               3620.011190     8030522
 raccmu_                              2991.289193     8030522
 m_sumb_d                             2110.193381    24378611
 redis_pw                             1400.774293    44507676
 m_alltoall_d                          800.647439    ********
 phaser                                494.340069      268272
 densta                                395.615121         305
 redis_proj                            374.129909    56367088
 eccp                                  366.039795     4202496
 fft3d                                 347.173915    47424391
 fftwav                                296.215725    31363347
 orth1                                 248.192515    24093294
 racc0mu_acc                           234.784180     8030522
 overl                                 232.438049    27920456
 w1_copy                               231.017731    48183132
 soft_charge                           201.367351         300
 hamiltmu                              188.138931     8030522
 rpromu_acc                            179.868571     5974202
 m_bcast_z                             162.554985     8085818
 setup_precond                         153.431604     4202496
 set_dd_paw                            141.780722         302
 m_bcast_d                             129.487196    16061653
 overl_mu                              125.407116     8030522
 ggemm                                 103.224254    10131770
 pw_charge                              85.635051     3264043
 kinhamil                               73.278128    16061044
 vhamil                                 71.970104    16061044
 fftext_mpi                             68.362611    16061044
 depsum                                 66.745631         300
 apply_precond                          63.649972    11858548
 newband                                62.137533     8293178
 fftwav_mpi                             40.564277    31363347
 setdij_                                17.683369         328
 augmentation_charge                    17.330774         301
 total_time                             11.905070           1
 init_acc                               11.031106           1
 rpro_isp                                9.987928        5616
 lincom                                  8.900682      263520
 dfftw_execute                           7.646368        7620
 fft3d_mpi                               6.269637    16071435
 w1_projall                              6.166215     5929274
 m_alltoallv_z                           2.467440       11595
 acc_init_cublas                         2.450836           1
 truncate_high_frequency_w1              1.646169    20263540
 map_gather                              1.188872       11595
 map_scatter                             1.138503       11595
 sphpro_fast                             1.007533           2
 acc_init_cusolver                       0.797340           1
 potlok                                  0.793510         302
 broyd                                   0.714697         300
 elmin                                   0.713568           1
 fftbas_plan_mpi                         0.492351       10391
 orthch                                  0.216790           1
 brget                                   0.179343       67161
 brmix                                   0.165599         300
 acc_cufft_makeplan                      0.142505          19
 setg0                                   0.140346         302
 proall                                  0.135190           1
 rspher_all                              0.130122          14
 choleski                                0.122927         864
 strnlr                                  0.106193           1
 map_backward                            0.056833       10986
 map_forward                             0.054338        9796
 brsav                                   0.049551       19226
 force_and_stress                        0.049096           1
 set_charge                              0.047093         300
 fornlr                                  0.037121           1
 pothar                                  0.022832         303
 fft_gq                                  0.008348         300
 fftbrc_mpi                              0.005432       10391
 brpre                                   0.005013         600
 strkin                                  0.003821           1
 stufak                                  0.001771           1
 set_dd_magatom                          0.001297         302
 forhar                                  0.001283           2
 vectorpot                               0.001244         301
 strelo                                  0.001132           1
 strehar                                 0.000865           1
 forloc                                  0.000693           1
 fewald                                  0.000340           1
 chggra                                  0.000242           1
 brgrid                                  0.000119           1
 rsp                                     0.000095           1
 fordep                                  0.000060           1
 potlok_metagga                          0.000031         301
 crpa_reader                             0.000027           1
 rcp                                     0.000017           1
 acc_cufft_makeplans                     0.000009           3
 rotate_active_occupied_orbital          0.000000           1
 redis_pw_over_bands                     0.000000           1
  summed up times     19898.56280303001

 Accumulative profile

 total_time                          19898.562803           1
 elmin                               19788.704211           1
 eddav                               18506.782383         304
 hamiltmu                             3870.756858     8030522
 lapack                               3620.011190     8030522
 raccmu_                              3351.480489     8030522
 m_sumb_d                             2110.193381    24378611
 redis_pw                             1797.939767    44507676
 newband                               881.450236     8293178
 m_alltoall_d                          800.647439    ********
 redis_proj                            777.611873    56367088
 fftwav_mpi                            571.233522    31363347
 fftwav                                530.669245    31363347
 phaser                                494.340069      268272
 set_charge                            477.745596         300
 set_dd_paw                            423.846244         302
 densta                                395.615121         305
 soft_charge                           388.542123         300
 eccp                                  366.039795     4202496
 fft3d                                 347.173915    47424391
 kinhamil                              259.167335    16061044
 orth1                                 248.192515    24093294
 racc0mu_acc                           234.784180     8030522
 overl                                 232.438049    27920456
 w1_copy                               231.017731    48183132
 fftext_mpi                            185.889207    16061044
 rpromu_acc                            179.868571     5974202
 w1_projall                            178.363134     5929274
 m_bcast_z                             162.554985     8085818
 setup_precond                         153.431604     4202496
 fft3d_mpi                             132.040168    16071435
 m_bcast_d                             129.487196    16061653
 overl_mu                              125.407116     8030522
 ggemm                                 103.224254    10131770
 pw_charge                              85.635051     3264043
 vhamil                                 71.970104    16061044
 depsum                                 66.792916         300
 apply_precond                          63.649972    11858548
 force_and_stress                       37.446502           1
 setdij_                                25.431712         328
 strnlr                                 24.284613           1
 rpro_isp                               23.013474        5616
 augmentation_charge                    22.435469         301
 fftbrc_mpi                             13.050136       10391
 fftbas_plan_mpi                        13.044703       10391
 init_acc                               11.031106           1
 lincom                                  8.900682      263520
 fornlr                                  8.093018           1
 dfftw_execute                           7.646368        7620
 map_backward                            2.519340       10986
 m_alltoallv_z                           2.467440       11595
 acc_init_cublas                         2.450836           1
 map_forward                             2.386645        9796
 potlok                                  2.195024         302
 orthch                                  1.724778           1
 truncate_high_frequency_w1              1.646169    20263540
 proall                                  1.625276           1
 brmix                                   1.349540         300
 map_gather                              1.188872       11595
 map_scatter                             1.138503       11595
 sphpro_fast                             1.035365           2
 broyd                                   1.027398         300
 acc_init_cusolver                       0.797340           1
 fordep                                  0.464978           1
 fft_gq                                  0.317942         300
 brget                                   0.179343       67161
 acc_cufft_makeplans                     0.142514           3
 acc_cufft_makeplan                      0.142505          19
 setg0                                   0.140346         302
 rspher_all                              0.130122          14
 choleski                                0.122927         864
 brsav                                   0.049551       19226
 pothar                                  0.025095         303
 brpre                                   0.005013         600
 strkin                                  0.003837           1
 stufak                                  0.001771           1
 set_dd_magatom                          0.001297         302
 forhar                                  0.001292           2
 vectorpot                               0.001244         301
 strelo                                  0.001157           1
 strehar                                 0.000867           1
 chggra                                  0.000768           1
 forloc                                  0.000736           1
 fewald                                  0.000506           1
 brgrid                                  0.000119           1
 rsp                                     0.000095           1
 potlok_metagga                          0.000031         301
 crpa_reader                             0.000027           1
 rcp                                     0.000017           1
 rotate_active_occupied_orbital          0.000000           1
 redis_pw_over_bands                     0.000000           1

Profiling took  98.672730 48.710522  0.003186  0.003091 seconds
Profiling took  61.893891 seconds