 vasp.6.3.2 27Jun22 (build Jul  3 2023 11:46:21) complex
 executed on    LinuxNV_CrayMPICH date 2024.04.21  23:47:56

 INCAR:
   ADDGRID = True
   ALGO = Normal
   EDIFF = 0.0003
   ENCUT = 520.0
   IBRION = -1
   ICHARG = 0
   ISIF = 3
   ISMEAR = -5
   ISPIN = 2
   ISTART = 1
   KPOINT_BSE = -1 0 0 0
   LAECHG = True
   LASPH = True
   LCHARG = True
   LELF = True
   LORBIT = 11
   LREAL = Auto
   LVHAR = True
   LWAVE = False
   MAGMOM = 1*7.0 1*0.6 4*5.0
   NELM = 1000
   NSW = 0
   PREC = accurate
   SIGMA = 0.05

 POTCAR:    PAW_PBE Gd 23Dec2003
 POTCAR:    PAW_PBE In_d 06Sep2000
 POTCAR:    PAW_PBE Ni_pv 06Sep2000
 POTCAR:    PAW_PBE Gd 23Dec2003
   VRHFIN =Gd : [core=Xe4]

   TITEL  = PAW_PBE Gd 23Dec2003
   POMASS =  157.250; ZVAL   =   18.000    mass and valenz
   ENMAX  =  256.472; ENMIN  =  192.354 eV

   TITEL  = PAW_PBE In_d 06Sep2000
   POMASS =  114.820; ZVAL   =   13.000    mass and valenz
   ENMAX  =  239.211; ENMIN  =  179.409 eV

   TITEL  = PAW_PBE Ni_pv 06Sep2000
   POMASS =   58.690; ZVAL   =   16.000    mass and valenz
   ENMAX  =  367.986; ENMIN  =  275.989 eV

 Optimization of the real space projectors (new method)

 maximal supplied QI-value         = 13.42
 optimisation between [QCUT,QGAM] = [ 11.67, 23.35] = [ 38.16,152.62] Ry
 Optimized for a Real-space Cutoff    1.63 Angstroem

   l    n(q)    QCUT    max X(q) W(low)/X(q) W(high)/X(q)  e(spline)
   0     11    11.673    10.501    0.14E-04    0.17E-05    0.21E-07
   0     11    11.673     9.148    0.21E-04    0.32E-05    0.45E-07
   1     11    11.673     4.035    0.33E-05    0.11E-04    0.84E-07
   1     11    11.673     4.388    0.11E-04    0.47E-04    0.34E-06
   2     10    11.673    20.656    0.12E-04    0.28E-04    0.54E-06
   2     10    11.673    12.651    0.11E-04    0.26E-04    0.51E-06
   3     10    11.673    61.921    0.19E-03    0.22E-03    0.23E-06
   3     10    11.673    48.328    0.20E-03    0.23E-03    0.23E-06
 Optimization of the real space projectors (new method)

[...]

   l    n(q)    QCUT    max X(q) W(low)/X(q) W(high)/X(q)  e(spline)
   2      9    11.641     4.551    0.57E-04    0.17E-03    0.81E-07
   2      9    11.641     8.525    0.12E-03    0.33E-04    0.17E-06
   0      9    11.641   208.283    0.14E-03    0.45E-04    0.94E-07
   0      9    11.641   161.407    0.13E-03    0.44E-04    0.93E-07
   1      9    11.641   122.126    0.23E-03    0.20E-03    0.21E-06
   1      9    11.641    62.412    0.22E-03    0.19E-03    0.20E-06
 Optimization of the real space projectors (new method)

 maximal supplied QI-value         = 18.90
 optimisation between [QCUT,QGAM] = [ 11.53, 23.24] = [ 37.21,151.29] Ry
 Optimized for a Real-space Cutoff    1.36 Angstroem

   l    n(q)    QCUT    max X(q) W(low)/X(q) W(high)/X(q)  e(spline)
   1      9    11.527     2.836    0.16E-04    0.30E-04    0.95E-07
   1      9    11.527     4.023    0.73E-04    0.81E-04    0.21E-06
   2      9    11.527    73.368    0.15E-03    0.29E-03    0.28E-06
   2      9    11.527    69.010    0.15E-03    0.29E-03    0.29E-06
   0      9    11.527    54.797    0.43E-04    0.28E-04    0.85E-07
   0      9    11.527    24.266    0.33E-04    0.24E-04    0.75E-07
  PAW_PBE Gd 23Dec2003                  :
  PAW_PBE In_d 06Sep2000                :
  PAW_PBE Ni_pv 06Sep2000               :

 POSCAR: Gd1 In1 Ni4
  positions in direct lattice
 exchange correlation table for  LEXCH =        8
   RHO(1)=    0.500       N(1)  =     2000
   RHO(2)=  100.500       N(2)  =     4000

 VTST: version 4.2, (08/11/21)

 CHAIN: initializing optimizer

 OPT: Using VASP Dynamics algorithm
 CHAIN: Read ICHAIN             0

 POSCAR: Gd1 In1 Ni4
  positions in direct lattice

 ion  position               nearest neighbor table
   1  0.250  0.250  0.250-   5 2.93   6 2.93   4 2.93   6 2.93   4 2.93   5 2.93   3 2.93   3 2.93
                             3 2.93   4 2.93   5 2.93   6 2.93   2 3.06   2 3.06   2 3.06   2 3.06
   2  0.000  0.000  0.000-   4 2.93   5 2.93   6 2.93   3 2.93   3 2.93   3 2.93   4 2.93   5 2.93
                             6 2.93   4 2.93   5 2.93   6 2.93   1 3.06   1 3.06   1 3.06   1 3.06
   3  0.626  0.626  0.626-   4 2.48   5 2.48   6 2.48   4 2.52   5 2.52   6 2.52   2 2.93   2 2.93
                             2 2.93   1 2.93   1 2.93   1 2.93
   4  0.626  0.626  0.122-   3 2.48   5 2.48   6 2.48   3 2.52   5 2.52   6 2.52   2 2.93   2 2.93
                             2 2.93   1 2.93   1 2.93   1 2.93
   5  0.626  0.122  0.626-   3 2.48   4 2.48   6 2.48   4 2.52   3 2.52   6 2.52   2 2.93   2 2.93
                             2 2.93   1 2.93   1 2.93   1 2.93
   6  0.122  0.626  0.626-   3 2.48   4 2.48   5 2.48   3 2.52   4 2.52   5 2.52   2 2.93   2 2.93
                             2 2.93   1 2.93   1 2.93   1 2.93

  LATTYP: Found a face centered cubic cell.
 ALAT       =     7.0704040000

  Lattice vectors:

 A1 = (   0.0000000000,   3.5352020000,   3.5352020000)
 A2 = (   3.5352020000,   0.0000000000,   3.5352020000)
 A3 = (   3.5352020000,   3.5352020000,   0.0000000000)

Analysis of symmetry for initial positions (statically):
 Subroutine PRICEL returns:
 Original cell was already a primitive cell.

 Routine SETGRP: Setting up the symmetry group for a
 face centered cubic supercell.

 Subroutine GETGRP returns: Found 24 space group operations
 (whereof 24 operations were pure point group operations)
 out of a pool of 48 trial point group operations.

The static configuration has the point symmetry T_d .

Analysis of symmetry for dynamics (positions and initial velocities):
 Subroutine PRICEL returns:
 Original cell was already a primitive cell.

[...]

The dynamic configuration has the point symmetry T_d .

Analysis of structural, dynamic, and magnetic symmetry:
 Subroutine PRICEL returns:
 Original cell was already a primitive cell.

 Routine SETGRP: Setting up the symmetry group for a
 face centered cubic supercell.

 Subroutine GETGRP returns: Found 24 space group operations
 (whereof 24 operations were pure point group operations)
 out of a pool of 48 trial point group operations.

The overall configuration has the point symmetry T_d .

 Subroutine INISYM returns: Found 24 space group operations
 (whereof 24 operations are pure point group operations),
 and found     1 'primitive' translations

                                     Primitive cell

  volume of cell :      88.3635

  direct lattice vectors                    reciprocal lattice vectors
     0.000000000  3.535202000  3.535202000    -0.141434634  0.141434634  0.141434634
     3.535202000  0.000000000  3.535202000     0.141434634 -0.141434634  0.141434634
     3.535202000  3.535202000  0.000000000     0.141434634  0.141434634 -0.141434634

  length of vectors
     4.999530614  4.999530614  4.999530614     0.244971972  0.244971972  0.244971972

  position of ions in fractional coordinates (direct lattice)
     0.250000000  0.250000000  0.250000000
     0.000000000  0.000000000  0.000000000
     0.625967000  0.625967000  0.625967000
     0.625967000  0.625967000  0.122099000
     0.625967000  0.122099000  0.625967000
     0.122099000  0.625967000  0.625967000

  ion indices of the primitive-cell ions
   primitive index   ion index
                 1           1
                 2           2
                 3           3
                 4           4
                 5           5
                 6           6

 KPOINTS: Kpoints from vasprun.xml

Automatic generation of k-mesh.
 Grid dimensions read from file:
 generate k-points for:    6    6    6

 Generating k-lattice:

  Cartesian coordinates                     Fractional coordinates (reciprocal lattice)
    -0.023572439  0.023572439  0.023572439     0.166666667  0.000000000  0.000000000
     0.023572439 -0.023572439  0.023572439     0.000000000  0.166666667 -0.000000000
     0.023572439  0.023572439 -0.023572439    -0.000000000 -0.000000000  0.166666667

  Length of vectors
     0.040828662  0.040828662  0.040828662

  Shift w.r.t. Gamma in fractional coordinates (k-lattice)
     0.000000000  0.000000000  0.000000000

 TETIRR: Found     35 inequivalent tetrahedra from     1296

 Subroutine IBZKPT returns following result:

 Found     16 irreducible k-points:

 Following reciprocal coordinates:
            Coordinates               Weight
  0.000000  0.000000  0.000000      1.000000
  0.166667  0.000000  0.000000      8.000000
  0.333333  0.000000  0.000000      8.000000
  0.500000  0.000000  0.000000      4.000000
  0.166667  0.166667  0.000000      6.000000
  0.333333  0.166667  0.000000     24.000000
  0.500000  0.166667  0.000000     24.000000
 -0.333333  0.166667  0.000000     24.000000
 -0.166667  0.166667  0.000000     12.000000
  0.333333  0.333333  0.000000      6.000000
  0.500000  0.333333  0.000000     24.000000
 -0.333333  0.333333  0.000000     12.000000
  0.500000  0.500000  0.000000      3.000000
  0.500000  0.333333  0.166667     24.000000
 -0.333333  0.333333  0.166667     24.000000
 -0.333333  0.500000  0.166667     12.000000

 Following cartesian coordinates:
            Coordinates               Weight
  0.000000  0.000000  0.000000      1.000000
 -0.023572  0.023572  0.023572      8.000000
 -0.047145  0.047145  0.047145      8.000000
 -0.070717  0.070717  0.070717      4.000000
  0.000000  0.000000  0.047145      6.000000
 -0.023572  0.023572  0.070717     24.000000
 -0.047145  0.047145  0.094290     24.000000
  0.070717 -0.070717 -0.023572     24.000000
  0.047145 -0.047145  0.000000     12.000000
  0.000000  0.000000  0.094290      6.000000
 -0.023572  0.023572  0.117862     24.000000
  0.094290 -0.094290  0.000000     12.000000
  0.000000  0.000000  0.141435      3.000000
  0.000000  0.047145  0.094290     24.000000
  0.117862 -0.070717 -0.023572     24.000000
  0.141435 -0.094290  0.000000     12.000000

 SYSTEM =  unknown system
 POSCAR =  Gd1 In1 Ni4

 Startparameter for this run:
   NWRITE =      2    write-flag & timer
   PREC   = accura    normal or accurate (medium, high low for compatibility)
   ISTART =      0    job   : 0-new  1-cont  2-samecut
   ICHARG =      2    charge: 1-file 2-atom 10-const
   ISPIN  =      2    spin polarized calculation?
   LNONCOLLINEAR =      F non collinear calculations
   LSORBIT =      F    spin-orbit coupling
   INIWAV =      1    electr: 0-lowe 1-rand  2-diag
   LASPH  =      T    aspherical Exc in radial PAW
 Electronic Relaxation 1
   ENCUT  =  520.0 eV  38.22 Ry    6.18 a.u.   9.30  9.30  9.30*2*pi/ulx,y,z
   ENINI  =  520.0     initial cutoff
   ENAUG  =  703.4 eV  augmentation charge cutoff
   NELM   =   1000;   NELMIN=  2; NELMDL=  0     # of ELM steps
   EDIFF  = 0.3E-03   stopping-criterion for ELM
   LREAL  =      T    real-space projection
   NLSPLINE    = F    spline interpolate recip. space projectors
   LCOMPAT=      F    compatible to vasp.4.4
   GGA_COMPAT  = T    GGA compatible to vasp.4.4-vasp.4.6
   LMAXPAW     = -100 max onsite density
   LMAXMIX     =    2 max onsite mixed and CHGCAR
   VOSKOWN=      0    Vosko Wilk Nusair interpolation
   ROPT   =   -0.00025  -0.00025  -0.00025
 Ionic relaxation
   EDIFFG = 0.3E-02   stopping-criterion for IOM
   NSW    =      0    number of steps for IOM
[...]
  290                map_forward                           0.000175                    4   7
  291                  map_gather                            0.000042                  2   8
  292                  m_alltoallv_z                         0.000027                  2   8
  293                  map_scatter                           0.000076                  2   8
  294                map_backward                          0.000080                    2   7
  295                  map_gather                            0.000019                  1   8
  296                  m_alltoallv_z                         0.000012                  1   8
  297                  map_scatter                           0.000034                  1   8
  298          m_sumb_d                              0.000013                          2   4
  299          pothar                                0.000077                          1   4
  300            m_sumb_d                              0.000005                        1   5
  301        brmix                                 0.005040                            1   3
  302          m_sumb_d                              0.000023                          6   4
  303          brpre                                 0.000014                          2   4
  304          setg0                                 0.000451                          1   4
  305          broyd                                 0.003966                          1   4
  306            brget                                 0.000836                      326   5
  307            brsav                                 0.000387                      163   5
  308            m_sumb_d                              0.000366                       47   5
  309        m_bcast_d                             0.000020                            2   3
  310      potlok                                0.018655                              2   2
  311        fft3d_mpi                             0.012201                           36   3
  312          fftbrc_mpi                            0.010238                         36   4
  313            fftbas_plan_mpi                       0.010220                       36   5
  314              map_forward                           0.003028                     40   6
  315                map_gather                            0.001057                   24   7
  316                m_alltoallv_z                         0.000876                   24   7
  317                map_scatter                           0.000914                   24   7
  318              map_backward                          0.002579                     32   6
  319                map_gather                            0.000882                   16   7
  320                m_alltoallv_z                         0.000692                   16   7
  321                map_scatter                           0.000827                   16   7
  322              dfftw_execute                         0.003063                     30   6
  323        m_sumb_d                              0.000024                            5   3
  324        pothar                                0.000725                            2   3
  325          m_sumb_d                              0.000058                          2   4
  326        m_bcast_d                             0.001085                            4   3
  327      potlok_metagga                        0.000000                              1   2
  328      set_dd_magatom                        0.000004                              1   2
  329      set_dd_paw                            1.398608                              1   2
  330        m_sumb_d                              0.931664                            7   3
  331      augmentation_charge                   0.071086                              1   2
  332        fft3d_mpi                             0.016783                            2   3
  333          fftbrc_mpi                            0.014914                          2   4
  334            fftbas_plan_mpi                       0.014911                        2   5
  335              dfftw_execute                         0.009119                      6   6
  336              map_backward                          0.005645                      4   6
  337                map_gather                            0.001367                    2   7
  338                m_alltoallv_z                         0.003013                    2   7
  339                map_scatter                           0.001257                    2   7
  340      fftwav_mpi                            0.768326                           1728   2
  341        fftwav                                0.766264                         1728   3
  342          fft3d                                 0.732035                       1728   4
  343      densta                                0.564195                              1   2

 Flat profile

 m_sumb_d                              150.143890      414692
 eddav                                  62.128393         130
 set_dd_paw                             60.320031         128
 lapack                                 59.455859      133403
 raccmu_                                53.749488      133403
 redis_pw                               23.879763      733922
 m_alltoall_d                           13.457231     1945402
 init_acc                               10.796365           1
 phaser                                  7.944641        4368
 setdij_                                 7.854422         154
 total_time                              7.248110           1
 augmentation_charge                     7.087067         127
 fft3d                                   6.584836      784784
 eccp                                    6.400891       74880
 redis_proj                              6.200875      925880
 fftwav                                  4.912837      517978
 orth1                                   4.292135      400305
 racc0mu_acc                             3.903753      133403
 w1_copy                                 3.869700      800418
 overl                                   3.863738      458764
 dfftw_execute                           3.495647        3504
 soft_charge                             3.478466         126
 rpromu_acc                              3.124055       98043
 densta                                  3.044536         131
 hamiltmu                                2.835186      133403
 m_bcast_z                               2.747405      135707
 setup_precond                           2.704950       74880
 acc_init_cublas                         2.419906           1
 m_bcast_d                               2.258446      267067
 overl_mu                                2.067001      133403
 ggemm                                   1.799777      170843
 pw_charge                               1.311114       50030
 kinhamil                                1.221108      266806
 vhamil                                  1.220504      266806
 m_alltoallv_z                           1.191460        5023
 depsum                                  1.171147         126
 fftext_mpi                              1.151842      266806
 newband                                 1.105528      137563
 apply_precond                           1.048714      191926
 fft3d_mpi                               0.815373      271301
 acc_init_cusolver                       0.792613           1
 fftwav_mpi                              0.671749      517978
 set_charge                              0.614001         126
 map_gather                              0.537693        5023
 map_scatter                             0.521281        5023
 rpro_isp                                0.402139         208
 potlok                                  0.343560         128
 broyd                                   0.244545         126
 elmin                                   0.225434           1
 fftbas_plan_mpi                         0.222294        4495
 lincom                                  0.157905        4192
 rspher_all                              0.128732          14
 acc_cufft_makeplan                      0.121902          19
 w1_projall                              0.102499       95963
 brmix                                   0.070990         126
 brget                                   0.066584       25067
 setg0                                   0.059154         128
 proall                                  0.048773           1
 sphpro_fast                             0.045788           2
 truncate_high_frequency_w1              0.026971      341686
 map_backward                            0.024292        4734
 map_forward                             0.023207        4256
 brsav                                   0.018142        7034
 pothar                                  0.009844         129
 choleski                                0.009299          32
 orthch                                  0.008948           1
 force_and_stress                        0.008394           1
 inisym                                  0.004952           1
 strnlr                                  0.004329           1
 fft_gq                                  0.003894         126
 fftbrc_mpi                              0.002527        4495
 brpre                                   0.002139         252
 stufak                                  0.001829           1
 fornlr                                  0.001516           1
 forhar                                  0.001308           2
 strelo                                  0.001074           1
 strehar                                 0.000874           1
 forloc                                  0.000697           1
 set_dd_magatom                          0.000571         128
 vectorpot                               0.000534         127
 fewald                                  0.000327           1
 strkin                                  0.000323           1
 chggra                                  0.000233           1
 brgrid                                  0.000110           1
 rsp                                     0.000096           1
 fordep                                  0.000056           1
 posmap                                  0.000038           2
 crpa_reader                             0.000027           1
 rcp                                     0.000015           1
 potlok_metagga                          0.000013         127
 acc_cufft_makeplans                     0.000010           3
 rotate_active_occupied_orbital          0.000001           1
 redis_pw_over_bands                     0.000000           1
  summed up times     549.8404181003571

 Accumulative profile

 total_time                            549.840418           1
 elmin                                 519.922395           1
 eddav                                 311.553532         130
 set_dd_paw                            179.852768         128
 m_sumb_d                              150.143890      414692
 hamiltmu                               68.136799      133403
 raccmu_                                59.720242      133403
 lapack                                 59.455859      133403
 redis_pw                               30.558796      733922
 set_charge                             17.770496         126
 newband                                15.684895      137563
 m_alltoall_d                           13.457231     1945402
 redis_proj                             12.979073      925880
 setdij_                                11.544555         154
 init_acc                               10.796365           1
 fftwav_mpi                             10.261161      517978
 fftwav                                  9.589413      517978
 augmentation_charge                     9.299986         127
 fft3d_mpi                               8.742037      271301
 phaser                                  7.944641        4368
 soft_charge                             6.603475         126
 fft3d                                   6.584836      784784
 eccp                                    6.400891       74880
 fftbrc_mpi                              6.018403        4495
 fftbas_plan_mpi                         6.015876        4495
 force_and_stress                        4.930770           1
 kinhamil                                4.360867      266806
 orth1                                   4.292135      400305
 racc0mu_acc                             3.903753      133403
 w1_copy                                 3.869700      800418
 overl                                   3.863738      458764
 dfftw_execute                           3.495647        3504
 fftext_mpi                              3.139759      266806
 rpromu_acc                              3.124055       98043
 densta                                  3.044536         131
 w1_projall                              2.880028       95963
 m_bcast_z                               2.747405      135707
 setup_precond                           2.704950       74880
 acc_init_cublas                         2.419906           1
 m_bcast_d                               2.258446      267067
 overl_mu                                2.067001      133403
 ggemm                                   1.799777      170843
 pw_charge                               1.311114       50030
 vhamil                                  1.220504      266806
 depsum                                  1.211441         126
 m_alltoallv_z                           1.191460        5023
 map_forward                             1.190212        4256
 map_backward                            1.107723        4734
 strnlr                                  1.065370           1
 apply_precond                           1.048714      191926
 potlok                                  1.039927         128
 rpro_isp                                0.972272         208
 acc_init_cusolver                       0.792613           1
 map_gather                              0.537693        5023
 map_scatter                             0.521281        5023
 brmix                                   0.515571         126
 fordep                                  0.453355           1
 broyd                                   0.362846         126
 fornlr                                  0.354308           1
 orthch                                  0.244939           1
 lincom                                  0.157905        4192
 fft_gq                                  0.132552         126
 rspher_all                              0.128732          14
 acc_cufft_makeplans                     0.121912           3
 acc_cufft_makeplan                      0.121902          19
 proall                                  0.109760           1
 brget                                   0.066584       25067
 setg0                                   0.059154         128
 sphpro_fast                             0.047081           2
 truncate_high_frequency_w1              0.026971      341686
 brsav                                   0.018142        7034
 pothar                                  0.010914         129
 choleski                                0.009299          32
 inisym                                  0.004990           1
 brpre                                   0.002139         252
 stufak                                  0.001829           1
 forhar                                  0.001329           2
 strelo                                  0.001143           1
 strehar                                 0.000877           1
 chggra                                  0.000768           1
 forloc                                  0.000763           1
 fewald                                  0.000741           1
 set_dd_magatom                          0.000571         128
 vectorpot                               0.000534         127
 strkin                                  0.000340           1
 brgrid                                  0.000110           1
 rsp                                     0.000096           1
 posmap                                  0.000038           2
 crpa_reader                             0.000027           1
 rcp                                     0.000015           1
 potlok_metagga                          0.000013         127
 rotate_active_occupied_orbital          0.000001           1
 redis_pw_over_bands                     0.000000           1

Profiling took   1.685237  0.815009  0.003251  0.003174 seconds
Profiling took   1.023648 seconds