 vasp.6.3.2 27Jun22 (build Jul  3 2023 11:46:21) complex
 executed on    LinuxNV_CrayMPICH date 2024.04.22  03:00:35

 INCAR:
   ADDGRID = True
   ALGO = Normal
   EDIFF = 0.0013
   ENCUT = 520.0
   IBRION = -1
   ICHARG = 0
   ISIF = 3
   ISMEAR = -5
   ISPIN = 2
   KPOINT_BSE = -1 0 0 0
   LAECHG = True
   LASPH = True
   LCHARG = True
   LELF = True
   LORBIT = 11
   LREAL = Auto
   LVHAR = True
   LWAVE = False
   MAGMOM = 4*7.0 14*5.0 8*0.6
   NELM = 1000
   NSW = 0
   PREC = accurate
   SIGMA = 0.05

 POTCAR:    PAW_PBE Eu 23Dec2003
 POTCAR:    PAW_PBE Ni_pv 06Sep2000
 POTCAR:    PAW_PBE P 06Sep2000
 POTCAR:    PAW_PBE Eu 23Dec2003
   VRHFIN =Eu : [core=Kr4d]

   TITEL  = PAW_PBE Eu 23Dec2003
   POMASS =  151.965; ZVAL   =   17.000    mass and valenz
   ENMAX  =  249.668; ENMIN  =  187.251 eV

   TITEL  = PAW_PBE Ni_pv 06Sep2000
   POMASS =   58.690; ZVAL   =   16.000    mass and valenz
   ENMAX  =  367.986; ENMIN  =  275.989 eV

   TITEL  = PAW_PBE P 06Sep2000
   POMASS =   30.974; ZVAL   =    5.000    mass and valenz
   ENMAX  =  255.040; ENMIN  =  191.280 eV

 Optimization of the real space projectors (new method)

 maximal supplied QI-value         = 13.42
 optimisation between [QCUT,QGAM] = [ 11.67, 23.35] = [ 38.16,152.62] Ry
 Optimized for a Real-space Cutoff    1.63 Angstroem

   l    n(q)    QCUT    max X(q) W(low)/X(q) W(high)/X(q)  e(spline)
   0     11    11.673    10.400    0.14E-04    0.18E-05    0.24E-07
   0     11    11.673    10.768    0.21E-04    0.32E-05    0.49E-07
   1     11    11.673     4.094    0.40E-05    0.13E-04    0.93E-07
   1     11    11.673     4.009    0.11E-04    0.46E-04    0.33E-06
   2     10    11.673    29.030    0.79E-04    0.60E-04    0.70E-06
   2     10    11.673    19.941    0.80E-04    0.60E-04    0.71E-06
   3     10    11.673    88.889    0.23E-03    0.29E-03    0.30E-06
   3     10    11.673    76.102    0.23E-03    0.30E-03    0.30E-06
 Optimization of the real space projectors (new method)

[...]

   l    n(q)    QCUT    max X(q) W(low)/X(q) W(high)/X(q)  e(spline)
   1      9    11.527     2.836    0.16E-04    0.30E-04    0.95E-07
   1      9    11.527     4.023    0.73E-04    0.81E-04    0.21E-06
   2      9    11.527    73.368    0.15E-03    0.29E-03    0.28E-06
   2      9    11.527    69.010    0.15E-03    0.29E-03    0.29E-06
   0      9    11.527    54.797    0.43E-04    0.28E-04    0.85E-07
   0      9    11.527    24.266    0.33E-04    0.24E-04    0.75E-07
 Optimization of the real space projectors (new method)

 maximal supplied QI-value         = 19.84
 optimisation between [QCUT,QGAM] = [ 11.51, 23.22] = [ 37.09,150.92] Ry
 Optimized for a Real-space Cutoff    1.21 Angstroem

   l    n(q)    QCUT    max X(q) W(low)/X(q) W(high)/X(q)  e(spline)
   0      8    11.508   160.924    0.96E-04    0.17E-03    0.52E-07
   0      8    11.508   130.086    0.95E-04    0.17E-03    0.51E-07
   1      8    11.508    74.434    0.16E-03    0.74E-04    0.91E-07
   1      8    11.508    49.120    0.16E-03    0.71E-04    0.89E-07
  PAW_PBE Eu 23Dec2003                  :
  PAW_PBE Ni_pv 06Sep2000               :
  PAW_PBE P 06Sep2000                   :

 POSCAR: Eu4 Ni14 P8
  positions in direct lattice
 exchange correlation table for  LEXCH =        8
   RHO(1)=    0.500       N(1)  =     2000
   RHO(2)=  100.500       N(2)  =     4000

 VTST: version 4.2, (08/11/21)

 CHAIN: initializing optimizer

 OPT: Using VASP Dynamics algorithm
 CHAIN: Read ICHAIN             0

 POSCAR: Eu4 Ni14 P8
  positions in direct lattice

 ion  position               nearest neighbor table
   1  0.000  0.440  0.519-  26 2.87  26 2.87  24 2.92  24 2.92  20 2.94  20 2.94  12 3.01  12 3.01
                            10 3.04  10 3.04
   2  0.500  0.560  0.019-  25 2.87  25 2.87  23 2.92  23 2.92  19 2.94  19 2.94  11 3.01  11 3.01
                             9 3.04   9 3.04
   3  0.000  0.063  0.737-  21 2.97  20 3.00  20 3.00   6 3.01   6 3.01   7 3.04  22 3.06  22 3.06

   4  0.500  0.937  0.237-  22 2.97  19 3.00  19 3.00   5 3.01   5 3.01   8 3.04  21 3.06  21 3.06

   5  0.000  0.771  0.408-  19 2.27  21 2.38  24 2.38  24 2.38   7 2.44   4 3.01   4 3.01
   6  0.500  0.229  0.908-  20 2.27  22 2.38  23 2.38  23 2.38   8 2.44   3 3.01   3 3.01
   7  0.000  0.753  0.640-  25 2.16  24 2.33  24 2.33   5 2.44   3 3.04
   8  0.500  0.247  0.140-  26 2.16  23 2.33  23 2.33   6 2.44   4 3.04
   9  0.000  0.818  0.998-  25 2.32  22 2.43  22 2.43  19 2.48  17 2.51   2 3.04   2 3.04
  10  0.500  0.182  0.498-  26 2.32  21 2.43  21 2.43  20 2.48  18 2.51   1 3.04   1 3.04
  11  0.000  0.441  0.217-  19 2.29  23 2.31  26 2.38  26 2.38  15 2.49   2 3.01   2 3.01
  12  0.500  0.559  0.717-  20 2.29  24 2.31  25 2.38  25 2.38  16 2.49   1 3.01   1 3.01
  13  0.000  0.402  0.819-  23 2.29  25 2.36  20 2.38  20 2.38
  14  0.500  0.598  0.319-  24 2.29  26 2.36  19 2.38  19 2.38
  15  0.000  0.194  0.311-  21 2.20  26 2.34  26 2.34  11 2.49
  16  0.500  0.806  0.811-  22 2.20  25 2.34  25 2.34  12 2.49
  17  0.000  0.084  0.042-  23 2.18  22 2.30  22 2.30   9 2.51
  18  0.500  0.916  0.542-  24 2.18  21 2.30  21 2.30  10 2.51
  19  0.000  0.687  0.204-   5 2.27  11 2.29  14 2.38  14 2.38   9 2.48   2 2.94   2 2.94   4 3.00
                             4 3.00
  20  0.500  0.313  0.704-   6 2.27  12 2.29  13 2.38  13 2.38  10 2.48   1 2.94   1 2.94   3 3.00
                             3 3.00
  21  0.000  0.022  0.455-  15 2.20  18 2.30  18 2.30   5 2.38  10 2.43  10 2.43   3 2.97   4 3.06
                             4 3.06
  22  0.500  0.978  0.955-  16 2.20  17 2.30  17 2.30   6 2.38   9 2.43   9 2.43   4 2.97   3 3.06
                             3 3.06
  23  0.000  0.319  0.025-  17 2.18  13 2.29  11 2.31   8 2.33   8 2.33   6 2.38   6 2.38   2 2.92
                             2 2.92
  24  0.500  0.681  0.525-  18 2.18  14 2.29  12 2.31   7 2.33   7 2.33   5 2.38   5 2.38   1 2.92
                             1 2.92
  25  0.000  0.657  0.829-   7 2.16   9 2.32  16 2.34  16 2.34  13 2.36  12 2.38  12 2.38   2 2.87
                             2 2.87
  26  0.500  0.343  0.329-   8 2.16  10 2.32  15 2.34  15 2.34  14 2.36  11 2.38  11 2.38   1 2.87
                             1 2.87

  LATTYP: Found a simple orthorhombic cell.
 ALAT       =     3.7444860000
 B/A-ratio  =     2.4737942671
 C/A-ratio  =     2.7959249948

  Lattice vectors:

 A1 = (   3.7444860000,   0.0000000000,   0.0000000000)
 A2 = (   0.0000000000,   9.2630880000,   0.0000000000)
 A3 = (   0.0000000000,   0.0000000000,  10.4693020000)

Analysis of symmetry for initial positions (statically):
 Subroutine PRICEL returns:
 Original cell was already a primitive cell.

 Routine SETGRP: Setting up the symmetry group for a
 simple orthorhombic supercell.

 Subroutine GETGRP returns: Found  4 space group operations
 (whereof  2 operations were pure point group operations)
 out of a pool of  8 trial point group operations.

The static configuration has the point symmetry C_1h.
 The point group associated with its full space group is C_2v.

Analysis of symmetry for dynamics (positions and initial velocities):
 Subroutine PRICEL returns:
 Original cell was already a primitive cell.

[...]

The dynamic configuration has the point symmetry C_1h.
 The point group associated with its full space group is C_2v.

Analysis of structural, dynamic, and magnetic symmetry:
 Subroutine PRICEL returns:
 Original cell was already a primitive cell.

 Routine SETGRP: Setting up the symmetry group for a
 simple orthorhombic supercell.

 Subroutine GETGRP returns: Found  4 space group operations
 (whereof  2 operations were pure point group operations)
 out of a pool of  8 trial point group operations.

The overall configuration has the point symmetry C_1h.
 The point group associated with its full space group is C_2v.

 Subroutine INISYM returns: Found  4 space group operations
 (whereof  2 operations are pure point group operations),
 and found     1 'primitive' translations

                                     Primitive cell

  volume of cell :     363.1330

  direct lattice vectors                    reciprocal lattice vectors
     3.744486000  0.000000000  0.000000000     0.267059351  0.000000000  0.000000000
     0.000000000  9.263088000  0.000000000     0.000000000  0.107955360  0.000000000
     0.000000000  0.000000000 10.469302000     0.000000000  0.000000000  0.095517352

  length of vectors
     3.744486000  9.263088000 10.469302000     0.267059351  0.107955360  0.095517352

  position of ions in fractional coordinates (direct lattice)
     0.000000000  0.439725000  0.518878000
     0.500000000  0.560275000  0.018878000
     0.000000000  0.062947000  0.736729000
     0.500000000  0.937053000  0.236729000
     0.000000000  0.770699000  0.407827000
     0.500000000  0.229301000  0.907827000
     0.000000000  0.752773000  0.640411000
     0.500000000  0.247227000  0.140411000
     0.000000000  0.818368000  0.998109000
     0.500000000  0.181632000  0.498109000
     0.000000000  0.440537000  0.217417000
     0.500000000  0.559463000  0.717417000
     0.000000000  0.402480000  0.819152000
     0.500000000  0.597520000  0.319152000
     0.000000000  0.194012000  0.311255000
     0.500000000  0.805988000  0.811255000
     0.000000000  0.084392000  0.042413000
     0.500000000  0.915608000  0.542413000
     0.000000000  0.687223000  0.204271000
     0.500000000  0.312777000  0.704271000
     0.000000000  0.021518000  0.455091000
     0.500000000  0.978482000  0.955091000
     0.000000000  0.318772000  0.024536000
     0.500000000  0.681228000  0.524536000
     0.000000000  0.656563000  0.828711000
     0.500000000  0.343437000  0.328711000

  ion indices of the primitive-cell ions
   primitive index   ion index
                 1           1
                 2           2
                 3           3
                 4           4
                 5           5
                 6           6
                 7           7
                 8           8
                 9           9
                10          10
                11          11
                12          12
                13          13
                14          14
                15          15
                16          16
                17          17
                18          18
                19          19
                20          20
                21          21
                22          22
                23          23
                24          24
                25          25
                26          26

 KPOINTS: Kpoints from vasprun.xml

Automatic generation of k-mesh.
 Grid dimensions read from file:
 generate k-points for:    7    3    2

 Generating k-lattice:

  Cartesian coordinates                     Fractional coordinates (reciprocal lattice)
     0.038151336  0.000000000  0.000000000     0.142857143  0.000000000  0.000000000
     0.000000000  0.035985120  0.000000000     0.000000000  0.333333333  0.000000000
     0.000000000  0.000000000  0.047758676     0.000000000  0.000000000  0.500000000

  Length of vectors
     0.038151336  0.035985120  0.047758676

  Shift w.r.t. Gamma in fractional coordinates (k-lattice)
[...]
  318                map_forward                           0.000212                    4   7
  319                  map_gather                            0.000039                  2   8
  320                  m_alltoallv_z                         0.000025                  2   8
  321                  map_scatter                           0.000111                  2   8
  322                map_backward                          0.000100                    2   7
  323                  map_gather                            0.000024                  1   8
  324                  m_alltoallv_z                         0.000011                  1   8
  325                  map_scatter                           0.000048                  1   8
  326          m_sumb_d                              0.000011                          2   4
  327          pothar                                0.000086                          1   4
  328            m_sumb_d                              0.000011                        1   5
  329        brmix                                 0.010574                            1   3
  330          m_sumb_d                              0.000031                          6   4
  331          brpre                                 0.000031                          2   4
  332          setg0                                 0.001091                          1   4
  333          broyd                                 0.008168                          1   4
  334            m_sumb_d                              0.000358                       51   5
  335            brget                                 0.001464                      229   5
  336            brsav                                 0.000307                       49   5
  337        m_bcast_d                             0.000033                            2   3
  338      potlok                                0.038566                              2   2
  339        fft3d_mpi                             0.024853                           36   3
  340          fftbrc_mpi                            0.020857                         36   4
  341            fftbas_plan_mpi                       0.020846                       36   5
  342              map_forward                           0.006028                     40   6
  343                map_gather                            0.001917                   24   7
  344                m_alltoallv_z                         0.002222                   24   7
  345                map_scatter                           0.001683                   24   7
  346              map_backward                          0.004961                     32   6
  347                map_gather                            0.001734                   16   7
  348                m_alltoallv_z                         0.001539                   16   7
  349                map_scatter                           0.001496                   16   7
  350              dfftw_execute                         0.008075                     30   6
  351        m_sumb_d                              0.000024                            5   3
  352        pothar                                0.001566                            2   3
  353          m_sumb_d                              0.000044                          2   4
  354        m_bcast_d                             0.002491                            4   3
  355      potlok_metagga                        0.000000                              1   2
  356      set_dd_magatom                        0.000004                              1   2
  357      set_dd_paw                            3.292300                              1   2
  358        m_sumb_d                              0.482932                            7   3
  359      augmentation_charge                   0.139452                              1   2
  360        fft3d_mpi                             0.048499                            2   3
  361          fftbrc_mpi                            0.042659                          2   4
  362            fftbas_plan_mpi                       0.042658                        2   5
  363              dfftw_execute                         0.026798                      6   6
  364              map_backward                          0.015622                      4   6
  365                map_gather                            0.004197                    2   7
  366                m_alltoallv_z                         0.005859                    2   7
  367                map_scatter                           0.005555                    2   7
  368      fftwav_mpi                            6.338692                           6048   2
  369        fftwav                                6.331198                         6048   3
  370          fft3d                                 5.824437                       6048   4
  371      densta                               14.383818                              1   2

 Flat profile

 set_dd_paw                           1003.121859         362
 m_sumb_d                              744.165988     4238994
 eddav                                 717.137843         364
 lapack                                633.201375     1399086
 raccmu_                               585.810740     1399086
 redis_pw                              323.371354     7513304
 m_alltoall_d                          139.180062    19932696
 densta                                 97.824754         365
 eccp                                   75.638420      733824
 fft3d                                  67.304896     8008840
 orth1                                  66.664272     4197514
 redis_proj                             63.669140     9520768
 fftwav                                 49.347438     5267584
 phaser                                 47.418099       11856
 racc0mu_acc                            41.100826     1399086
 hamiltmu                               40.707649     1399086
 w1_copy                                40.339731     8223768
 overl                                  39.617754     4748720
 setdij_                                33.028527         388
 augmentation_charge                    32.868768         362
 rpromu_acc                             31.419656     1033006
 m_bcast_z                              30.778701     1407150
 soft_charge                            28.800832         361
 setup_precond                          26.746823      733824
 dfftw_execute                          23.608374        9132
 ggemm                                  23.552843     1771822
 m_bcast_d                              23.254023     2798901
 overl_mu                               21.656924     1399086
 pw_charge                              15.698338      486640
 total_time                             15.193788           1
 vhamil                                 12.643990     2741256
 kinhamil                               12.563602     2741256
 depsum                                 11.904055         361
 fftext_mpi                             11.643621     2741256
 init_acc                               11.554687           1
 apply_precond                          11.193337     2007432
 newband                                10.890428     1410734
 fftwav_mpi                              7.045587     5267584
 m_alltoallv_z                           5.645209       13921
 fft3d_mpi                               4.940006     2753711
 map_scatter                             4.788252       13921
 set_charge                              3.631377         361
 map_gather                              3.328981       13921
 acc_init_cublas                         2.439304           1
 broyd                                   1.672754         360
 potlok                                  1.559315         362
 rpro_isp                                1.322252         208
 w1_projall                              1.091624     1026350
 acc_init_cusolver                       0.787185           1
 elmin                                   0.723653           1
 brmix                                   0.649669         360
 fftbas_plan_mpi                         0.646943       12455
 brget                                   0.526712       81705
 lincom                                  0.471700       11680
 sphpro_fast                             0.443646           2
 setg0                                   0.404887         362
 truncate_high_frequency_w1              0.271902     3475080
 rspher_all                              0.269483          14
 acc_cufft_makeplan                      0.179398          19
 brsav                                   0.145223       23462
 proall                                  0.103271           1
 map_forward                             0.077634       11744
 map_backward                            0.075242       13166
 orthch                                  0.056960           1
 fft_gq                                  0.034129         361
 force_and_stress                        0.032116           1
 pothar                                  0.030498         363
 choleski                                0.020216          32
 stufak                                  0.013936           1
 brpre                                   0.011739         720
 strnlr                                  0.008080           1
 fftbrc_mpi                              0.007281       12455
 inisym                                  0.004481           1
 fornlr                                  0.002748           1
 forhar                                  0.002312           2
 strkin                                  0.002295           1
 strelo                                  0.002269           1
 set_dd_magatom                          0.001619         362
 strehar                                 0.001564           1
 vectorpot                               0.001525         361
 forloc                                  0.001206           1
 rsp                                     0.000829           1
 fewald                                  0.000349           1
 chggra                                  0.000248           1
 brgrid                                  0.000229           1
 fordep                                  0.000130           1
 rcp                                     0.000038           1
 potlok_metagga                          0.000037         361
 posmap                                  0.000028           2
 crpa_reader                             0.000027           1
 acc_cufft_makeplans                     0.000012           3
 rotate_active_occupied_orbital          0.000001           1
 redis_pw_over_bands                     0.000001           1
  summed up times     5208.101626157761

 Accumulative profile

 total_time                           5208.101626           1
 elmin                                5137.296302           1
 eddav                                3697.384220         364
 set_dd_paw                           1176.823750         362
 hamiltmu                              746.575035     1399086
 m_sumb_d                              744.165988     4238994
 raccmu_                               648.568489     1399086
 lapack                                633.201375     1399086
 redis_pw                              392.949878     7513304
 newband                               172.154069     1410734
 m_alltoall_d                          139.180062    19932696
 redis_proj                            133.270679     9520768
 set_charge                            129.633456         361
 fftwav_mpi                            104.077947     5267584
 densta                                 97.824754         365
 fftwav                                 97.032360     5267584
 eccp                                   75.638420      733824
 fft3d                                  67.304896     8008840
 orth1                                  66.664272     4197514
 soft_charge                            62.913325         361
 fft3d_mpi                              62.737895     2753711
 setdij_                                55.042131         388
 augmentation_charge                    50.585598         362
 phaser                                 47.418099       11856
 kinhamil                               44.654907     2741256
 racc0mu_acc                            41.100826     1399086
 w1_copy                                40.339731     8223768
 overl                                  39.617754     4748720
 fftbrc_mpi                             38.177915       12455
 fftbas_plan_mpi                        38.170634       12455
 fftext_mpi                             32.091305     2741256
 rpromu_acc                             31.419656     1033006
 w1_projall                             30.914976     1026350
 m_bcast_z                              30.778701     1407150
 setup_precond                          26.746823      733824
 dfftw_execute                          23.608374        9132
 ggemm                                  23.552843     1771822
 m_bcast_d                              23.254023     2798901
 overl_mu                               21.656924     1399086
 pw_charge                              15.698338      486640
 vhamil                                 12.643990     2741256
 force_and_stress                       12.023002           1
 depsum                                 12.006180         361
 init_acc                               11.554687           1
 apply_precond                          11.193337     2007432
 map_backward                            7.656511       13166
 map_forward                             6.258807       11744
 m_alltoallv_z                           5.645209       13921
 map_scatter                             4.788252       13921
 rpro_isp                                3.735379         208
 brmix                                   3.557350         360
 strnlr                                  3.466789           1
 potlok                                  3.386258         362
 map_gather                              3.328981       13921
 broyd                                   2.471148         360
 acc_init_cublas                         2.439304           1
 fornlr                                  1.155028           1
 fft_gq                                  0.856715         361
 fordep                                  0.852694           1
 acc_init_cusolver                       0.787185           1
 brget                                   0.526712       81705
 lincom                                  0.471700       11680
 sphpro_fast                             0.462299           2
 orthch                                  0.459061           1
 setg0                                   0.404887         362
 proall                                  0.321760           1
 truncate_high_frequency_w1              0.271902     3475080
 rspher_all                              0.269483          14
 acc_cufft_makeplans                     0.179410           3
 acc_cufft_makeplan                      0.179398          19
 brsav                                   0.145223       23462
 pothar                                  0.033587         363
 choleski                                0.020216          32
 stufak                                  0.013936           1
 brpre                                   0.011739         720
 inisym                                  0.004509           1
 strelo                                  0.002408           1
 forhar                                  0.002372           2
 strkin                                  0.002306           1
 set_dd_magatom                          0.001619         362
 strehar                                 0.001583           1
 vectorpot                               0.001525         361
 fewald                                  0.001327           1
 forloc                                  0.001236           1
 chggra                                  0.000848           1
 rsp                                     0.000829           1
 brgrid                                  0.000229           1
 rcp                                     0.000038           1
 potlok_metagga                          0.000037         361
 posmap                                  0.000028           2
 crpa_reader                             0.000027           1
 rotate_active_occupied_orbital          0.000001           1
 redis_pw_over_bands                     0.000001           1

Profiling took  17.143493  8.173642  0.003342  0.003237 seconds
Profiling took  10.748151 seconds