 vasp.6.3.2 27Jun22 (build Jul  3 2023 11:46:21) complex
 executed on    LinuxNV_CrayMPICH date 2024.04.22  00:15:38

 INCAR:
   ADDGRID = True
   ALGO = Normal
   EDIFF = 0.0019
   ENCUT = 520.0
   IBRION = -1
   ICHARG = 0
   ISIF = 3
   ISMEAR = -5
   ISPIN = 2
   ISTART = 1
   KPOINT_BSE = -1 0 0 0
   LAECHG = True
   LASPH = True
   LCHARG = True
   LELF = True
   LORBIT = 11
   LREAL = Auto
   LVHAR = True
   LWAVE = False
   MAGMOM = 4*7.0 34*5.0
   NELM = 1000
   NSW = 0
   PREC = accurate
   SIGMA = 0.05

 POTCAR:    PAW_PBE Gd 23Dec2003
 POTCAR:    PAW_PBE Ni_pv 06Sep2000
 POTCAR:    PAW_PBE Gd 23Dec2003
   VRHFIN =Gd : [core=Xe4]

   TITEL  = PAW_PBE Gd 23Dec2003
   POMASS =  157.250; ZVAL   =   18.000    mass and valenz
   ENMAX  =  256.472; ENMIN  =  192.354 eV

   TITEL  = PAW_PBE Ni_pv 06Sep2000
   POMASS =   58.690; ZVAL   =   16.000    mass and valenz
   ENMAX  =  367.986; ENMIN  =  275.989 eV

 Optimization of the real space projectors (new method)

 maximal supplied QI-value         = 13.42
 optimisation between [QCUT,QGAM] = [ 11.67, 23.35] = [ 38.16,152.62] Ry
 Optimized for a Real-space Cutoff    1.63 Angstroem

   l    n(q)    QCUT    max X(q) W(low)/X(q) W(high)/X(q)  e(spline)
   0     11    11.673    10.501    0.14E-04    0.17E-05    0.21E-07
   0     11    11.673     9.148    0.21E-04    0.32E-05    0.45E-07
   1     11    11.673     4.035    0.33E-05    0.11E-04    0.84E-07
   1     11    11.673     4.388    0.11E-04    0.47E-04    0.34E-06
   2     10    11.673    20.656    0.12E-04    0.28E-04    0.54E-06
   2     10    11.673    12.651    0.11E-04    0.26E-04    0.51E-06
   3     10    11.673    61.921    0.19E-03    0.22E-03    0.23E-06
   3     10    11.673    48.328    0.20E-03    0.23E-03    0.23E-06
 Optimization of the real space projectors (new method)

 maximal supplied QI-value         = 18.90
 optimisation between [QCUT,QGAM] = [ 11.53, 23.24] = [ 37.21,151.29] Ry
 Optimized for a Real-space Cutoff    1.36 Angstroem

   l    n(q)    QCUT    max X(q) W(low)/X(q) W(high)/X(q)  e(spline)
   1      9    11.527     2.836    0.16E-04    0.30E-04    0.95E-07
   1      9    11.527     4.023    0.73E-04    0.81E-04    0.21E-06
   2      9    11.527    73.368    0.15E-03    0.29E-03    0.28E-06
   2      9    11.527    69.010    0.15E-03    0.29E-03    0.29E-06
   0      9    11.527    54.797    0.43E-04    0.28E-04    0.85E-07
   0      9    11.527    24.266    0.33E-04    0.24E-04    0.75E-07
  PAW_PBE Gd 23Dec2003                  :
  PAW_PBE Ni_pv 06Sep2000               :

 POSCAR: Gd4 Ni34
  positions in direct lattice
 exchange correlation table for  LEXCH =        8
   RHO(1)=    0.500       N(1)  =     2000
   RHO(2)=  100.500       N(2)  =     4000

 VTST: version 4.2, (08/11/21)

 CHAIN: initializing optimizer

 OPT: Using VASP Dynamics algorithm
 CHAIN: Read ICHAIN             0

 POSCAR: Gd4 Ni34
  positions in direct lattice

 ion  position               nearest neighbor table
   1  0.000  0.000  0.250-   5 2.92  18 2.92  30 2.92  34 2.92  25 2.92  35 2.92  28 3.01  31 3.01
                             7 3.01  32 3.01   6 3.01  20 3.01
   2  0.000  0.000  0.750-  11 2.92  23 2.92  21 2.92  13 2.92  12 2.92  29 2.92  17 3.01  10 3.01
                            14 3.01  24 3.01  26 3.01  16 3.01
   3  0.667  0.333  0.250-   9 2.82  33 2.82  30 2.98  34 2.98  18 2.98   5 2.98  25 2.98  35 2.98
                            31 3.03  28 3.03  32 3.03   7 3.03  20 3.03   6 3.03
   4  0.333  0.667  0.750-  15 2.82  22 2.82  21 2.98  13 2.98  11 2.98  23 2.98  12 2.98  29 2.98
                            10 3.03  17 3.03  16 3.03  24 3.03  26 3.03  14 3.03
   5  0.044  0.672  0.250-  18 2.35  19 2.38  27 2.38  17 2.48  10 2.48  34 2.49   7 2.52  20 2.52
                             1 2.92   3 2.98
   6  0.332  0.166  0.021-  14 2.40  17 2.40   8 2.40  36 2.40  21 2.48  12 2.48  35 2.52  18 2.52
                             1 3.01   3 3.03
   7  0.834  0.668  0.021-  24 2.40  17 2.40  27 2.40  36 2.40  13 2.48  29 2.48  25 2.52   5 2.52
                             1 3.01   3 3.03
   8  0.500  0.000  0.000-  21 2.38  30 2.38  11 2.38  18 2.38  24 2.40   6 2.40  17 2.40  31 2.40
                            22 2.53  33 2.53
   9  0.667  0.333  0.602-  33 2.37  19 2.53  37 2.53  38 2.53   3 2.82
  10  0.166  0.834  0.521-  20 2.40  32 2.40  19 2.40  37 2.40   5 2.48  18 2.48  13 2.52  21 2.52
                             2 3.01   4 3.03
  11  0.672  0.044  0.750-  23 2.35   8 2.38  37 2.38  31 2.48  28 2.48  21 2.49  24 2.52  16 2.52
                             2 2.92   4 2.98
  12  0.372  0.328  0.750-  21 2.35  36 2.38  38 2.38   6 2.48  32 2.48  29 2.49  14 2.52  26 2.52
                             2 2.92   4 2.98
  13  0.956  0.628  0.750-  29 2.35  27 2.38  19 2.38   7 2.48  20 2.48  23 2.49  17 2.52  10 2.52
                             2 2.92   4 2.98
  14  0.166  0.332  0.979-   6 2.40  31 2.40  27 2.40  36 2.40  34 2.48  35 2.48  12 2.52  23 2.52
                             2 3.01   4 3.03
  15  0.333  0.667  0.398-  22 2.37  19 2.53  37 2.53  38 2.53   4 2.82
  16  0.668  0.834  0.521-  20 2.40  28 2.40  37 2.40  38 2.40  30 2.48  25 2.48  29 2.52  11 2.52
                             2 3.01   4 3.03
  17  0.166  0.834  0.979-   6 2.40   7 2.40   8 2.40  27 2.40  18 2.48   5 2.48  21 2.52  13 2.52
                             2 3.01   4 3.03
  18  0.328  0.956  0.250-   5 2.35   8 2.38  37 2.38  17 2.48  10 2.48  30 2.49  32 2.52   6 2.52
                             1 2.92   3 2.98
  19  0.000  0.500  0.500-  13 2.38  34 2.38  23 2.38   5 2.38  26 2.40  20 2.40  28 2.40  10 2.40
                            15 2.53   9 2.53
  20  0.834  0.668  0.479-  16 2.40  10 2.40  19 2.40  38 2.40  13 2.48  29 2.48  25 2.52   5 2.52
                             1 3.01   3 3.03
  21  0.372  0.044  0.750-  12 2.35   8 2.38  37 2.38  32 2.48   6 2.48  11 2.49  10 2.52  17 2.52
                             2 2.92   4 2.98
  22  0.333  0.667  0.102-  15 2.37   8 2.53  27 2.53  36 2.53   4 2.82
  23  0.956  0.328  0.750-  11 2.35  19 2.38  27 2.38  28 2.48  31 2.48  13 2.49  26 2.52  14 2.52
                             2 2.92   4 2.98
  24  0.668  0.834  0.979-   7 2.40  31 2.40   8 2.40  36 2.40  30 2.48  25 2.48  29 2.52  11 2.52
                             2 3.01   4 3.03
  25  0.628  0.672  0.250-  30 2.35  36 2.38  38 2.38  24 2.48  16 2.48  35 2.49  20 2.52   7 2.52
                             1 2.92   3 2.98
  26  0.166  0.332  0.521-  32 2.40  28 2.40  19 2.40  38 2.40  34 2.48  35 2.48  12 2.52  23 2.52
                             2 3.01   4 3.03
  27  0.000  0.500  0.000-  13 2.38  34 2.38  23 2.38   5 2.38   7 2.40  14 2.40  31 2.40  17 2.40
                            33 2.53  22 2.53
  28  0.834  0.166  0.479-  16 2.40  26 2.40  19 2.40  37 2.40  11 2.48  23 2.48  34 2.52  30 2.52
                             1 3.01   3 3.03
  29  0.672  0.628  0.750-  13 2.35  36 2.38  38 2.38   7 2.48  20 2.48  12 2.49  16 2.52  24 2.52
                             2 2.92   4 2.98
  30  0.628  0.956  0.250-  25 2.35   8 2.38  37 2.38  16 2.48  24 2.48  18 2.49  31 2.52  28 2.52
                             1 2.92   3 2.98
  31  0.834  0.166  0.021-  14 2.40  24 2.40   8 2.40  27 2.40  11 2.48  23 2.48  30 2.52  34 2.52
                             1 3.01   3 3.03
  32  0.332  0.166  0.479-  26 2.40  10 2.40  37 2.40  38 2.40  21 2.48  12 2.48  35 2.52  18 2.52
                             1 3.01   3 3.03
  33  0.667  0.333  0.898-   9 2.37   8 2.53  27 2.53  36 2.53   3 2.82
  34  0.044  0.372  0.250-  35 2.35  27 2.38  19 2.38  14 2.48  26 2.48   5 2.49  31 2.52  28 2.52
                             1 2.92   3 2.98
  35  0.328  0.372  0.250-  34 2.35  36 2.38  38 2.38  26 2.48  14 2.48  25 2.49  32 2.52   6 2.52
                             1 2.92   3 2.98
  36  0.500  0.500  0.000-  12 2.38  25 2.38  29 2.38  35 2.38  24 2.40   7 2.40   6 2.40  14 2.40
                            33 2.53  22 2.53
  37  0.500  0.000  0.500-  21 2.38  30 2.38  11 2.38  18 2.38  16 2.40  32 2.40  10 2.40  28 2.40
                             9 2.53  15 2.53
  38  0.500  0.500  0.500-  12 2.38  25 2.38  29 2.38  35 2.38  26 2.40  20 2.40  32 2.40  16 2.40
                            15 2.53   9 2.53

  LATTYP: Found a hexagonal cell.
 ALAT       =     8.2900030807
 C/A-ratio  =     0.9663462030

  Lattice vectors:

 A1 = (   4.1450020000,  -7.1793530000,   0.0000000000)
 A2 = (   4.1450020000,   7.1793530000,   0.0000000000)
 A3 = (   0.0000000000,   0.0000000000,   8.0110130000)

Analysis of symmetry for initial positions (statically):
 Subroutine PRICEL returns:
 Original cell was already a primitive cell.

 Routine SETGRP: Setting up the symmetry group for a
 hexagonal supercell.

 Subroutine GETGRP returns: Found 24 space group operations
 (whereof 12 operations were pure point group operations)
 out of a pool of 24 trial point group operations.

The static configuration has the point symmetry D_3d.
 The point group associated with its full space group is D_6h.

Analysis of symmetry for dynamics (positions and initial velocities):
 Subroutine PRICEL returns:
 Original cell was already a primitive cell.

[...]

The dynamic configuration has the point symmetry D_3d.
 The point group associated with its full space group is D_6h.

Analysis of structural, dynamic, and magnetic symmetry:
 Subroutine PRICEL returns:
 Original cell was already a primitive cell.

 Routine SETGRP: Setting up the symmetry group for a
 hexagonal supercell.

 Subroutine GETGRP returns: Found 24 space group operations
 (whereof 12 operations were pure point group operations)
 out of a pool of 24 trial point group operations.

The overall configuration has the point symmetry D_3d.
 The point group associated with its full space group is D_6h.

 Subroutine INISYM returns: Found 24 space group operations
 (whereof 12 operations are pure point group operations),
 and found     1 'primitive' translations

                                     Primitive cell

  volume of cell :     476.7904

  direct lattice vectors                    reciprocal lattice vectors
     4.145002000 -7.179353000  0.000000000     0.120627204 -0.069644159  0.000000000
     4.145002000  7.179353000  0.000000000     0.120627204  0.069644159 -0.000000000
     0.000000000  0.000000000  8.011013000    -0.000000000  0.000000000  0.124828158

  length of vectors
     8.290003081  8.290003081  8.011013000     0.139288302  0.139288302  0.124828158

  position of ions in fractional coordinates (direct lattice)
     0.000000000  0.000000000  0.250000000
     0.000000000  0.000000000  0.750000000
     0.666667000  0.333333000  0.250000000
     0.333333000  0.666667000  0.750000000
     0.043889000  0.672040000  0.250000000
     0.331734000  0.165867000  0.020524000
     0.834133000  0.668266000  0.020524000
     0.500000000  1.000000000  0.000000000
     0.666667000  0.333333000  0.602285000
     0.165867000  0.834133000  0.520524000
     0.672040000  0.043889000  0.750000000
     0.371849000  0.327960000  0.750000000
     0.956111000  0.628151000  0.750000000
     0.165867000  0.331734000  0.979476000
[...]
  290                map_forward                           0.000245                    4   7
  291                  map_gather                            0.000048                  2   8
  292                  m_alltoallv_z                         0.000028                  2   8
  293                  map_scatter                           0.000135                  2   8
  294                map_backward                          0.000114                    2   7
  295                  map_gather                            0.000027                  1   8
  296                  m_alltoallv_z                         0.000012                  1   8
  297                  map_scatter                           0.000058                  1   8
  298          m_sumb_d                              0.000009                          2   4
  299          pothar                                0.000088                          1   4
  300            m_sumb_d                              0.000009                        1   5
  301        brmix                                 0.008633                            1   3
  302          m_sumb_d                              0.000145                          6   4
  303          brpre                                 0.000042                          2   4
  304          setg0                                 0.001734                          1   4
  305          broyd                                 0.004718                          1   4
  306            m_sumb_d                              0.000378                       32   5
  307            brsav                                 0.000274                       31   5
  308            brget                                 0.001196                      134   5
  309        m_bcast_d                             0.000031                            2   3
  310      potlok                                0.054844                              2   2
  311        fft3d_mpi                             0.037582                           36   3
  312          fftbrc_mpi                            0.029372                         36   4
  313            fftbas_plan_mpi                       0.029350                       36   5
  314              map_forward                           0.008561                     40   6
  315                map_gather                            0.002618                   24   7
  316                m_alltoallv_z                         0.003250                   24   7
  317                map_scatter                           0.002483                   24   7
  318              map_backward                          0.007582                     32   6
  319                map_gather                            0.002485                   16   7
  320                m_alltoallv_z                         0.002757                   16   7
  321                map_scatter                           0.002132                   16   7
  322              dfftw_execute                         0.011914                     30   6
  323        m_sumb_d                              0.000031                            5   3
  324        pothar                                0.002389                            2   3
  325          m_sumb_d                              0.000153                          2   4
  326        m_bcast_d                             0.004034                            4   3
  327      potlok_metagga                        0.000000                              1   2
  328      set_dd_magatom                        0.000005                              1   2
  329      set_dd_paw                            5.155886                              1   2
  330        m_sumb_d                              0.471592                            7   3
  331      augmentation_charge                   0.251625                              1   2
  332        fft3d_mpi                             0.101178                            2   3
  333          fftbrc_mpi                            0.091532                          2   4
  334            fftbas_plan_mpi                       0.091530                        2   5
  335              dfftw_execute                         0.061337                      6   6
  336              map_backward                          0.030016                      4   6
  337                map_gather                            0.010774                    2   7
  338                m_alltoallv_z                         0.009815                    2   7
  339                map_scatter                           0.009415                    2   7
  340      fftwav_mpi                            7.006564                           4212   2
  341        fftwav                                7.001362                         4212   3
  342          fft3d                                 6.474172                       4212   4
  343      densta                                3.890913                              1   2

 Flat profile

 set_dd_paw                            131.360137          28
 eddav                                  44.187470          30
 raccmu_                                38.277757       75649
 lapack                                 33.399969       75649
 m_sumb_d                               32.216827      230353
 total_time                             21.351376           1
 redis_pw                               18.394879      407505
 fft3d                                   9.829505      453517
 init_acc                                9.524549           1
 m_alltoall_d                            7.735790     1096529
 setdij_                                 7.535960          54
 densta                                  5.750106          31
 dfftw_execute                           5.015654        1104
 eccp                                    4.637823       42120
 augmentation_charge                     4.125508          27
 orth1                                   3.844962      227127
 fftwav                                  3.539259      303890
 redis_proj                              3.520769      515024
 phaser                                  3.325165         438
 rpromu_acc                              3.243937       59089
 acc_init_cublas                         2.455077           1
 hamiltmu                                2.384380       75649
 m_bcast_z                               2.229514       81265
 racc0mu_acc                             2.217676       75649
 w1_copy                                 2.189646      448881
 overl                                   2.127123      257146
 setup_precond                           1.529858       42120
 soft_charge                             1.405652          26
 m_bcast_d                               1.270595      151359
 ggemm                                   1.248953       96889
 m_alltoallv_z                           1.225365        1223
 fft3d_mpi                               1.193313      150722
 overl_mu                                1.180789       75649
 rpro_isp                                0.957397          78
 pw_charge                               0.843552       24292
 map_scatter                             0.817470        1223
 acc_init_cusolver                       0.785051           1
 map_gather                              0.783729        1223
 vhamil                                  0.692891      149627
 kinhamil                                0.674635      149627
 newband                                 0.650309       76009
 fftext_mpi                              0.637095      149627
 depsum                                  0.604588          26
 apply_precond                           0.582905      107507
 rspher_all                              0.517210          14
 sphpro_fast                             0.432664           2
 set_charge                              0.427459          26
 fftwav_mpi                              0.414936      303890
 potlok                                  0.176669          28
 acc_cufft_makeplan                      0.144420          19
 elmin                                   0.125031           1
 proall                                  0.103555           1
 brmix                                   0.080581          26
 fftbas_plan_mpi                         0.064448        1095
 w1_projall                              0.060045       54409
 orthch                                  0.049341           1
 setg0                                   0.045990          28
 force_and_stress                        0.032732           1
 broyd                                   0.031470          26
 stufak                                  0.028813           1
 brget                                   0.016719        1853
 lincom                                  0.015921         372
 truncate_high_frequency_w1              0.014930      191747
 choleski                                0.014822          12
 map_forward                             0.006511        1056
 map_backward                            0.006488        1134
 strnlr                                  0.006202           1
 inisym                                  0.005270           1
 pothar                                  0.004534          29
 brsav                                   0.004172         460
 fft_gq                                  0.003568          26
 strelo                                  0.002925           1
 forhar                                  0.002536           2
 strehar                                 0.002410           1
 strkin                                  0.002181           1
 fornlr                                  0.002089           1
 rsp                                     0.001992           1
 forloc                                  0.001340           1
 brpre                                   0.001157          52
 fftbrc_mpi                              0.000735        1095
 fewald                                  0.000364           1
 posmap                                  0.000334           2
 brgrid                                  0.000312           1
 chggra                                  0.000262           1
 fordep                                  0.000220           1
 set_dd_magatom                          0.000120          28
 vectorpot                               0.000112          27
 rcp                                     0.000067           1
 crpa_reader                             0.000027           1
 acc_cufft_makeplans                     0.000011           3
 potlok_metagga                          0.000001          27
 rotate_active_occupied_orbital          0.000000           1
 redis_pw_over_bands                     0.000000           1
  summed up times     424.3586580753326

 Accumulative profile

 total_time                            424.358658           1
 elmin                                 354.801999           1
 eddav                                 201.024444          30
 set_dd_paw                            144.519800          28
 hamiltmu                               47.175296       75649
 raccmu_                                41.676221       75649
 lapack                                 33.399969       75649
 m_sumb_d                               32.216827      230353
 redis_pw                               22.156747      407505
 force_and_stress                       15.876077           1
 setdij_                                12.723706          54
 fftwav_mpi                             12.719785      303890
 fftwav                                 12.304849      303890
 set_charge                             11.290025          26
 fft3d_mpi                              10.177628      150722
 newband                                10.176971       76009
 fft3d                                   9.829505      453517
 init_acc                                9.524549           1
 fftbrc_mpi                              7.920400        1095
 fftbas_plan_mpi                         7.919665        1095
 m_alltoall_d                            7.735790     1096529
 redis_proj                              7.494691      515024
 augmentation_charge                     6.917769          27
 densta                                  5.750106          31
 dfftw_execute                           5.015654        1104
 eccp                                    4.637823       42120
 orth1                                   3.844962      227127
 soft_charge                             3.507142          26
 phaser                                  3.325165         438
 rpromu_acc                              3.243937       59089
 rpro_isp                                3.212478          78
 strnlr                                  3.074994           1
 acc_init_cublas                         2.455077           1
 kinhamil                                2.421804      149627
 m_bcast_z                               2.229514       81265
 racc0mu_acc                             2.217676       75649
 w1_copy                                 2.189646      448881
 overl                                   2.127123      257146
 fftext_mpi                              1.747169      149627
 w1_projall                              1.639831       54409
 setup_precond                           1.529858       42120
 map_forward                             1.525505        1056
 fordep                                  1.418724           1
 map_backward                            1.314058        1134
 m_bcast_d                               1.270595      151359
 ggemm                                   1.248953       96889
 m_alltoallv_z                           1.225365        1223
 overl_mu                                1.180789       75649
 fornlr                                  1.021052           1
 pw_charge                               0.843552       24292
 map_scatter                             0.817470        1223
 acc_init_cusolver                       0.785051           1
 map_gather                              0.783729        1223
 vhamil                                  0.692891      149627
 depsum                                  0.615514          26
 apply_precond                           0.582905      107507
 rspher_all                              0.517210          14
 potlok                                  0.485604          28
 orthch                                  0.455702           1
 sphpro_fast                             0.450935           2
 fft_gq                                  0.361190          26
 proall                                  0.301718           1
 brmix                                   0.191229          26
 acc_cufft_makeplans                     0.144431           3
 acc_cufft_makeplan                      0.144420          19
 broyd                                   0.060025          26
 setg0                                   0.045990          28
 stufak                                  0.028813           1
 brget                                   0.016719        1853
 lincom                                  0.015921         372
 truncate_high_frequency_w1              0.014930      191747
 choleski                                0.014822          12
 inisym                                  0.005604           1
 pothar                                  0.004936          29
 brsav                                   0.004172         460
 strelo                                  0.003012           1
 fewald                                  0.002674           1
 forhar                                  0.002609           2
 strehar                                 0.002414           1
 forloc                                  0.002344           1
 strkin                                  0.002186           1
 rsp                                     0.001992           1
 brpre                                   0.001157          52
 chggra                                  0.000916           1
 posmap                                  0.000334           2
 brgrid                                  0.000312           1
 set_dd_magatom                          0.000120          28
 vectorpot                               0.000112          27
 rcp                                     0.000067           1
 crpa_reader                             0.000027           1
 potlok_metagga                          0.000001          27
 rotate_active_occupied_orbital          0.000000           1
 redis_pw_over_bands                     0.000000           1

Profiling took   0.953428  0.466380  0.003205  0.003100 seconds
Profiling took   0.612243 seconds