 vasp.6.3.2 27Jun22 (build Jul  3 2023 11:46:21) complex
 executed on    LinuxNV_CrayMPICH date 2024.04.22  00:15:44

 INCAR:
   ALGO = Normal
   EDIFF = 1e-05
   ENCUT = 520.0
   IBRION = -1
   ISIF = 3
   ISMEAR = -5
   ISPIN = 2
   LAECHG = True
   LASPH = True
   LCHARG = True
   LORBIT = 11
   LREAL = Auto
   LVHAR = True
   LWAVE = False
   MAGMOM = 1*0.6 1*7.0 2*0.6
   NELM = 1000
   NSW = 0
   PREC = Accurate
   SIGMA = 0.05

 POTCAR:    PAW_PBE Yb_2 06Sep2000
 POTCAR:    PAW_PBE Gd 23Dec2003
 POTCAR:    PAW_PBE Ag 02Apr2005
 POTCAR:    PAW_PBE Yb_2 06Sep2000
   VRHFIN =Yb : [core=Xe4]

   TITEL  = PAW_PBE Yb_2 06Sep2000
   POMASS =  173.040; ZVAL   =    8.000    mass and valenz
   ENMAX  =  112.578; ENMIN  =   84.433 eV

   TITEL  = PAW_PBE Gd 23Dec2003
   POMASS =  157.250; ZVAL   =   18.000    mass and valenz
   ENMAX  =  256.472; ENMIN  =  192.354 eV

   TITEL  = PAW_PBE Ag 02Apr2005
   POMASS =  107.868; ZVAL   =   11.000    mass and valenz
   ENMAX  =  249.844; ENMIN  =  187.383 eV

 Optimization of the real space projectors (new method)

 maximal supplied QI-value         = 12.09
 optimisation between [QCUT,QGAM] = [ 11.61, 23.34] = [ 37.75,152.57] Ry
 Optimized for a Real-space Cutoff    1.89 Angstroem

   l    n(q)    QCUT    max X(q) W(low)/X(q) W(high)/X(q)  e(spline)
   0     13    11.610    37.655    0.45E-04    0.19E-04    0.34E-06
   0     13    11.610    17.791    0.29E-04    0.15E-04    0.27E-06
   1     13    11.610    36.143    0.15E-04    0.51E-06    0.99E-06
   1     13    11.610    36.445    0.16E-04    0.54E-06    0.10E-05
   2     12    11.610    14.662    0.21E-03    0.42E-03    0.57E-05
   2     12    11.610    15.811    0.17E-03    0.35E-03    0.47E-05
 Optimization of the real space projectors (new method)

[...]

   l    n(q)    QCUT    max X(q) W(low)/X(q) W(high)/X(q)  e(spline)
   0     11    11.673    10.501    0.14E-04    0.17E-05    0.21E-07
   0     11    11.673     9.148    0.21E-04    0.32E-05    0.45E-07
   1     11    11.673     4.035    0.33E-05    0.11E-04    0.84E-07
   1     11    11.673     4.388    0.11E-04    0.47E-04    0.34E-06
   2     10    11.673    20.656    0.12E-04    0.28E-04    0.54E-06
   2     10    11.673    12.651    0.11E-04    0.26E-04    0.51E-06
   3     10    11.673    61.921    0.19E-03    0.22E-03    0.23E-06
   3     10    11.673    48.328    0.20E-03    0.23E-03    0.23E-06
 Optimization of the real space projectors (new method)

 maximal supplied QI-value         = 15.12
 optimisation between [QCUT,QGAM] = [ 11.64, 23.28] = [ 37.95,151.78] Ry
 Optimized for a Real-space Cutoff    1.45 Angstroem

   l    n(q)    QCUT    max X(q) W(low)/X(q) W(high)/X(q)  e(spline)
   2      9    11.641    53.897    0.22E-03    0.42E-04    0.28E-06
   2      9    11.641    52.416    0.23E-03    0.44E-04    0.29E-06
   0     10    11.641   122.045    0.51E-04    0.25E-04    0.16E-06
   0     10    11.641    73.629    0.49E-04    0.24E-04    0.16E-06
   1     10    11.641    15.255    0.99E-04    0.55E-04    0.11E-06
   1     10    11.641     9.562    0.81E-04    0.47E-04    0.95E-07
  PAW_PBE Yb_2 06Sep2000                :
  PAW_PBE Gd 23Dec2003                  :
  PAW_PBE Ag 02Apr2005                  :

 POSCAR: Yb1 Gd1 Ag2
  positions in direct lattice
 exchange correlation table for  LEXCH =        8
   RHO(1)=    0.500       N(1)  =     2000
   RHO(2)=  100.500       N(2)  =     4000

 VTST: version 4.2, (08/11/21)

 CHAIN: initializing optimizer

 OPT: Using VASP Dynamics algorithm
 CHAIN: Read ICHAIN             0

 POSCAR: Yb1 Gd1 Ag2
  positions in direct lattice

 ion  position               nearest neighbor table
   1  0.000  0.000  0.000-   3 3.17   3 3.17   3 3.17   3 3.17   4 3.17   4 3.17   4 3.17   4 3.17
                             2 3.66   2 3.66   2 3.66   2 3.66   2 3.66   2 3.66
   2  0.500  0.500  0.500-   4 3.17   4 3.17   4 3.17   3 3.17   4 3.17   3 3.17   3 3.17   3 3.17
                             1 3.66   1 3.66   1 3.66   1 3.66   1 3.66   1 3.66
   3  0.750  0.750  0.750-   2 3.17   2 3.17   2 3.17   1 3.17   2 3.17   1 3.17   1 3.17   1 3.17

   4  0.250  0.250  0.250-   1 3.17   1 3.17   1 3.17   1 3.17   2 3.17   2 3.17   2 3.17   2 3.17

  LATTYP: Found a face centered cubic cell.
 ALAT       =     7.3234580000

  Lattice vectors:

 A1 = (   0.0000000000,   3.6617290000,   3.6617290000)
 A2 = (   3.6617290000,   0.0000000000,   3.6617290000)
 A3 = (   3.6617290000,   3.6617290000,   0.0000000000)

Analysis of symmetry for initial positions (statically):
 Subroutine PRICEL returns:
 Original cell was already a primitive cell.

 Routine SETGRP: Setting up the symmetry group for a
 face centered cubic supercell.

 Subroutine GETGRP returns: Found 48 space group operations
 (whereof 48 operations were pure point group operations)
 out of a pool of 48 trial point group operations.

The static configuration has the point symmetry O_h .

Analysis of symmetry for dynamics (positions and initial velocities):
 Subroutine PRICEL returns:
 Original cell was already a primitive cell.

[...]

The dynamic configuration has the point symmetry O_h .

Analysis of structural, dynamic, and magnetic symmetry:
 Subroutine PRICEL returns:
 Original cell was already a primitive cell.

 Routine SETGRP: Setting up the symmetry group for a
 face centered cubic supercell.

 Subroutine GETGRP returns: Found 48 space group operations
 (whereof 48 operations were pure point group operations)
 out of a pool of 48 trial point group operations.

The overall configuration has the point symmetry O_h .

 Subroutine INISYM returns: Found 48 space group operations
 (whereof 48 operations are pure point group operations),
 and found     1 'primitive' translations

                                     Primitive cell

  volume of cell :      98.1948

  direct lattice vectors                    reciprocal lattice vectors
     0.000000000  3.661729000  3.661729000    -0.136547516  0.136547516  0.136547516
     3.661729000  0.000000000  3.661729000     0.136547516 -0.136547516  0.136547516
     3.661729000  3.661729000  0.000000000     0.136547516  0.136547516 -0.136547516

  length of vectors
     5.178466814  5.178466814  5.178466814     0.236507236  0.236507236  0.236507236

  position of ions in fractional coordinates (direct lattice)
     0.000000000  0.000000000  0.000000000
     0.500000000  0.500000000  0.500000000
     0.750000000  0.750000000  0.750000000
     0.250000000  0.250000000  0.250000000

  ion indices of the primitive-cell ions
   primitive index   ion index
                 1           1
                 2           2
                 3           3
                 4           4

 KPOINTS: Kpoints from vasprun.xml

Automatic generation of k-mesh.
 Grid dimensions read from file:
 generate k-points for:    6    6    6

 Generating k-lattice:

  Cartesian coordinates                     Fractional coordinates (reciprocal lattice)
    -0.022757919  0.022757919  0.022757919     0.166666667 -0.000000000 -0.000000000
     0.022757919 -0.022757919  0.022757919    -0.000000000  0.166666667  0.000000000
     0.022757919  0.022757919 -0.022757919     0.000000000  0.000000000  0.166666667

  Length of vectors
     0.039417873  0.039417873  0.039417873

  Shift w.r.t. Gamma in fractional coordinates (k-lattice)
     0.500000000  0.500000000  0.500000000

 TETIRR: Found    403 inequivalent tetrahedra from     5184

 Subroutine IBZKPT returns following result:

 Found     28 irreducible k-points:

 Following reciprocal coordinates:
            Coordinates               Weight
  0.083333  0.083333  0.083333      8.000000
  0.250000  0.083333  0.083333     24.000000
  0.416667  0.083333  0.083333     24.000000
 -0.416667  0.083333  0.083333     24.000000
 -0.250000  0.083333  0.083333     24.000000
 -0.083333  0.083333  0.083333     24.000000
  0.250000  0.250000  0.083333     24.000000
  0.416667  0.250000  0.083333     48.000000
 -0.416667  0.250000  0.083333     48.000000
 -0.250000  0.250000  0.083333     48.000000
 -0.083333  0.250000  0.083333     48.000000
  0.416667  0.416667  0.083333     24.000000
 -0.416667  0.416667  0.083333     48.000000
 -0.250000  0.416667  0.083333     48.000000
 -0.083333  0.416667  0.083333     48.000000
 -0.416667 -0.416667  0.083333     24.000000
 -0.250000 -0.416667  0.083333     48.000000
 -0.250000 -0.250000  0.083333     24.000000
  0.250000  0.250000  0.250000      8.000000
  0.416667  0.250000  0.250000     24.000000
 -0.416667  0.250000  0.250000     24.000000
 -0.250000  0.250000  0.250000     24.000000
  0.416667  0.416667  0.250000     24.000000
 -0.416667  0.416667  0.250000     48.000000
 -0.250000  0.416667  0.250000     48.000000
 -0.416667 -0.416667  0.250000     24.000000
  0.416667  0.416667  0.416667      8.000000
 -0.416667  0.416667  0.416667     24.000000

 Following cartesian coordinates:
            Coordinates               Weight
  0.011379  0.011379  0.011379      8.000000
 -0.011379  0.034137  0.034137     24.000000
 -0.034137  0.056895  0.056895     24.000000
  0.079653 -0.056895 -0.056895     24.000000
  0.056895 -0.034137 -0.034137     24.000000
  0.034137 -0.011379 -0.011379     24.000000
  0.011379  0.011379  0.056895     24.000000
 -0.011379  0.034137  0.079653     48.000000
  0.102411 -0.079653 -0.034137     48.000000
  0.079653 -0.056895 -0.011379     48.000000
  0.056895 -0.034137  0.011379     48.000000
  0.011379  0.011379  0.102411     24.000000
  0.125169 -0.102411 -0.011379     48.000000
  0.102411 -0.079653  0.011379     48.000000
  0.079653 -0.056895  0.034137     48.000000
  0.011379  0.011379 -0.125169     24.000000
 -0.011379  0.034137 -0.102411     48.000000
  0.011379  0.011379 -0.079653     24.000000
  0.034137  0.034137  0.034137      8.000000
  0.011379  0.056895  0.056895     24.000000
  0.125169 -0.056895 -0.056895     24.000000
  0.102411 -0.034137 -0.034137     24.000000
  0.034137  0.034137  0.079653     24.000000
  0.147926 -0.079653 -0.034137     48.000000
  0.125169 -0.056895 -0.011379     48.000000
  0.034137  0.034137 -0.147926     24.000000
  0.056895  0.056895  0.056895      8.000000
  0.170684 -0.056895 -0.056895     24.000000

 SYSTEM =  unknown system
 POSCAR =  Yb1 Gd1 Ag2

 Startparameter for this run:
   NWRITE =      2    write-flag & timer
   PREC   = accura    normal or accurate (medium, high low for compatibility)
   ISTART =      0    job   : 0-new  1-cont  2-samecut
   ICHARG =      2    charge: 1-file 2-atom 10-const
   ISPIN  =      2    spin polarized calculation?
   LNONCOLLINEAR =      F non collinear calculations
   LSORBIT =      F    spin-orbit coupling
   INIWAV =      1    electr: 0-lowe 1-rand  2-diag
   LASPH  =      T    aspherical Exc in radial PAW
 Electronic Relaxation 1
   ENCUT  =  520.0 eV  38.22 Ry    6.18 a.u.   9.63  9.63  9.63*2*pi/ulx,y,z
   ENINI  =  520.0     initial cutoff
   ENAUG  =  537.2 eV  augmentation charge cutoff
   NELM   =   1000;   NELMIN=  2; NELMDL= -5     # of ELM steps
   EDIFF  = 0.1E-04   stopping-criterion for ELM
   LREAL  =      T    real-space projection
   NLSPLINE    = F    spline interpolate recip. space projectors
   LCOMPAT=      F    compatible to vasp.4.4
[...]
  239          fft3d_mpi                             0.000444                          3   4
  240            fftbrc_mpi                            0.000350                        3   5
  241              fftbas_plan_mpi                       0.000349                      3   6
  242                map_forward                           0.000187                    4   7
  243                  map_gather                            0.000040                  2   8
  244                  m_alltoallv_z                         0.000025                  2   8
  245                  map_scatter                           0.000095                  2   8
  246                map_backward                          0.000080                    2   7
  247                  map_gather                            0.000020                  1   8
  248                  m_alltoallv_z                         0.000010                  1   8
  249                  map_scatter                           0.000036                  1   8
  250          m_sumb_d                              0.000009                          2   4
  251          pothar                                0.000069                          1   4
  252            m_sumb_d                              0.000004                        1   5
  253        brmix                                 0.004572                            1   3
  254          m_sumb_d                              0.000017                          6   4
  255          brpre                                 0.000016                          2   4
  256          setg0                                 0.000460                          1   4
  257          broyd                                 0.003504                          1   4
  258            m_sumb_d                              0.000237                       51   5
  259            brget                                 0.000640                      229   5
  260            brsav                                 0.000136                       49   5
  261        m_bcast_d                             0.000018                            2   3
  262      potlok                                0.018335                              2   2
  263        fft3d_mpi                             0.012177                           36   3
  264          fftbrc_mpi                            0.010243                         36   4
  265            fftbas_plan_mpi                       0.010227                       36   5
  266              map_forward                           0.003042                     40   6
  267                map_gather                            0.001050                   24   7
  268                m_alltoallv_z                         0.000911                   24   7
  269                map_scatter                           0.000906                   24   7
  270              map_backward                          0.002593                     32   6
  271                map_gather                            0.000806                   16   7
  272                m_alltoallv_z                         0.000815                   16   7
  273                map_scatter                           0.000795                   16   7
  274              dfftw_execute                         0.003050                     30   6
  275        m_sumb_d                              0.000026                            5   3
  276        pothar                                0.000681                            2   3
  277          m_sumb_d                              0.000041                          2   4
  278        m_bcast_d                             0.001126                            4   3
  279      potlok_metagga                        0.000000                              1   2
  280      set_dd_magatom                        0.000004                              1   2
  281      set_dd_paw                            0.928306                              1   2
  282        m_sumb_d                              0.466910                            7   3
  283      augmentation_charge                   0.008817                              1   2
  284        fft3d_mpi                             0.001936                            2   3
  285          fftbrc_mpi                            0.001690                          2   4
  286            fftbas_plan_mpi                       0.001689                        2   5
  287              dfftw_execute                         0.000744                      6   6
  288              map_backward                          0.000761                      4   6
  289                map_gather                            0.000297                    2   7
  290                m_alltoallv_z                         0.000258                    2   7
  291                map_scatter                           0.000203                    2   7
  292      densta                                2.602276                              1   2

 Flat profile

 m_sumb_d                               69.044246      285389
 set_dd_paw                             47.202924         102
 lapack                                 41.232657       90464
 eddav                                  40.585240         104
 raccmu_                                36.196164       90464
 redis_pw                               16.461539      507952
 densta                                 12.861625         105
 init_acc                               11.494707           1
 phaser                                 10.058620        6188
 m_alltoall_d                            9.350054     1315328
 total_time                              5.575765           1
 redis_proj                              4.258666      642344
 eccp                                    4.008262       46592
 fft3d                                   3.963599      538690
 fftwav                                  3.405441      357762
 orth1                                   3.002391      271448
 soft_charge                             2.775777         100
 racc0mu_acc                             2.633150       90464
 overl                                   2.629924      315320
 w1_copy                                 2.606168      542784
 acc_init_cublas                         2.419521           1
 rpromu_acc                              2.183374       68624
 hamiltmu                                1.923928       90464
 m_bcast_z                               1.821131       92256
 setup_precond                           1.678508       46592
 m_bcast_d                               1.521390      181137
 overl_mu                                1.371518       90464
 ggemm                                   1.152577      113760
 pw_charge                               0.947058       36674
 vhamil                                  0.827899      180928
 kinhamil                                0.816849      180928
 acc_init_cusolver                       0.787697           1
 fftext_mpi                              0.771270      180928
 apply_precond                           0.730464      134336
 depsum                                  0.723716         100
 newband                                 0.722845       96288
 augmentation_charge                     0.680680         101
 setdij_                                 0.663094         128
 set_charge                              0.507803         100
 fftwav_mpi                              0.455269      357762
 rpro_isp                                0.392248         364
 potlok                                  0.278360         102
 m_alltoallv_z                           0.236510        3483
 fft3d_mpi                               0.190433      184007
 lincom                                  0.174160        5880
 broyd                                   0.167000         100
 elmin                                   0.161409           1
 map_scatter                             0.138717        3483
 acc_cufft_makeplan                      0.125027          19
 rspher_all                              0.115417          14
 fftbas_plan_mpi                         0.114290        3079
 dfftw_execute                           0.105150        1284
 map_gather                              0.101230        3483
 w1_projall                              0.064484       67168
 brmix                                   0.053786         100
 brget                                   0.048979       18681
 setg0                                   0.046084         102
 proall                                  0.042456           1
 sphpro_fast                             0.031978           2
 truncate_high_frequency_w1              0.018482      227520
 map_backward                            0.018267        3274
 map_forward                             0.017664        2884
 brsav                                   0.013084        5106
 orthch                                  0.012076           1
 choleski                                0.008423          56
 force_and_stress                        0.008382           1
 pothar                                  0.007888         103
 strnlr                                  0.006941           1
 inisym                                  0.004752           1
 fft_gq                                  0.003289         100
 fornlr                                  0.002389           1
 stufak                                  0.001914           1
 fftbrc_mpi                              0.001542        3079
 brpre                                   0.001529         200
 forhar                                  0.001265           2
 strelo                                  0.001149           1
 strehar                                 0.000860           1
 forloc                                  0.000660           1
 vectorpot                               0.000409         101
 set_dd_magatom                          0.000382         102
 fewald                                  0.000331           1
 strkin                                  0.000218           1
 chggra                                  0.000215           1
 brgrid                                  0.000120           1
 rsp                                     0.000048           1
 posmap                                  0.000034           2
 crpa_reader                             0.000027           1
 fordep                                  0.000025           1
 rcp                                     0.000011           1
 acc_cufft_makeplans                     0.000010           3
 potlok_metagga                          0.000005         101
 rotate_active_occupied_orbital          0.000000           1
 redis_pw_over_bands                     0.000000           1
  summed up times     354.7736229896545

 Accumulative profile

 total_time                            354.773623           1
 elmin                                 327.612558           1
 eddav                                 215.180485         104
 set_dd_paw                             94.982314         102
 m_sumb_d                               69.044246      285389
 hamiltmu                               45.860650       90464
 lapack                                 41.232657       90464
 raccmu_                                40.200832       90464
 redis_pw                               20.968130      507952
 densta                                 12.861625         105
 init_acc                               11.494707           1
 phaser                                 10.058620        6188
 newband                                 9.811565       96288
 m_alltoall_d                            9.350054     1315328
 redis_proj                              9.102129      642344
 set_charge                              7.231224         100
 fftwav_mpi                              6.557020      357762
 fftwav                                  6.101751      357762
 soft_charge                             5.062343         100
 eccp                                    4.008262       46592
 fft3d                                   3.963599      538690
 orth1                                   3.002391      271448
 kinhamil                                2.907991      180928
 racc0mu_acc                             2.633150       90464
 overl                                   2.629924      315320
 w1_copy                                 2.606168      542784
 force_and_stress                        2.601700           1
 acc_init_cublas                         2.419521           1
 fft3d_mpi                               2.191091      184007
 rpromu_acc                              2.183374       68624
 fftext_mpi                              2.091141      180928
 w1_projall                              2.009395       67168
 m_bcast_z                               1.821131       92256
 setup_precond                           1.678508       46592
 m_bcast_d                               1.521390      181137
 overl_mu                                1.371518       90464
 ggemm                                   1.152577      113760
 strnlr                                  1.086142           1
 pw_charge                               0.947058       36674
 augmentation_charge                     0.867528         101
 potlok                                  0.854141         102
 vhamil                                  0.827899      180928
 rpro_isp                                0.804332         364
 acc_init_cusolver                       0.787697           1
 fftbrc_mpi                              0.733369        3079
 fftbas_plan_mpi                         0.731827        3079
 depsum                                  0.731559         100
 apply_precond                           0.730464      134336
 setdij_                                 0.672549         128
 fornlr                                  0.363098           1
 brmix                                   0.352480         100
 orthch                                  0.314953           1
 map_forward                             0.299778        2884
 broyd                                   0.247473         100
 m_alltoallv_z                           0.236510        3483
 map_backward                            0.212609        3274
 lincom                                  0.174160        5880
 map_scatter                             0.138717        3483
 acc_cufft_makeplans                     0.125037           3
 acc_cufft_makeplan                      0.125027          19
 proall                                  0.120455           1
 rspher_all                              0.115417          14
 dfftw_execute                           0.105150        1284
 fft_gq                                  0.103787         100
 map_gather                              0.101230        3483
 brget                                   0.048979       18681
 setg0                                   0.046084         102
 sphpro_fast                             0.032818           2
 fordep                                  0.031105           1
 truncate_high_frequency_w1              0.018482      227520
 brsav                                   0.013084        5106
 pothar                                  0.008740         103
 choleski                                0.008423          56
 inisym                                  0.004786           1
 stufak                                  0.001914           1
 brpre                                   0.001529         200
 forhar                                  0.001308           2
 strelo                                  0.001158           1
 strehar                                 0.000863           1
 chggra                                  0.000737           1
 forloc                                  0.000691           1
 fewald                                  0.000466           1
 vectorpot                               0.000409         101
 set_dd_magatom                          0.000382         102
 strkin                                  0.000234           1
 brgrid                                  0.000120           1
 rsp                                     0.000048           1
 posmap                                  0.000034           2
 crpa_reader                             0.000027           1
 rcp                                     0.000011           1
 potlok_metagga                          0.000005         101
 rotate_active_occupied_orbital          0.000000           1
 redis_pw_over_bands                     0.000000           1

Profiling took   1.111333  0.548663  0.003222  0.003160 seconds
Profiling took   0.673849 seconds