 vasp.6.3.2 27Jun22 (build Jul  3 2023 11:46:21) complex
 executed on    LinuxNV_CrayMPICH date 2024.04.21  23:00:38

 INCAR:
   ALGO = Normal
   AMIX_MAG = 0.8
   BMIX = 0.001
   BMIX_MAG = 0.001
   EDIFF = 0.0022
   ENCUT = 520.0
   IBRION = 2
   ICHARG = 1
   ISIF = 3
   ISMEAR = 0
   ISPIN = 2
   ISTART = 1
   KPOINT_BSE = -1 0 0 0
   LORBIT = 11
   LREAL = Auto
   LWAVE = False
   MAGMOM = 4*7.0 40*0.6
   NELM = 1000
   NELMDL = -6
   NSW = 99
   PREC = accurate
   SIGMA = 0.05

 POTCAR:    PAW_PBE Eu 23Dec2003
 POTCAR:    PAW_PBE In_d 06Sep2000
 POTCAR:    PAW_PBE Ir 06Sep2000
 POTCAR:    PAW_PBE Eu 23Dec2003
   VRHFIN =Eu : [core=Kr4d]

   TITEL  = PAW_PBE Eu 23Dec2003
   POMASS =  151.965; ZVAL   =   17.000    mass and valenz
   ENMAX  =  249.668; ENMIN  =  187.251 eV

   TITEL  = PAW_PBE In_d 06Sep2000
   POMASS =  114.820; ZVAL   =   13.000    mass and valenz
   ENMAX  =  239.211; ENMIN  =  179.409 eV

   TITEL  = PAW_PBE Ir 06Sep2000
   POMASS =  192.220; ZVAL   =    9.000    mass and valenz
   ENMAX  =  210.864; ENMIN  =  158.148 eV

 Optimization of the real space projectors (new method)

 maximal supplied QI-value         = 13.42
 optimisation between [QCUT,QGAM] = [ 11.67, 23.35] = [ 38.16,152.62] Ry
 Optimized for a Real-space Cutoff    1.63 Angstroem

   l    n(q)    QCUT    max X(q) W(low)/X(q) W(high)/X(q)  e(spline)
   0     11    11.673    10.400    0.14E-04    0.18E-05    0.24E-07
   0     11    11.673    10.768    0.21E-04    0.32E-05    0.49E-07
   1     11    11.673     4.094    0.40E-05    0.13E-04    0.93E-07
   1     11    11.673     4.009    0.11E-04    0.46E-04    0.33E-06
   2     10    11.673    29.030    0.79E-04    0.60E-04    0.70E-06
   2     10    11.673    19.941    0.80E-04    0.60E-04    0.71E-06
   3     10    11.673    88.889    0.23E-03    0.29E-03    0.30E-06
   3     10    11.673    76.102    0.23E-03    0.30E-03    0.30E-06
 Optimization of the real space projectors (new method)

[...]

   l    n(q)    QCUT    max X(q) W(low)/X(q) W(high)/X(q)  e(spline)
   2      9    11.641     4.551    0.57E-04    0.17E-03    0.81E-07
   2      9    11.641     8.525    0.12E-03    0.33E-04    0.17E-06
   0      9    11.641   208.283    0.14E-03    0.45E-04    0.94E-07
   0      9    11.641   161.407    0.13E-03    0.44E-04    0.93E-07
   1      9    11.641   122.126    0.23E-03    0.20E-03    0.21E-06
   1      9    11.641    62.412    0.22E-03    0.19E-03    0.20E-06
 Optimization of the real space projectors (new method)

 maximal supplied QI-value         = 14.36
 optimisation between [QCUT,QGAM] = [ 11.63, 23.27] = [ 37.90,151.59] Ry
 Optimized for a Real-space Cutoff    1.63 Angstroem

   l    n(q)    QCUT    max X(q) W(low)/X(q) W(high)/X(q)  e(spline)
   2     10    11.633   134.116    0.23E-03    0.25E-04    0.92E-06
   2     10    11.633   130.192    0.23E-03    0.25E-04    0.92E-06
   0     11    11.633    60.310    0.44E-04    0.29E-04    0.76E-06
   0     11    11.633    39.218    0.38E-04    0.27E-04    0.71E-06
   1     11    11.633    18.439    0.37E-04    0.62E-04    0.19E-06
   1     11    11.633    12.760    0.29E-04    0.50E-04    0.16E-06
  PAW_PBE Eu 23Dec2003                  :
  PAW_PBE In_d 06Sep2000                :
  PAW_PBE Ir 06Sep2000                  :

 POSCAR: Eu4 In32 Ir8
  positions in direct lattice
 exchange correlation table for  LEXCH =        8
   RHO(1)=    0.500       N(1)  =     2000
   RHO(2)=  100.500       N(2)  =     4000

 VTST: version 4.2, (08/11/21)

 CHAIN: initializing optimizer

 OPT: Using VASP Conjugate-Gradient optimizer
 CHAIN: Read ICHAIN             0

 POSCAR: Eu4 In32 Ir8
  positions in direct lattice

 ion  position               nearest neighbor table
   1  0.000  0.843  0.181-   7 3.48   7 3.48   9 3.53   9 3.53  21 3.54  21 3.54  13 3.59  13 3.59
                            17 3.62  17 3.62  25 3.66  36 3.76
   2  0.000  0.157  0.819-   8 3.48   8 3.48  10 3.53  10 3.53  22 3.54  22 3.54  14 3.59  14 3.59
                            18 3.62  18 3.62  26 3.66  36 3.76
   3  0.000  0.343  0.319-   5 3.48   5 3.48  11 3.53  11 3.53  23 3.54  23 3.54  15 3.59  15 3.59
                            19 3.62  19 3.62  27 3.66  35 3.76
   4  0.000  0.657  0.681-   6 3.48   6 3.48  12 3.53  12 3.53  24 3.54  24 3.54  16 3.59  16 3.59
                            20 3.62  20 3.62  28 3.66  35 3.76
   5  0.500  0.520  0.367-  41 3.03  41 3.03  35 3.18  35 3.18  25 3.23  25 3.23  20 3.23  23 3.23
                            13 3.24  19 3.39   3 3.48   3 3.48
   6  0.500  0.480  0.633-  42 3.03  42 3.03  35 3.18  35 3.18  26 3.23  26 3.23  19 3.23  24 3.23
                            14 3.24  20 3.39   4 3.48   4 3.48
   7  0.500  0.020  0.133-  43 3.03  43 3.03  36 3.18  36 3.18  27 3.23  27 3.23  18 3.23  21 3.23
                            15 3.24  17 3.39   1 3.48   1 3.48
   8  0.500  0.980  0.867-  44 3.03  44 3.03  36 3.18  36 3.18  28 3.23  28 3.23  17 3.23  22 3.23
                            16 3.24  18 3.39   2 3.48   2 3.48
   9  0.500  0.667  0.122-  37 2.98  37 2.98  17 3.00  33 3.14  25 3.21  25 3.21  23 3.29  13 3.51
                             1 3.53   1 3.53  32 3.57  32 3.57
  10  0.500  0.333  0.878-  38 2.98  38 2.98  18 3.00  33 3.14  26 3.21  26 3.21  24 3.29  14 3.51
                             2 3.53   2 3.53  31 3.57  31 3.57
  11  0.500  0.167  0.378-  39 2.98  39 2.98  19 3.00  34 3.14  27 3.21  27 3.21  21 3.29  15 3.51
                             3 3.53   3 3.53  30 3.57  30 3.57
  12  0.500  0.833  0.622-  40 2.98  40 2.98  20 3.00  34 3.14  28 3.21  28 3.21  22 3.29  16 3.51
                             4 3.53   4 3.53  29 3.57  29 3.57
  13  0.500  0.740  0.323-  41 2.90  41 2.90  21 3.01   5 3.24  25 3.27  25 3.27  20 3.30  29 3.47
                            29 3.47   9 3.51   1 3.59   1 3.59
  14  0.500  0.260  0.677-  42 2.90  42 2.90  22 3.01   6 3.24  26 3.27  26 3.27  19 3.30  30 3.47
                            30 3.47  10 3.51   2 3.59   2 3.59
  15  0.500  0.240  0.177-  43 2.90  43 2.90  23 3.01   7 3.24  27 3.27  27 3.27  18 3.30  31 3.47
                            31 3.47  11 3.51   3 3.59   3 3.59
  16  0.500  0.760  0.823-  44 2.90  44 2.90  24 3.01   8 3.24  28 3.27  28 3.27  17 3.30  32 3.47
                            32 3.47  12 3.51   4 3.59   4 3.59
  17  0.500  0.831  0.011-  44 2.89  44 2.89   9 3.00   8 3.23  16 3.30  36 3.32  36 3.32   7 3.39
                            32 3.46  32 3.46   1 3.62   1 3.62
  18  0.500  0.169  0.989-  43 2.89  43 2.89  10 3.00   7 3.23  15 3.30  36 3.32  36 3.32   8 3.39
                            31 3.46  31 3.46   2 3.62   2 3.62
  19  0.500  0.331  0.489-  42 2.89  42 2.89  11 3.00   6 3.23  14 3.30  35 3.32  35 3.32   5 3.39
                            30 3.46  30 3.46   3 3.62   3 3.62
  20  0.500  0.669  0.511-  41 2.89  41 2.89  12 3.00   5 3.23  13 3.30  35 3.32  35 3.32   6 3.39
                            29 3.46  29 3.46   4 3.62   4 3.62
  21  0.500  0.949  0.317-  39 2.95  39 2.95  13 3.01  34 3.13   7 3.23  11 3.29  27 3.30  27 3.30
                             1 3.54   1 3.54  29 3.58  29 3.58
  22  0.500  0.051  0.683-  40 2.95  40 2.95  14 3.01  34 3.13   8 3.23  12 3.29  28 3.30  28 3.30
                             2 3.54   2 3.54  30 3.58  30 3.58
  23  0.500  0.449  0.183-  37 2.95  37 2.95  15 3.01  33 3.13   5 3.23   9 3.29  25 3.30  25 3.30
                             3 3.54   3 3.54  31 3.58  31 3.58
  24  0.500  0.551  0.817-  38 2.95  38 2.95  16 3.01  33 3.13   6 3.23  10 3.29  26 3.30  26 3.30
                             4 3.54   4 3.54  32 3.58  32 3.58
  25  0.000  0.600  0.246-  37 2.70  41 2.73   9 3.21   9 3.21   5 3.23   5 3.23  13 3.27  13 3.27
                            23 3.30  23 3.30   1 3.66
  26  0.000  0.400  0.754-  38 2.70  42 2.73  10 3.21  10 3.21   6 3.23   6 3.23  14 3.27  14 3.27
                            24 3.30  24 3.30   2 3.66
  27  0.000  0.100  0.254-  39 2.70  43 2.73  11 3.21  11 3.21   7 3.23   7 3.23  15 3.27  15 3.27
                            21 3.30  21 3.30   3 3.66
  28  0.000  0.900  0.746-  40 2.70  44 2.73  12 3.21  12 3.21   8 3.23   8 3.23  16 3.27  16 3.27
                            22 3.30  22 3.30   4 3.66
  29  0.000  0.840  0.456-  41 2.82  39 2.92  40 2.94  34 3.30  34 3.30  20 3.46  20 3.46  13 3.47
                            13 3.47  12 3.57  12 3.57  21 3.58  21 3.58
  30  0.000  0.160  0.544-  42 2.82  40 2.92  39 2.94  34 3.30  34 3.30  19 3.46  19 3.46  14 3.47
                            14 3.47  11 3.57  11 3.57  22 3.58  22 3.58
  31  0.000  0.340  0.044-  43 2.82  37 2.92  38 2.94  33 3.30  33 3.30  18 3.46  18 3.46  15 3.47
                            15 3.47  10 3.57  10 3.57  23 3.58  23 3.58
  32  0.000  0.660  0.956-  44 2.82  38 2.92  37 2.94  33 3.30  33 3.30  17 3.46  17 3.46  16 3.47
                            16 3.47   9 3.57   9 3.57  24 3.58  24 3.58
  33  0.500  0.500  0.000-  37 2.79  38 2.79  37 2.79  38 2.79  23 3.13  24 3.13   9 3.14  10 3.14
                            31 3.30  32 3.30  31 3.30  32 3.30
  34  0.500  0.000  0.500-  39 2.79  40 2.79  39 2.79  40 2.79  21 3.13  22 3.13  11 3.14  12 3.14
                            29 3.30  30 3.30  29 3.30  30 3.30
  35  0.000  0.500  0.500-  41 2.73  42 2.73   5 3.18   6 3.18   5 3.18   6 3.18  19 3.32  20 3.32
                            19 3.32  20 3.32   3 3.76   4 3.76
  36  0.000  0.000  0.000-  43 2.73  44 2.73   7 3.18   8 3.18   7 3.18   8 3.18  17 3.32  18 3.32
                            17 3.32  18 3.32   1 3.76   2 3.76
  37  0.000  0.534  0.095-  25 2.70  33 2.79  33 2.79  31 2.92  32 2.94  23 2.95  23 2.95   9 2.98
                             9 2.98  38 3.31
  38  0.000  0.466  0.905-  26 2.70  33 2.79  33 2.79  32 2.92  31 2.94  24 2.95  24 2.95  10 2.98
                            10 2.98  37 3.31
  39  0.000  0.034  0.405-  27 2.70  34 2.79  34 2.79  29 2.92  30 2.94  21 2.95  21 2.95  11 2.98
                            11 2.98  40 3.31
  40  0.000  0.966  0.595-  28 2.70  34 2.79  34 2.79  30 2.92  29 2.94  22 2.95  22 2.95  12 2.98
                            12 2.98  39 3.31
  41  0.000  0.654  0.403-  25 2.73  35 2.73  29 2.82  20 2.89  20 2.89  13 2.90  13 2.90   5 3.03
                             5 3.03
  42  0.000  0.346  0.597-  26 2.73  35 2.73  30 2.82  19 2.89  19 2.89  14 2.90  14 2.90   6 3.03
                             6 3.03
  43  0.000  0.154  0.097-  27 2.73  36 2.73  31 2.82  18 2.89  18 2.89  15 2.90  15 2.90   7 3.03
                             7 3.03
  44  0.000  0.846  0.903-  28 2.73  36 2.73  32 2.82  17 2.89  17 2.89  16 2.90  16 2.90   8 3.03
                             8 3.03

  LATTYP: Found a simple orthorhombic cell.
 ALAT       =     4.4998230500
 B/A-ratio  =     3.1934097120
 C/A-ratio  =     3.7042534195

  Lattice vectors:

 A1 = (   0.0000000000,   0.0000000000,   4.4998230500)
 A2 = (  14.3697786300,   0.0000000000,   0.0000000000)
 A3 = (   0.0000000000,  16.6684849200,   0.0000000000)

Analysis of symmetry for initial positions (statically):
 Subroutine PRICEL returns:
 Original cell was already a primitive cell.

 Routine SETGRP: Setting up the symmetry group for a
[...]
  230        m_sumb_d                              0.000151                           20   3
  231        forhar                                0.025659                            8   3
  232          m_sumb_d                              0.000195                          8   4
  233        strehar                               0.018160                            4   3
  234          m_sumb_d                              0.000058                          4   4
  235        chggra                                0.005163                            4   3
  236          fft3d_mpi                             0.003250                         12   4
  237            fftbrc_mpi                            0.002517                       12   5
  238              fftbas_plan_mpi                       0.002510                     12   6
  239                map_forward                           0.001545                   16   7
  240                  map_gather                            0.000264                  8   8
  241                  m_alltoallv_z                         0.000121                  8   8
  242                  map_scatter                           0.000967                  8   8
  243                map_backward                          0.000605                    8   7
  244                  map_gather                            0.000152                  4   8
  245                  m_alltoallv_z                         0.000054                  4   8
  246                  map_scatter                           0.000308                  4   8
  247          m_sumb_d                              0.000039                          8   4
  248          pothar                                0.000459                          4   4
  249            m_sumb_d                              0.000081                        4   5
  250        brmix                                 0.059302                            4   3
  251          m_sumb_d                              0.000184                         24   4
  252          brpre                                 0.000323                          8   4
  253          setg0                                 0.015135                          4   4
  254          broyd                                 0.025695                          4   4
  255            m_sumb_d                              0.002560                      104   5
  256            brget                                 0.007020                      416   5
  257            brsav                                 0.001621                       96   5
  258        m_bcast_d                             0.000242                            8   3
  259      potlok                                0.046906                              4   2
  260        fft3d_mpi                             0.027375                          104   3
  261          fftbrc_mpi                            0.021689                        104   4
  262            fftbas_plan_mpi                       0.021631                      104   5
  263              map_forward                           0.010258                    112   6
  264                map_gather                            0.001978                   64   7
  265                m_alltoallv_z                         0.000852                   64   7
  266                map_scatter                           0.006256                   64   7
  267              map_backward                          0.008053                     96   6
  268                map_gather                            0.001822                   48   7
  269                m_alltoallv_z                         0.000625                   48   7
  270                map_scatter                           0.004492                   48   7
  271        m_sumb_d                              0.000128                           20   3
  272        pothar                                0.000456                            4   3
  273          m_sumb_d                              0.000027                          4   4
  274        m_bcast_d                             0.000102                            8   3
  275      potlok_metagga                        0.000001                              4   2
  276      set_dd_magatom                        0.000016                              4   2
  277      set_dd_paw                            0.150405                              4   2
  278        m_sumb_d                              0.002062                           28   3
  279      wavpre_noio                           0.348027                              3   2
  280        stufak                                0.207923                            3   3
  281      densta                                0.006152                              1   2
  282        m_sumb_d                              0.002280                           39   3

 Flat profile

 eddav                                  51.165343          85
 raccmu_                                39.329183       82254
 lapack                                 37.722746       82254
 m_sumb_d                               22.083075      256082
 redis_pw                               21.591904      448692
 total_time                             11.980825           1
 init_acc                               10.559848           1
 m_alltoall_d                            8.984945     1208256
 eccp                                    5.999609       45900
 phaser                                  5.643867         666
 setdij_                                 5.449035         189
 orth1                                   4.859592      247050
 rpromu_acc                              4.371206       66480
 hamiltmu                                3.928060       82254
 fft3d                                   3.896610      509487
 redis_proj                              3.880458      567324
 fftwav                                  3.866660      344979
 set_dd_paw                              3.274040          88
 augmentation_charge                     2.658472          80
 set_charge                              2.553360          80
 racc0mu_acc                             2.440759       82254
 w1_copy                                 2.435000      493524
 acc_init_cublas                         2.425066           1
 overl                                   2.381813      283140
 m_bcast_z                               2.315000       84414
 rspher_all                              2.198580          53
 soft_charge                             1.843784          80
 setup_precond                           1.687395       45900
 rpro_isp                                1.661384         156
 pw_charge                               1.593287       33783
 ggemm                                   1.487785      105204
 m_bcast_d                               1.372051      164693
 overl_mu                                1.297485       82254
 potlok                                  0.887042          84
 acc_init_cusolver                       0.793109           1
 vhamil                                  0.780371      164508
 kinhamil                                0.742372      164508
 newband                                 0.721103       82764
 depsum                                  0.720714          80
 fftext_mpi                              0.717824      164508
 dfftw_execute                           0.714073         984
 apply_precond                           0.655278      118608
 fft3d_mpi                               0.598648      167120
 m_alltoallv_z                           0.529351        2940
 fftwav_mpi                              0.476474      344979
 elmin                                   0.453488           4
 map_scatter                             0.372656        2940
 brmix                                   0.346606          80
 proall                                  0.279842           4
 setg0                                   0.279532          88
 map_gather                              0.276810        2940
 stufak                                  0.275972           4
 sphpro_fast                             0.254232           5
 broyd                                   0.175013          80
 orthch                                  0.164928           4
 acc_cufft_makeplan                      0.161725          19
 force_and_stress                        0.140351           4
 wavpre_noio                             0.140104           3
 fftbas_plan_mpi                         0.119491        2612
 brget                                   0.089934        5506
 w1_projall                              0.059623       59304
 densta                                  0.037947          86
 lincom                                  0.037942         534
 map_forward                             0.026020        2464
 forhar                                  0.025464           8
 map_backward                            0.025273        2760
 brsav                                   0.022876        1375
 fft_gq                                  0.022703          80
 strelo                                  0.022043           4
 choleski                                0.021955          24
 strehar                                 0.018102           4
 truncate_high_frequency_w1              0.016916      210408
 forloc                                  0.012952           4
 strnlr                                  0.012306           4
 rsp                                     0.010491           4
 pothar                                  0.009515          88
 strkin                                  0.007072           4
 brpre                                   0.006697         160
 inisym                                  0.004552           1
 fornlr                                  0.004137           4
 fftbrc_mpi                              0.001543        2612
 chggra                                  0.001416           4
 fordep                                  0.000875           4
 brgrid                                  0.000610           1
 set_dd_magatom                          0.000368          88
 fewald                                  0.000355           4
 vectorpot                               0.000332          81
 rcp                                     0.000202           4
 posmap                                  0.000078           2
 crpa_reader                             0.000026           1
 acc_cufft_makeplans                     0.000015           3
 potlok_metagga                          0.000008          84
 rotate_active_occupied_orbital          0.000002           4
 redis_pw_over_bands                     0.000000           4
  summed up times     291.2156810760498

 Accumulative profile

 total_time                            291.215681           1
 elmin                                 249.565951           4
 eddav                                 228.343034          85
 hamiltmu                               50.484618       82254
 raccmu_                                43.067427       82254
 lapack                                 37.722746       82254
 redis_pw                               26.173804      448692
 m_sumb_d                               22.083075      256082
 set_charge                             13.474465          80
 force_and_stress                       12.542436           4
 newband                                12.199182       82764
 init_acc                               10.559848           1
 m_alltoall_d                            8.984945     1208256
 redis_proj                              8.283503      567324
 fftwav_mpi                              7.041352      344979
 fftwav                                  6.564878      344979
 strnlr                                  6.300198           4
 eccp                                    5.999609       45900
 soft_charge                             5.945006          80
 phaser                                  5.643867         666
 setdij_                                 5.556278         189
 rpro_isp                                5.285670         156
 orth1                                   4.859592      247050
 rpromu_acc                              4.371206       66480
 fft3d                                   3.896610      509487
 fft3d_mpi                               3.862257      167120
 augmentation_charge                     3.810073          80
 set_dd_paw                              3.323626          88
 kinhamil                                2.708760      164508
 racc0mu_acc                             2.440759       82254
 w1_copy                                 2.435000      493524
 acc_init_cublas                         2.425066           1
 overl                                   2.381813      283140
 m_bcast_z                               2.315000       84414
 rspher_all                              2.198580          53
 fornlr                                  2.098606           4
 fftbrc_mpi                              2.065217        2612
 fftbas_plan_mpi                         2.063674        2612
 fftext_mpi                              1.966388      164508
 w1_projall                              1.805080       59304
 setup_precond                           1.687395       45900
 potlok                                  1.644187          84
 pw_charge                               1.593287       33783
 ggemm                                   1.487785      105204
 m_bcast_d                               1.372051      164693
 overl_mu                                1.297485       82254
 brmix                                   0.947963          80
 map_backward                            0.808064        2760
 acc_init_cusolver                       0.793109           1
 vhamil                                  0.780371      164508
 depsum                                  0.760506          80
 dfftw_execute                           0.714073         984
 fordep                                  0.704028           4
 orthch                                  0.690260           4
 apply_precond                           0.655278      118608
 fft_gq                                  0.645311          80
 proall                                  0.596986           4
 m_alltoallv_z                           0.529351        2940
 map_forward                             0.422046        2464
 map_scatter                             0.372656        2940
 wavpre_noio                             0.348027           3
 broyd                                   0.310257          80
 setg0                                   0.279532          88
 map_gather                              0.276810        2940
 stufak                                  0.275972           4
 sphpro_fast                             0.263228           5
 acc_cufft_makeplans                     0.161739           3
 acc_cufft_makeplan                      0.161725          19
 brget                                   0.089934        5506
 densta                                  0.057769          86
 lincom                                  0.037942         534
 forhar                                  0.025659           8
 brsav                                   0.022876        1375
 strelo                                  0.022813           4
 choleski                                0.021955          24
 fewald                                  0.020265           4
 strehar                                 0.018160           4
 truncate_high_frequency_w1              0.016916      210408
 forloc                                  0.013204           4
 rsp                                     0.010491           4
 pothar                                  0.010205          88
 strkin                                  0.007106           4
 brpre                                   0.006697         160
 chggra                                  0.005163           4
 inisym                                  0.004630           1
 brgrid                                  0.000610           1
 set_dd_magatom                          0.000368          88
 vectorpot                               0.000332          81
 rcp                                     0.000202           4
 posmap                                  0.000078           2
 crpa_reader                             0.000026           1
 potlok_metagga                          0.000008          84
 rotate_active_occupied_orbital          0.000002           4
 redis_pw_over_bands                     0.000000           4

Profiling took   1.045290  0.516191  0.003210  0.003136 seconds
Profiling took   0.662383 seconds