 vasp.6.3.2 27Jun22 (build Jul  3 2023 11:46:21) complex
 executed on    LinuxNV_CrayMPICH date 2024.04.21  21:46:24

 INCAR:
   ADDGRID = True
   ALGO = Normal
   EDIFF = 0.0012
   ENCUT = 520.0
   IBRION = -1
   ICHARG = 0
   ISIF = 3
   ISMEAR = -5
   ISPIN = 2
   KPOINT_BSE = -1 0 0 0
   LAECHG = True
   LASPH = True
   LCHARG = True
   LELF = True
   LORBIT = 11
   LREAL = Auto
   LVHAR = True
   LWAVE = False
   MAGMOM = 4*7.0 20*0.6
   NELM = 1000
   NSW = 0
   PREC = accurate
   SIGMA = 0.05

 POTCAR:    PAW_PBE Eu 23Dec2003
 POTCAR:    PAW_PBE C 08Apr2002
 POTCAR:    PAW_PBE O 08Apr2002
 POTCAR:    PAW_PBE Eu 23Dec2003
   VRHFIN =Eu : [core=Kr4d]

   TITEL  = PAW_PBE Eu 23Dec2003
   POMASS =  151.965; ZVAL   =   17.000    mass and valenz
   ENMAX  =  249.668; ENMIN  =  187.251 eV

   TITEL  = PAW_PBE C 08Apr2002
   POMASS =   12.011; ZVAL   =    4.000    mass and valenz
   ENMAX  =  400.000; ENMIN  =  300.000 eV

   TITEL  = PAW_PBE O 08Apr2002
   POMASS =   16.000; ZVAL   =    6.000    mass and valenz
   ENMAX  =  400.000; ENMIN  =  300.000 eV

 Optimization of the real space projectors (new method)

 maximal supplied QI-value         = 13.42
 optimisation between [QCUT,QGAM] = [ 11.67, 23.35] = [ 38.16,152.62] Ry
 Optimized for a Real-space Cutoff    1.63 Angstroem

   l    n(q)    QCUT    max X(q) W(low)/X(q) W(high)/X(q)  e(spline)
   0     11    11.673    10.400    0.14E-04    0.18E-05    0.24E-07
   0     11    11.673    10.768    0.21E-04    0.32E-05    0.49E-07
   1     11    11.673     4.094    0.40E-05    0.13E-04    0.93E-07
   1     11    11.673     4.009    0.11E-04    0.46E-04    0.33E-06
   2     10    11.673    29.030    0.79E-04    0.60E-04    0.70E-06
   2     10    11.673    19.941    0.80E-04    0.60E-04    0.71E-06
   3     10    11.673    88.889    0.23E-03    0.29E-03    0.30E-06
   3     10    11.673    76.102    0.23E-03    0.30E-03    0.30E-06
 Optimization of the real space projectors (new method)

[...]

   l    n(q)    QCUT    max X(q) W(low)/X(q) W(high)/X(q)  e(spline)
   0      7    11.561   115.676    0.20E-03    0.60E-03    0.21E-06
   0      7    11.561    87.132    0.20E-03    0.59E-03    0.21E-06
   1      7    11.561     4.429    0.23E-03    0.35E-03    0.15E-06
   1      7    11.561     2.733    0.18E-03    0.25E-03    0.12E-06
 Optimization of the real space projectors (new method)

 maximal supplied QI-value         = 24.76
 optimisation between [QCUT,QGAM] = [ 11.64, 23.27] = [ 37.91,151.63] Ry
 Optimized for a Real-space Cutoff    1.14 Angstroem

   l    n(q)    QCUT    max X(q) W(low)/X(q) W(high)/X(q)  e(spline)
   0      8    11.635    20.381    0.10E-03    0.33E-03    0.24E-06
   0      8    11.635    15.268    0.11E-03    0.35E-03    0.26E-06
   1      7    11.635     5.964    0.24E-03    0.31E-03    0.30E-06
   1      7    11.635     5.382    0.22E-03    0.25E-03    0.26E-06
  PAW_PBE Eu 23Dec2003                  :
  PAW_PBE C 08Apr2002                   :
  PAW_PBE O 08Apr2002                   :

 POSCAR: Eu4 C4 O16
  positions in direct lattice
 exchange correlation table for  LEXCH =        8
   RHO(1)=    0.500       N(1)  =     2000
   RHO(2)=  100.500       N(2)  =     4000

 VTST: version 4.2, (08/11/21)

 CHAIN: initializing optimizer

 OPT: Using VASP Dynamics algorithm
 CHAIN: Read ICHAIN             0

 POSCAR: Eu4 C4 O16
  positions in direct lattice

 ion  position               nearest neighbor table
   1  0.004  0.897  0.322-   9 2.22  11 2.25  13 2.55  13 2.56  19 2.65  21 2.65  24 2.66  17 2.68
                            20 2.71  23 2.76
   2  0.496  0.103  0.822-  10 2.22  12 2.25  14 2.55  14 2.56  20 2.65  22 2.65  23 2.66  18 2.68
                            19 2.71  24 2.76
   3  0.996  0.397  0.178-  11 2.22   9 2.25  15 2.55  15 2.56  17 2.65  23 2.65  22 2.66  19 2.68
                            18 2.71  21 2.76
   4  0.504  0.603  0.678-  12 2.22  10 2.25  16 2.55  16 2.56  18 2.65  24 2.65  21 2.66  20 2.68
                            17 2.71  22 2.76
   5  0.001  0.950  0.676-  14 1.28  24 1.29  20 1.30
   6  0.499  0.050  0.176-  13 1.28  23 1.29  19 1.30
   7  0.999  0.450  0.824-  16 1.28  22 1.29  18 1.30
   8  0.501  0.550  0.324-  15 1.28  21 1.29  17 1.30
   9  0.998  0.700  0.123-   1 2.22   3 2.25
  10  0.502  0.300  0.623-   2 2.22   4 2.25
  11  0.002  0.200  0.377-   3 2.22   1 2.25
  12  0.498  0.800  0.877-   4 2.22   2 2.25
  13  0.506  0.953  0.302-   6 1.28   1 2.55   1 2.56
  14  0.994  0.047  0.802-   5 1.28   2 2.55   2 2.56
  15  0.494  0.453  0.198-   8 1.28   3 2.55   3 2.56
  16  0.006  0.547  0.698-   7 1.28   4 2.55   4 2.56
  17  0.728  0.592  0.388-   8 1.30   3 2.65   1 2.68   4 2.71
  18  0.772  0.408  0.888-   7 1.30   4 2.65   2 2.68   3 2.71
  19  0.272  0.092  0.112-   6 1.30   1 2.65   3 2.68   2 2.71
  20  0.228  0.908  0.612-   5 1.30   2 2.65   4 2.68   1 2.71
  21  0.284  0.600  0.393-   8 1.29   1 2.65   4 2.66   3 2.76
  22  0.216  0.400  0.893-   7 1.29   2 2.65   3 2.66   4 2.76
  23  0.716  0.100  0.107-   6 1.29   3 2.65   2 2.66   1 2.76
  24  0.784  0.900  0.607-   5 1.29   4 2.65   1 2.66   2 2.76

  LATTYP: Found a simple orthorhombic cell.
 ALAT       =     5.0347610000
 B/A-ratio  =     1.4415941492
 C/A-ratio  =     1.6877579690

  Lattice vectors:

 A1 = (   5.0347610000,   0.0000000000,   0.0000000000)
 A2 = (   0.0000000000,   7.2580820000,   0.0000000000)
 A3 = (   0.0000000000,   0.0000000000,   8.4974580000)

Analysis of symmetry for initial positions (statically):
 Subroutine PRICEL returns:
 Original cell was already a primitive cell.

 Routine SETGRP: Setting up the symmetry group for a
 simple orthorhombic supercell.

 Subroutine GETGRP returns: Found  4 space group operations
 (whereof  1 operations were pure point group operations)
 out of a pool of  8 trial point group operations.

The static configuration has the point symmetry C_1 .
 The point group associated with its full space group is D_2 .

Analysis of symmetry for dynamics (positions and initial velocities):
 Subroutine PRICEL returns:
 Original cell was already a primitive cell.

[...]

The dynamic configuration has the point symmetry C_1 .
 The point group associated with its full space group is D_2 .

Analysis of structural, dynamic, and magnetic symmetry:
 Subroutine PRICEL returns:
 Original cell was already a primitive cell.

 Routine SETGRP: Setting up the symmetry group for a
 simple orthorhombic supercell.

 Subroutine GETGRP returns: Found  4 space group operations
 (whereof  1 operations were pure point group operations)
 out of a pool of  8 trial point group operations.

The overall configuration has the point symmetry C_1 .
 The point group associated with its full space group is D_2 .

 Subroutine INISYM returns: Found  4 space group operations
 (whereof  1 operations are pure point group operations),
 and found     1 'primitive' translations

                                     Primitive cell

  volume of cell :     310.5201

  direct lattice vectors                    reciprocal lattice vectors
     5.034761000  0.000000000  0.000000000     0.198619160  0.000000000  0.000000000
     0.000000000  7.258082000  0.000000000     0.000000000  0.137777446  0.000000000
     0.000000000  0.000000000  8.497458000     0.000000000  0.000000000  0.117682253

  length of vectors
     5.034761000  7.258082000  8.497458000     0.198619160  0.137777446  0.117682253

  position of ions in fractional coordinates (direct lattice)
     0.003866000  0.897310000  0.322368000
     0.496134000  0.102690000  0.822368000
     0.996134000  0.397310000  0.177632000
     0.503866000  0.602690000  0.677632000
     0.001419000  0.950033000  0.675971000
     0.498581000  0.049967000  0.175971000
     0.998581000  0.450033000  0.824029000
     0.501419000  0.549967000  0.324029000
     0.997965000  0.700034000  0.123143000
     0.502035000  0.299966000  0.623143000
     0.002035000  0.200034000  0.376857000
     0.497965000  0.799966000  0.876857000
     0.505574000  0.952691000  0.301751000
     0.994426000  0.047309000  0.801751000
     0.494426000  0.452691000  0.198249000
     0.005574000  0.547309000  0.698249000
     0.727517000  0.591577000  0.387505000
     0.772483000  0.408423000  0.887505000
     0.272483000  0.091577000  0.112495000
     0.227517000  0.908423000  0.612495000
     0.283790000  0.599511000  0.392922000
     0.216210000  0.400489000  0.892922000
     0.716210000  0.099511000  0.107078000
     0.783790000  0.900489000  0.607078000

  ion indices of the primitive-cell ions
   primitive index   ion index
                 1           1
                 2           2
                 3           3
                 4           4
                 5           5
                 6           6
                 7           7
                 8           8
                 9           9
                10          10
                11          11
                12          12
                13          13
                14          14
                15          15
                16          16
                17          17
                18          18
                19          19
                20          20
                21          21
                22          22
                23          23
                24          24

 KPOINTS: Kpoints from vasprun.xml

Automatic generation of k-mesh.
 Grid dimensions read from file:
 generate k-points for:    5    4    3

 Generating k-lattice:

  Cartesian coordinates                     Fractional coordinates (reciprocal lattice)
     0.039723832  0.000000000  0.000000000     0.200000000  0.000000000  0.000000000
     0.000000000  0.034444361  0.000000000     0.000000000  0.250000000  0.000000000
     0.000000000  0.000000000  0.039227418     0.000000000  0.000000000  0.333333333

  Length of vectors
     0.039723832  0.034444361  0.039227418

  Shift w.r.t. Gamma in fractional coordinates (k-lattice)
     0.000000000  0.000000000  0.000000000

 TETIRR: Found    174 inequivalent tetrahedra from      360

 Subroutine IBZKPT returns following result:

 Found     18 irreducible k-points:

 Following reciprocal coordinates:
            Coordinates               Weight
  0.000000  0.000000  0.000000      1.000000
  0.200000  0.000000  0.000000      2.000000
  0.400000  0.000000  0.000000      2.000000
  0.000000  0.250000  0.000000      2.000000
  0.200000  0.250000  0.000000      4.000000
  0.400000  0.250000  0.000000      4.000000
  0.000000  0.500000  0.000000      1.000000
  0.200000  0.500000  0.000000      2.000000
  0.400000  0.500000  0.000000      2.000000
  0.000000  0.000000  0.333333      2.000000
  0.200000  0.000000  0.333333      4.000000
  0.400000  0.000000  0.333333      4.000000
  0.000000  0.250000  0.333333      4.000000
  0.200000  0.250000  0.333333      8.000000
  0.400000  0.250000  0.333333      8.000000
  0.000000  0.500000  0.333333      2.000000
  0.200000  0.500000  0.333333      4.000000
  0.400000  0.500000  0.333333      4.000000

 Following cartesian coordinates:
            Coordinates               Weight
  0.000000  0.000000  0.000000      1.000000
[...]
  318                map_forward                           0.000223                    4   7
  319                  map_gather                            0.000048                  2   8
  320                  m_alltoallv_z                         0.000025                  2   8
  321                  map_scatter                           0.000119                  2   8
  322                map_backward                          0.000093                    2   7
  323                  map_gather                            0.000022                  1   8
  324                  m_alltoallv_z                         0.000011                  1   8
  325                  map_scatter                           0.000045                  1   8
  326          m_sumb_d                              0.000009                          2   4
  327          pothar                                0.000082                          1   4
  328            m_sumb_d                              0.000009                        1   5
  329        brmix                                 0.004666                            1   3
  330          m_sumb_d                              0.000023                          6   4
  331          brpre                                 0.000028                          2   4
  332          setg0                                 0.000958                          1   4
  333          broyd                                 0.002553                          1   4
  334            m_sumb_d                              0.000144                       30   5
  335            brget                                 0.000718                      124   5
  336            brsav                                 0.000163                       28   5
  337        m_bcast_d                             0.000026                            2   3
  338      potlok                                0.034274                              2   2
  339        fft3d_mpi                             0.021920                           36   3
  340          fftbrc_mpi                            0.018850                         36   4
  341            fftbas_plan_mpi                       0.018833                       36   5
  342              map_forward                           0.005669                     40   6
  343                map_gather                            0.001765                   24   7
  344                m_alltoallv_z                         0.002172                   24   7
  345                map_scatter                           0.001533                   24   7
  346              map_backward                          0.004824                     32   6
  347                map_gather                            0.001486                   16   7
  348                m_alltoallv_z                         0.001827                   16   7
  349                map_scatter                           0.001338                   16   7
  350              dfftw_execute                         0.006696                     30   6
  351        m_sumb_d                              0.000029                            5   3
  352        pothar                                0.001383                            2   3
  353          m_sumb_d                              0.000094                          2   4
  354        m_bcast_d                             0.002298                            4   3
  355      potlok_metagga                        0.000000                              1   2
  356      set_dd_magatom                        0.000005                              1   2
  357      set_dd_paw                            2.028666                              1   2
  358        m_sumb_d                              0.024549                            7   3
  359      augmentation_charge                   0.107012                              1   2
  360        fft3d_mpi                             0.041546                            2   3
  361          fftbrc_mpi                            0.037555                          2   4
  362            fftbas_plan_mpi                       0.037555                        2   5
  363              dfftw_execute                         0.024664                      6   6
  364              map_backward                          0.012654                      4   6
  365                map_gather                            0.003289                    2   7
  366                m_alltoallv_z                         0.005481                    2   7
  367                map_scatter                           0.003873                    2   7
  368      fftwav_mpi                            2.615819                           3456   2
  369        fftwav                                2.611482                         3456   3
  370          fft3d                                 2.359390                       3456   4
  371      densta                                9.843310                              1   2

 Flat profile

 set_dd_paw                             52.205946          26
 eddav                                  32.356216          28
 lapack                                 29.667521       63246
 raccmu_                                25.625995       63246
 m_sumb_d                               24.170306      193734
 redis_pw                               14.429476      349308
 densta                                 14.365289          29
 total_time                             11.576762           1
 init_acc                               10.301846           1
 m_alltoall_d                            6.501663      923460
 fft3d                                   5.776049      386266
 phaser                                  3.541639        1242
 setdij_                                 3.210259          52
 eccp                                    3.184108       32256
 redis_proj                              2.914968      443580
 fftwav                                  2.828659      259774
 orth1                                   2.544940      189882
 dfftw_execute                           2.493580        1068
 acc_init_cublas                         2.387412           1
 rpromu_acc                              2.126561       50862
 racc0mu_acc                             1.863663       63246
 w1_copy                                 1.846104      379476
 overl                                   1.843104      220764
 hamiltmu                                1.708542       63246
 augmentation_charge                     1.702678          26
 m_bcast_z                               1.694964       67854
 soft_charge                             1.190375          25
 setup_precond                           1.166235       32256
 ggemm                                   1.144432       79374
 m_bcast_d                               1.060352      126549
 overl_mu                                0.982818       63246
 acc_init_cusolver                       0.793424           1
 rpro_isp                                0.768603         234
 m_alltoallv_z                           0.693692        1153
 pw_charge                               0.645842       20614
 vhamil                                  0.588631      126492
 kinhamil                                0.582758      126492
 fftext_mpi                              0.535969      126492
 newband                                 0.520276       64254
 apply_precond                           0.518990       94236
 depsum                                  0.463048          25
 map_scatter                             0.430164        1153
 fft3d_mpi                               0.386328      127523
 fftwav_mpi                              0.347530      259774
 map_gather                              0.310013        1153
 sphpro_fast                             0.219834           2
 set_charge                              0.216269          25
 rspher_all                              0.182538          14
 potlok                                  0.119859          26
 acc_cufft_makeplan                      0.114126          19
 elmin                                   0.084827           1
 proall                                  0.073575           1
 fftbas_plan_mpi                         0.068656        1031
 w1_projall                              0.047528       47118
 lincom                                  0.037621        1044
 brmix                                   0.034776          24
 orthch                                  0.031450           1
 setg0                                   0.023715          26
 force_and_stress                        0.019387           1
 broyd                                   0.017336          24
 choleski                                0.013919          36
 truncate_high_frequency_w1              0.012598      158748
 stufak                                  0.011005           1
 brget                                   0.008489        1590
 strnlr                                  0.006546           1
 map_forward                             0.005598         992
 map_backward                            0.005164        1070
 inisym                                  0.004446           1
 pothar                                  0.003294          27
 forhar                                  0.002369           2
 fornlr                                  0.002254           1
 brsav                                   0.002164         400
 fft_gq                                  0.002102          25
 strelo                                  0.001939           1
 strehar                                 0.001431           1
 strkin                                  0.001386           1
 forloc                                  0.001256           1
 rsp                                     0.000787           1
 brpre                                   0.000747          48
 fftbrc_mpi                              0.000648        1031
 fewald                                  0.000336           1
 chggra                                  0.000236           1
 brgrid                                  0.000200           1
 set_dd_magatom                          0.000123          26
 vectorpot                               0.000104          25
 fordep                                  0.000084           1
 crpa_reader                             0.000032           1
 rcp                                     0.000029           1
 posmap                                  0.000027           2
 acc_cufft_makeplans                     0.000012           3
 potlok_metagga                          0.000001          25
 rotate_active_occupied_orbital          0.000001           1
 redis_pw_over_bands                     0.000000           1
  summed up times     277.3785569667816

 Accumulative profile

 total_time                            277.378557           1
 elmin                                 226.911169           1
 eddav                                 165.027165          28
 set_dd_paw                             52.621847          26
 hamiltmu                               32.822263       63246
 lapack                                 29.667521       63246
 raccmu_                                28.472476       63246
 m_sumb_d                               24.170306      193734
 redis_pw                               17.591347      349308
 densta                                 14.365289          29
 init_acc                               10.301846           1
 force_and_stress                        8.086709           1
 fftwav_mpi                              8.055581      259774
 fftwav                                  7.708050      259774
 newband                                 7.427508       64254
 set_charge                              6.703359          25
 m_alltoall_d                            6.501663      923460
 redis_proj                              6.254760      443580
 setdij_                                 5.944781          52
 fft3d                                   5.776049      386266
 fft3d_mpi                               5.290501      127523
 fftbrc_mpi                              4.007515        1031
 fftbas_plan_mpi                         4.006868        1031
 phaser                                  3.541639        1242
 soft_charge                             3.237947          25
 eccp                                    3.184108       32256
 augmentation_charge                     2.848638          26
 orth1                                   2.544940      189882
 dfftw_execute                           2.493580        1068
 acc_init_cublas                         2.387412           1
 rpromu_acc                              2.126561       50862
 strnlr                                  2.058803           1
 kinhamil                                2.052614      126492
 rpro_isp                                1.984116         234
 racc0mu_acc                             1.863663       63246
 w1_copy                                 1.846104      379476
 overl                                   1.843104      220764
 m_bcast_z                               1.694964       67854
 fftext_mpi                              1.469856      126492
 w1_projall                              1.418512       47118
 setup_precond                           1.166235       32256
 ggemm                                   1.144432       79374
 m_bcast_d                               1.060352      126549
 overl_mu                                0.982818       63246
 map_forward                             0.862448         992
 acc_init_cusolver                       0.793424           1
 m_alltoallv_z                           0.693692        1153
 fordep                                  0.691865           1
 fornlr                                  0.689155           1
 pw_charge                               0.645842       20614
 vhamil                                  0.588631      126492
 map_backward                            0.582183        1070
 apply_precond                           0.518990       94236
 depsum                                  0.470035          25
 map_scatter                             0.430164        1153
 potlok                                  0.373339          26
 orthch                                  0.324294           1
 map_gather                              0.310013        1153
 sphpro_fast                             0.228897           2
 proall                                  0.183319           1
 rspher_all                              0.182538          14
 acc_cufft_makeplans                     0.114139           3
 acc_cufft_makeplan                      0.114126          19
 brmix                                   0.091114          24
 fft_gq                                  0.052046          25
 lincom                                  0.037621        1044
 broyd                                   0.030214          24
 setg0                                   0.023715          26
 choleski                                0.013919          36
 truncate_high_frequency_w1              0.012598      158748
 stufak                                  0.011005           1
 brget                                   0.008489        1590
 inisym                                  0.004473           1
 pothar                                  0.003579          27
 forhar                                  0.002407           2
 brsav                                   0.002164         400
 forloc                                  0.002088           1
 strelo                                  0.002015           1
 fewald                                  0.001740           1
 strehar                                 0.001453           1
 strkin                                  0.001396           1
 chggra                                  0.000826           1
 rsp                                     0.000787           1
 brpre                                   0.000747          48
 brgrid                                  0.000200           1
 set_dd_magatom                          0.000123          26
 vectorpot                               0.000104          25
 crpa_reader                             0.000032           1
 rcp                                     0.000029           1
 posmap                                  0.000027           2
 potlok_metagga                          0.000001          25
 rotate_active_occupied_orbital          0.000001           1
 redis_pw_over_bands                     0.000000           1

Profiling took   0.768160  0.383531  0.003233  0.003137 seconds
Profiling took   0.478441 seconds