 vasp.6.3.2 27Jun22 (build Jul  3 2023 11:46:21) complex
 executed on    LinuxNV_CrayMPICH date 2024.04.22  02:59:13

 INCAR:
   ADDGRID = True
   ALGO = Normal
   EDIFF = 0.002
   ENCUT = 520.0
   IBRION = -1
   ICHARG = 0
   ISIF = 3
   ISMEAR = -5
   ISPIN = 2
   KPOINT_BSE = -1 0 0 0
   LAECHG = True
   LASPH = True
   LCHARG = True
   LELF = True
   LORBIT = 11
   LREAL = Auto
   LVHAR = True
   LWAVE = False
   MAGMOM = 1*7.0 39*0.6
   NELM = 1000
   NSW = 0
   PREC = accurate
   SIGMA = 0.05

 POTCAR:    PAW_PBE Eu 23Dec2003
 POTCAR:    PAW_PBE Y_sv 25May2007
 POTCAR:    PAW_PBE Al 04Jan2001
 POTCAR:    PAW_PBE B 06Sep2000
 POTCAR:    PAW_PBE O 08Apr2002
 POTCAR:    PAW_PBE Eu 23Dec2003
   VRHFIN =Eu : [core=Kr4d]

   TITEL  = PAW_PBE Eu 23Dec2003
   POMASS =  151.965; ZVAL   =   17.000    mass and valenz
   ENMAX  =  249.668; ENMIN  =  187.251 eV

   TITEL  = PAW_PBE Y_sv 25May2007
   POMASS =   88.906; ZVAL   =   11.000    mass and valenz
   ENMAX  =  202.626; ENMIN  =  151.970 eV

   TITEL  = PAW_PBE Al 04Jan2001
   POMASS =   26.981; ZVAL   =    3.000    mass and valenz
   ENMAX  =  240.300; ENMIN  =  180.225 eV

   TITEL  = PAW_PBE B 06Sep2000
   POMASS =   10.811; ZVAL   =    3.000    mass and valenz
   ENMAX  =  318.614; ENMIN  =  238.960 eV

   TITEL  = PAW_PBE O 08Apr2002
   POMASS =   16.000; ZVAL   =    6.000    mass and valenz
   ENMAX  =  400.000; ENMIN  =  300.000 eV

 Optimization of the real space projectors (new method)

 maximal supplied QI-value         = 13.42
 optimisation between [QCUT,QGAM] = [ 11.67, 23.35] = [ 38.16,152.62] Ry
 Optimized for a Real-space Cutoff    1.63 Angstroem

   l    n(q)    QCUT    max X(q) W(low)/X(q) W(high)/X(q)  e(spline)
   0     11    11.673    10.400    0.14E-04    0.18E-05    0.24E-07
   0     11    11.673    10.768    0.21E-04    0.32E-05    0.49E-07
   1     11    11.673     4.094    0.40E-05    0.13E-04    0.93E-07
   1     11    11.673     4.009    0.11E-04    0.46E-04    0.33E-06
   2     10    11.673    29.030    0.79E-04    0.60E-04    0.70E-06
   2     10    11.673    19.941    0.80E-04    0.60E-04    0.71E-06
   3     10    11.673    88.889    0.23E-03    0.29E-03    0.30E-06
   3     10    11.673    76.102    0.23E-03    0.30E-03    0.30E-06
 Optimization of the real space projectors (new method)

[...]

   l    n(q)    QCUT    max X(q) W(low)/X(q) W(high)/X(q)  e(spline)
   0      8    11.497    53.033    0.18E-03    0.30E-03    0.10E-06
   0      8    11.497    34.740    0.17E-03    0.29E-03    0.10E-06
   1      8    11.497    30.949    0.20E-03    0.12E-03    0.21E-06
   1      8    11.497    19.518    0.18E-03    0.11E-03    0.19E-06
 Optimization of the real space projectors (new method)

 maximal supplied QI-value         = 24.76
 optimisation between [QCUT,QGAM] = [ 11.64, 23.27] = [ 37.91,151.63] Ry
 Optimized for a Real-space Cutoff    1.14 Angstroem

   l    n(q)    QCUT    max X(q) W(low)/X(q) W(high)/X(q)  e(spline)
   0      8    11.635    20.381    0.10E-03    0.33E-03    0.24E-06
   0      8    11.635    15.268    0.11E-03    0.35E-03    0.26E-06
   1      7    11.635     5.964    0.24E-03    0.31E-03    0.30E-06
   1      7    11.635     5.382    0.22E-03    0.25E-03    0.26E-06
  PAW_PBE Eu 23Dec2003                  :
  PAW_PBE Y_sv 25May2007                :
  PAW_PBE Al 04Jan2001                  :
  PAW_PBE B 06Sep2000                   :
  PAW_PBE O 08Apr2002                   :

 POSCAR: Eu1 Y1 Al6 B8 O24
  positions in direct lattice
 exchange correlation table for  LEXCH =        8
   RHO(1)=    0.500       N(1)  =     2000
   RHO(2)=  100.500       N(2)  =     4000

 VTST: version 4.2, (08/11/21)

 CHAIN: initializing optimizer

 OPT: Using VASP Dynamics algorithm
 CHAIN: Read ICHAIN             0

 POSCAR: Eu1 Y1 Al6 B8 O24
  positions in direct lattice

 ion  position               nearest neighbor table
   1  0.499  0.501  0.000-  32 2.38  39 2.38  36 2.40  33 2.40  38 2.40  29 2.40
   2  1.000  0.000  0.500-  34 2.33  35 2.33  30 2.34  37 2.34  31 2.35  40 2.35  13 3.00  14 3.00
                            10 3.01  11 3.01  11 3.02  10 3.02  20 3.09  17 3.09  20 3.09  17 3.09
   3  0.278  0.834  0.223-  33 1.86  37 1.88  25 1.94  27 1.94  21 1.95  19 1.96   7 3.03   5 3.04
                             2 3.68
   4  0.778  0.333  0.722-  38 1.85  34 1.88  28 1.94  26 1.94  20 1.95  22 1.96   8 3.03   6 3.04
                             2 3.68
   5  0.667  0.222  0.278-  29 1.85  35 1.88  27 1.94  23 1.94  17 1.95  21 1.96   8 3.03   3 3.04
                             2 3.68
   6  0.166  0.722  0.777-  36 1.86  30 1.88  24 1.94  28 1.94  22 1.95  18 1.96   7 3.03   4 3.04
                             2 3.68
   7  0.057  0.943  0.000-  32 1.86  39 1.86  24 1.94  25 1.94  18 1.95  19 1.95   3 3.03   6 3.03

   8  0.556  0.444  0.500-  31 1.88  40 1.88  23 1.94  26 1.94  17 1.95  20 1.95   4 3.03   5 3.03
                             2 3.68   2 3.68
   9  0.971  0.412  0.029-  29 1.37  39 1.37  18 1.39
  10  0.471  0.914  0.529-  30 1.38  40 1.38  17 1.39   2 3.01   2 3.02
  11  0.086  0.529  0.471-  37 1.38  31 1.38  20 1.39   2 3.01   2 3.02
  12  0.588  0.029  0.971-  38 1.37  32 1.37  19 1.39
  13  0.192  0.308  0.251-  33 1.36  35 1.38  21 1.39   2 3.00
  14  0.692  0.808  0.749-  36 1.36  34 1.38  22 1.39   2 3.00
  15  0.750  0.750  0.250-  27 1.39  23 1.39  25 1.39
  16  0.250  0.250  0.750-  28 1.39  26 1.39  24 1.39
  17  0.545  0.137  0.455-  10 1.39   5 1.95   8 1.95   2 3.09   2 3.09
  18  0.045  0.635  0.955-   9 1.39   7 1.95   6 1.96
  19  0.365  0.955  0.045-  12 1.39   7 1.95   3 1.96
  20  0.863  0.455  0.545-  11 1.39   4 1.95   8 1.95   2 3.09   2 3.09
  21  0.341  0.160  0.250-  13 1.39   3 1.95   5 1.96   2 3.09
  22  0.840  0.659  0.750-  14 1.39   6 1.95   4 1.96   2 3.09
  23  0.676  0.527  0.325-  15 1.39   8 1.94   5 1.94
  24  0.176  0.027  0.824-  16 1.39   6 1.94   7 1.94
  25  0.973  0.824  0.176-  15 1.39   3 1.94   7 1.94
  26  0.473  0.324  0.675-  16 1.39   8 1.94   4 1.94
  27  0.601  0.898  0.250-  15 1.39   3 1.94   5 1.94
  28  0.102  0.399  0.750-  16 1.39   6 1.94   4 1.94
  29  0.766  0.358  0.114-   9 1.37   5 1.85   1 2.40
  30  0.261  0.860  0.610-  10 1.38   6 1.88   2 2.34
  31  0.236  0.387  0.486-  11 1.38   8 1.88   2 2.35
  32  0.741  0.892  0.986-  12 1.37   7 1.86   1 2.38
  33  0.280  0.536  0.191-  13 1.36   3 1.86   1 2.40
  34  0.788  0.036  0.685-  14 1.38   4 1.88   2 2.33
  35  0.964  0.212  0.315-  13 1.38   5 1.88   2 2.33
  36  0.464  0.720  0.809-  14 1.36   6 1.86   1 2.40
  37  0.140  0.739  0.390-  11 1.38   3 1.88   2 2.34
  38  0.642  0.234  0.886-  12 1.37   4 1.85   1 2.40
  39  0.108  0.259  0.014-   9 1.37   7 1.86   1 2.38
  40  0.613  0.764  0.514-  10 1.38   8 1.88   2 2.35

  LATTYP: Found a base centered monoclinic cell.
 ALAT       =     7.2940800000
 B/A-ratio  =     1.2834602856
 C/A-ratio  =     1.5324955902
 COS(beta)  =    -0.2285424729

  Lattice vectors:

 A1 = (  -4.6808310000,  -3.6470400000,   0.0000000000)
 A2 = (   4.6808310000,  -3.6470400000,   0.0000000000)
 A3 = (   0.0000000000,   2.5546810000,  10.8823040000)

Analysis of symmetry for initial positions (statically):
 Subroutine PRICEL returns:
 Original cell was already a primitive cell.

 Routine SETGRP: Setting up the symmetry group for a
 base centered monoclinic supercell.

 Subroutine GETGRP returns: Found  2 space group operations
 (whereof  2 operations were pure point group operations)
 out of a pool of  4 trial point group operations.

The static configuration has the point symmetry C_2 .

Analysis of symmetry for dynamics (positions and initial velocities):
 Subroutine PRICEL returns:
 Original cell was already a primitive cell.

[...]

The dynamic configuration has the point symmetry C_2 .

Analysis of structural, dynamic, and magnetic symmetry:
 Subroutine PRICEL returns:
 Original cell was already a primitive cell.

 Routine SETGRP: Setting up the symmetry group for a
 base centered monoclinic supercell.

 Subroutine GETGRP returns: Found  2 space group operations
 (whereof  2 operations were pure point group operations)
 out of a pool of  4 trial point group operations.

The overall configuration has the point symmetry C_2 .

 Subroutine INISYM returns: Found  2 space group operations
 (whereof  2 operations are pure point group operations),
 and found     1 'primitive' translations

                                     Primitive cell

  volume of cell :     371.5475

  direct lattice vectors                    reciprocal lattice vectors
     4.680831000  3.647040000  0.000000000     0.106818640  0.137097482 -0.032184391
    -4.680831000  3.647040000  0.000000000    -0.106818640  0.137097482 -0.032184391
     0.000000000  2.554681000 10.882304000     0.000000000 -0.000000000  0.091892305

  length of vectors
     5.933892450  5.933892450 11.178145435     0.176753434  0.176753434  0.091892305

  position of ions in fractional coordinates (direct lattice)
     0.499123000  0.500877000  0.000000000
     0.999968000  0.000032000  0.500000000
     0.277530000  0.834275000  0.222647000
     0.778321000  0.333360000  0.721522000
     0.666640000  0.221679000  0.278478000
     0.165725000  0.722470000  0.777353000
     0.056632000  0.943368000  0.000000000
     0.555807000  0.444193000  0.500000000
     0.970857000  0.412477000  0.029437000
     0.471012000  0.913769000  0.528749000
     0.086231000  0.528988000  0.471251000
     0.587523000  0.029143000  0.970563000
     0.191887000  0.307760000  0.251289000
     0.692240000  0.808113000  0.748711000
     0.749908000  0.749746000  0.250181000
     0.250254000  0.250092000  0.749819000
     0.545487000  0.136726000  0.454606000
     0.045489000  0.635399000  0.954860000
     0.364601000  0.954511000  0.045140000
     0.863274000  0.454513000  0.545394000
     0.341292000  0.159504000  0.249940000
     0.840496000  0.658708000  0.750060000
     0.675795000  0.527018000  0.324662000
     0.175660000  0.027066000  0.824198000
     0.972934000  0.824340000  0.175802000
     0.472982000  0.324205000  0.675338000
     0.601206000  0.898344000  0.250207000
     0.101656000  0.398794000  0.749793000
     0.766438000  0.357920000  0.113639000
     0.260855000  0.860499000  0.610205000
     0.235748000  0.386736000  0.485663000
     0.740870000  0.892310000  0.985726000
     0.279976000  0.535935000  0.190704000
     0.787536000  0.036065000  0.684962000
     0.963935000  0.212464000  0.315038000
     0.464065000  0.720024000  0.809296000
     0.139501000  0.739145000  0.389795000
     0.642080000  0.233562000  0.886361000
     0.107690000  0.259130000  0.014274000
     0.613264000  0.764252000  0.514337000

  ion indices of the primitive-cell ions
   primitive index   ion index
                 1           1
                 2           2
                 3           3
                 4           4
                 5           5
                 6           6
                 7           7
                 8           8
                 9           9
                10          10
                11          11
                12          12
                13          13
[...]
  318                map_forward                           0.000227                    4   7
  319                  map_gather                            0.000049                  2   8
  320                  m_alltoallv_z                         0.000026                  2   8
  321                  map_scatter                           0.000119                  2   8
  322                map_backward                          0.000102                    2   7
  323                  map_gather                            0.000023                  1   8
  324                  m_alltoallv_z                         0.000011                  1   8
  325                  map_scatter                           0.000048                  1   8
  326          m_sumb_d                              0.000009                          2   4
  327          pothar                                0.000087                          1   4
  328            m_sumb_d                              0.000011                        1   5
  329        brmix                                 0.007773                            1   3
  330          m_sumb_d                              0.000112                          6   4
  331          brpre                                 0.000034                          2   4
  332          setg0                                 0.001369                          1   4
  333          broyd                                 0.004750                          1   4
  334            m_sumb_d                              0.000589                       39   5
  335            brget                                 0.001054                      169   5
  336            brsav                                 0.000231                       37   5
  337        m_bcast_d                             0.000028                            2   3
  338      potlok                                0.050815                              2   2
  339        fft3d_mpi                             0.029179                           36   3
  340          fftbrc_mpi                            0.024487                         36   4
  341            fftbas_plan_mpi                       0.024467                       36   5
  342              map_forward                           0.007073                     40   6
  343                map_gather                            0.002137                   24   7
  344                m_alltoallv_z                         0.002713                   24   7
  345                map_scatter                           0.002023                   24   7
  346              map_backward                          0.006368                     32   6
  347                map_gather                            0.002026                   16   7
  348                m_alltoallv_z                         0.002368                   16   7
  349                map_scatter                           0.001754                   16   7
  350              dfftw_execute                         0.009302                     30   6
  351        m_sumb_d                              0.000030                            5   3
  352        pothar                                0.001883                            2   3
  353          m_sumb_d                              0.000133                          2   4
  354        m_bcast_d                             0.003184                            4   3
  355      potlok_metagga                        0.000000                              1   2
  356      set_dd_magatom                        0.000004                              1   2
  357      set_dd_paw                            2.858369                              1   2
  358        m_sumb_d                              0.736173                            7   3
  359      augmentation_charge                   0.162800                              1   2
  360        fft3d_mpi                             0.068694                            2   3
  361          fftbrc_mpi                            0.063238                          2   4
  362            fftbas_plan_mpi                       0.063234                        2   5
  363              dfftw_execute                         0.039697                      6   6
  364              map_backward                          0.023232                      4   6
  365                map_gather                            0.006676                    2   7
  366                m_alltoallv_z                         0.007801                    2   7
  367                map_scatter                           0.008743                    2   7
  368      fftwav_mpi                            5.808794                           3888   2
  369        fftwav                                5.803841                         3888   3
  370          fft3d                                 5.418933                       3888   4
  371      densta                                6.771730                              1   2

 Flat profile

 set_dd_paw                             74.009772          35
 m_sumb_d                               62.656534      279457
 eddav                                  47.391312          37
 raccmu_                                44.886401       91333
 lapack                                 42.278127       91333
 redis_pw                               21.357355      502782
 total_time                             15.763410           1
 init_acc                               12.143793           1
 fft3d                                  10.831496      553904
 m_alltoall_d                            9.365082     1333094
 densta                                  8.927085          38
 phaser                                  8.071819        1566
 setdij_                                 5.311507          61
 eccp                                    5.086692       47952
 dfftw_execute                           4.326749        1284
 orth1                                   4.281361      274179
 redis_proj                              4.181444      637532
 fftwav                                  4.062496      371238
 acc_init_cublas                         3.409838           1
 augmentation_charge                     3.280040          35
 rpromu_acc                              2.928320       71569
 racc0mu_acc                             2.676283       91333
 hamiltmu                                2.667294       91333
 w1_copy                                 2.636217      547998
 overl                                   2.597277      317416
 m_bcast_z                               2.441841       96517
 soft_charge                             1.822502          34
 setup_precond                           1.737762       47952
 m_bcast_d                               1.576567      182741
 overl_mu                                1.397722       91333
 ggemm                                   1.392156      115309
 pw_charge                               1.156199       33122
 m_alltoallv_z                           1.144284        1495
 acc_init_cusolver                       1.036497           1
 rpro_isp                                0.873518         234
 kinhamil                                0.821293      182666
 vhamil                                  0.821161      182666
 map_scatter                             0.785866        1495
 fftext_mpi                              0.767131      182666
 newband                                 0.759588       92665
 fft3d_mpi                               0.743790      184003
 apply_precond                           0.725770      134714
 depsum                                  0.710004          34
 map_gather                              0.600580        1495
 fftwav_mpi                              0.502790      371238
 set_charge                              0.447493          34
 sphpro_fast                             0.362117           2
 rspher_all                              0.258824          14
 acc_cufft_makeplan                      0.201507          19
 potlok                                  0.195381          35
 elmin                                   0.119257           1
 brmix                                   0.091769          33
 fftbas_plan_mpi                         0.087832        1337
 proall                                  0.080849           1
 w1_projall                              0.069168       67357
 lincom                                  0.047551        1368
 setg0                                   0.045475          35
 broyd                                   0.042926          33
 orthch                                  0.040469           1
 stufak                                  0.025536           1
 force_and_stress                        0.024929           1
 choleski                                0.022021          36
 brget                                   0.018589        2931
 truncate_high_frequency_w1              0.017847      230618
 map_backward                            0.008792        1394
 map_forward                             0.007555        1280
 strnlr                                  0.007549           1
 forhar                                  0.005035           2
 pothar                                  0.004595          36
 brsav                                   0.004420         699
 inisym                                  0.004321           1
 fft_gq                                  0.003582          34
 fornlr                                  0.002617           1
 forloc                                  0.002591           1
 strelo                                  0.002538           1
 strehar                                 0.001948           1
 strkin                                  0.001677           1
 rsp                                     0.001655           1
 brpre                                   0.001211          66
 fftbrc_mpi                              0.000828        1337
 fewald                                  0.000349           1
 brgrid                                  0.000261           1
 chggra                                  0.000252           1
 set_dd_magatom                          0.000160          35
 vectorpot                               0.000147          34
 fordep                                  0.000115           1
 rcp                                     0.000063           1
 crpa_reader                             0.000027           1
 posmap                                  0.000027           2
 acc_cufft_makeplans                     0.000015           3
 potlok_metagga                          0.000003          34
 rotate_active_occupied_orbital          0.000001           1
 redis_pw_over_bands                     0.000000           1
  summed up times     429.2066001892090

 Accumulative profile

 total_time                            429.206600           1
 elmin                                 365.586104           1
 eddav                                 252.720081          37
 set_dd_paw                             99.901524          35
 m_sumb_d                               62.656534      279457
 hamiltmu                               55.369714       91333
 raccmu_                                48.960406       91333
 lapack                                 42.278127       91333
 redis_pw                               25.945172      502782
 fftwav_mpi                             14.120007      371238
 fftwav                                 13.617218      371238
 set_charge                             12.511626          34
 init_acc                               12.143793           1
 newband                                11.241247       92665
 force_and_stress                       11.130523           1
 fft3d                                  10.831496      553904
 setdij_                                 9.891274          61
 m_alltoall_d                            9.365082     1333094
 fft3d_mpi                               8.983051      184003
 redis_proj                              8.958710      637532
 densta                                  8.927085          38
 phaser                                  8.071819        1566
 fftbrc_mpi                              6.962486        1337
 fftbas_plan_mpi                         6.961658        1337
 soft_charge                             5.740398          34
 augmentation_charge                     5.692307          35
 eccp                                    5.086692       47952
 dfftw_execute                           4.326749        1284
 orth1                                   4.281361      274179
 acc_init_cublas                         3.409838           1
 rpromu_acc                              2.928320       71569
 kinhamil                                2.920853      182666
 strnlr                                  2.773869           1
 racc0mu_acc                             2.676283       91333
 w1_copy                                 2.636217      547998
 overl                                   2.597277      317416
 m_bcast_z                               2.441841       96517
 rpro_isp                                2.366273         234
 fftext_mpi                              2.099560      182666
 w1_projall                              2.019622       67357
 setup_precond                           1.737762       47952
 m_bcast_d                               1.576567      182741
 overl_mu                                1.397722       91333
 ggemm                                   1.392156      115309
 map_forward                             1.365414        1280
 map_backward                            1.181663        1394
 pw_charge                               1.156199       33122
 m_alltoallv_z                           1.144284        1495
 acc_init_cusolver                       1.036497           1
 fordep                                  0.967799           1
 fornlr                                  0.927520           1
 vhamil                                  0.821161      182666
 map_scatter                             0.785866        1495
 apply_precond                           0.725770      134714
 depsum                                  0.724962          34
 map_gather                              0.600580        1495
 orthch                                  0.522906           1
 potlok                                  0.508484          35
 sphpro_fast                             0.379228           2
 rspher_all                              0.258824          14
 proall                                  0.240655           1
 brmix                                   0.219335          33
 acc_cufft_makeplans                     0.201522           3
 acc_cufft_makeplan                      0.201507          19
 fft_gq                                  0.113250          34
 broyd                                   0.076663          33
 lincom                                  0.047551        1368
 setg0                                   0.045475          35
 stufak                                  0.025536           1
 choleski                                0.022021          36
 brget                                   0.018589        2931
 truncate_high_frequency_w1              0.017847      230618
 forhar                                  0.005094           2
 pothar                                  0.004981          36
 fewald                                  0.004738           1
 brsav                                   0.004420         699
 inisym                                  0.004348           1
 forloc                                  0.004312           1
 strelo                                  0.002627           1
 strehar                                 0.001951           1
 strkin                                  0.001691           1
 rsp                                     0.001655           1
 brpre                                   0.001211          66
 chggra                                  0.000874           1
 brgrid                                  0.000261           1
 set_dd_magatom                          0.000160          35
 vectorpot                               0.000147          34
 rcp                                     0.000063           1
 crpa_reader                             0.000027           1
 posmap                                  0.000027           2
 potlok_metagga                          0.000003          34
 rotate_active_occupied_orbital          0.000001           1
 redis_pw_over_bands                     0.000000           1

Profiling took   1.148463  0.563088  0.003268  0.003171 seconds
Profiling took   0.742996 seconds