 vasp.6.3.2 27Jun22 (build Jul  3 2023 11:46:21) complex
 executed on    LinuxNV_CrayMPICH date 2024.04.22  03:29:00

 INCAR:
   ADDGRID = True
   ALGO = Normal
   EDIFF = 0.00105
   ENCUT = 520.0
   IBRION = -1
   ICHARG = 0
   ISIF = 3
   ISMEAR = -5
   ISPIN = 2
   ISTART = 1
   KPOINT_BSE = -1 0 0 0
   LAECHG = True
   LASPH = True
   LCHARG = True
   LELF = True
   LORBIT = 11
   LREAL = Auto
   LVHAR = True
   LWAVE = False
   MAGMOM = 2*7.0 19*0.6
   NELM = 1000
   NSW = 0
   PREC = accurate
   SIGMA = 0.05

 POTCAR:    PAW_PBE Gd 23Dec2003
 POTCAR:    PAW_PBE P 06Sep2000
 POTCAR:    PAW_PBE Rh_pv 25Jan2005
 POTCAR:    PAW_PBE Gd 23Dec2003
   VRHFIN =Gd : [core=Xe4]

   TITEL  = PAW_PBE Gd 23Dec2003
   POMASS =  157.250; ZVAL   =   18.000    mass and valenz
   ENMAX  =  256.472; ENMIN  =  192.354 eV

   TITEL  = PAW_PBE P 06Sep2000
   POMASS =   30.974; ZVAL   =    5.000    mass and valenz
   ENMAX  =  255.040; ENMIN  =  191.280 eV

   TITEL  = PAW_PBE Rh_pv 25Jan2005
   POMASS =  102.906; ZVAL   =   15.000    mass and valenz
   ENMAX  =  247.408; ENMIN  =  185.556 eV

 Optimization of the real space projectors (new method)

 maximal supplied QI-value         = 13.42
 optimisation between [QCUT,QGAM] = [ 11.67, 23.35] = [ 38.16,152.62] Ry
 Optimized for a Real-space Cutoff    1.63 Angstroem

   l    n(q)    QCUT    max X(q) W(low)/X(q) W(high)/X(q)  e(spline)
   0     11    11.673    10.501    0.14E-04    0.17E-05    0.21E-07
   0     11    11.673     9.148    0.21E-04    0.32E-05    0.45E-07
   1     11    11.673     4.035    0.33E-05    0.11E-04    0.84E-07
   1     11    11.673     4.388    0.11E-04    0.47E-04    0.34E-06
   2     10    11.673    20.656    0.12E-04    0.28E-04    0.54E-06
   2     10    11.673    12.651    0.11E-04    0.26E-04    0.51E-06
   3     10    11.673    61.921    0.19E-03    0.22E-03    0.23E-06
   3     10    11.673    48.328    0.20E-03    0.23E-03    0.23E-06
 Optimization of the real space projectors (new method)

[...]

   l    n(q)    QCUT    max X(q) W(low)/X(q) W(high)/X(q)  e(spline)
   0      8    11.508   160.924    0.96E-04    0.17E-03    0.52E-07
   0      8    11.508   130.086    0.95E-04    0.17E-03    0.51E-07
   1      8    11.508    74.434    0.16E-03    0.74E-04    0.91E-07
   1      8    11.508    49.120    0.16E-03    0.71E-04    0.89E-07
 Optimization of the real space projectors (new method)

 maximal supplied QI-value         = 15.68
 optimisation between [QCUT,QGAM] = [ 11.61, 23.21] = [ 37.72,150.90] Ry
 Optimized for a Real-space Cutoff    1.45 Angstroem

   l    n(q)    QCUT    max X(q) W(low)/X(q) W(high)/X(q)  e(spline)
   1     10    11.607     3.143    0.27E-04    0.48E-04    0.10E-06
   1     10    11.607     5.034    0.71E-04    0.17E-03    0.32E-06
   2      9    11.607    64.180    0.22E-03    0.59E-04    0.28E-06
   2      9    11.607    61.342    0.22E-03    0.61E-04    0.29E-06
   0     10    11.607    55.593    0.52E-04    0.32E-04    0.17E-06
   0     10    11.607    26.178    0.47E-04    0.29E-04    0.15E-06
  PAW_PBE Gd 23Dec2003                  :
  PAW_PBE P 06Sep2000                   :
  PAW_PBE Rh_pv 25Jan2005               :

 POSCAR: Gd2 P7 Rh12
  positions in direct lattice
 exchange correlation table for  LEXCH =        8
   RHO(1)=    0.500       N(1)  =     2000
   RHO(2)=  100.500       N(2)  =     4000

 VTST: version 4.2, (08/11/21)

 CHAIN: initializing optimizer

 OPT: Using VASP Dynamics algorithm
 CHAIN: Read ICHAIN             0

 POSCAR: Gd2 P7 Rh12
  positions in direct lattice

 ion  position               nearest neighbor table
   1  0.333  0.667  0.251-   9 3.03   7 3.03   8 3.03   9 3.05   7 3.05   8 3.05  15 3.06  14 3.06
                            13 3.06  15 3.06  14 3.06  13 3.06  16 3.39  18 3.39  17 3.39  11 3.44
   2  0.667  0.333  0.749-   6 3.03   4 3.03   5 3.03   6 3.05   4 3.05   5 3.05  12 3.06  11 3.06
                            10 3.06  12 3.06  11 3.06  10 3.06  19 3.39  21 3.39  20 3.39  14 3.44
   3  0.000  0.000  0.500-  16 2.39  19 2.39  18 2.39  21 2.39  20 2.39  17 2.39
   4  0.404  0.117  0.247-  16 2.34  12 2.35  10 2.36  20 2.48  20 2.49  15 2.56  15 2.58   2 3.03
                             2 3.05
   5  0.713  0.596  0.247-  17 2.34  10 2.35  11 2.36  21 2.48  21 2.49  13 2.56  13 2.58   2 3.03
                             2 3.05
   6  0.883  0.287  0.247-  18 2.34  11 2.35  12 2.36  19 2.48  19 2.49  14 2.56  14 2.58   2 3.03
                             2 3.05
   7  0.596  0.883  0.753-  19 2.34  15 2.35  13 2.36  17 2.48  17 2.49  12 2.56  12 2.58   1 3.03
                             1 3.05
   8  0.287  0.404  0.753-  20 2.34  13 2.35  14 2.36  18 2.48  18 2.49  10 2.56  10 2.58   1 3.03
                             1 3.05
   9  0.117  0.713  0.753-  21 2.34  14 2.35  15 2.36  16 2.48  16 2.49  11 2.56  11 2.58   1 3.03
                             1 3.05
  10  0.449  0.382  0.249-   5 2.35   4 2.36   8 2.56   8 2.58  13 2.77  13 2.78  20 2.83  20 2.83
                            18 2.85   2 3.06   2 3.06   1 3.44
  11  0.933  0.551  0.249-   6 2.35   5 2.36   9 2.56   9 2.58  14 2.77  14 2.78  21 2.83  21 2.83
                            16 2.85   2 3.06   2 3.06   1 3.44
  12  0.618  0.067  0.249-   4 2.35   6 2.36   7 2.56   7 2.58  15 2.77  15 2.78  19 2.83  19 2.83
                            17 2.85   2 3.06   2 3.06   1 3.44
  13  0.551  0.618  0.751-   8 2.35   7 2.36   5 2.56   5 2.58  10 2.77  10 2.78  17 2.83  17 2.83
                            21 2.85   1 3.06   1 3.06   2 3.44
  14  0.067  0.449  0.751-   9 2.35   8 2.36   6 2.56   6 2.58  11 2.77  11 2.78  18 2.83  18 2.83
                            19 2.85   1 3.06   1 3.06   2 3.44
  15  0.382  0.933  0.751-   7 2.35   9 2.36   4 2.56   4 2.58  12 2.77  12 2.78  16 2.83  16 2.83
                            20 2.85   1 3.06   1 3.06   2 3.44
  16  0.149  0.888  0.250-   4 2.34   3 2.39   9 2.48   9 2.49  15 2.83  15 2.83  11 2.85  20 2.92
                            21 2.92  20 2.93  21 2.93   1 3.39
  17  0.739  0.851  0.250-   5 2.34   3 2.39   7 2.48   7 2.49  13 2.83  13 2.83  12 2.85  21 2.92
                            19 2.92  21 2.93  19 2.93   1 3.39
  18  0.112  0.261  0.250-   6 2.34   3 2.39   8 2.48   8 2.49  14 2.83  14 2.83  10 2.85  20 2.92
                            19 2.92  20 2.93  19 2.93   1 3.39
  19  0.851  0.112  0.750-   7 2.34   3 2.39   6 2.48   6 2.49  12 2.83  12 2.83  14 2.85  17 2.92
                            18 2.92  17 2.93  18 2.93   2 3.39
  20  0.261  0.149  0.750-   8 2.34   3 2.39   4 2.48   4 2.49  10 2.83  10 2.83  15 2.85  18 2.92
                            16 2.92  18 2.93  16 2.93   2 3.39
  21  0.888  0.739  0.750-   9 2.34   3 2.39   5 2.48   5 2.49  11 2.83  11 2.83  13 2.85  17 2.92
                            16 2.92  17 2.93  16 2.93   2 3.39

  LATTYP: Found a hexagonal cell.
 ALAT       =     9.6423674452
 C/A-ratio  =     0.4024680684

  Lattice vectors:

 A1 = (   4.8211840000,  -8.3505350000,   0.0000000000)
 A2 = (   4.8211840000,   8.3505350000,   0.0000000000)
 A3 = (   0.0000000000,   0.0000000000,   3.8807450000)

Analysis of symmetry for initial positions (statically):
 Subroutine PRICEL returns:
 Original cell was already a primitive cell.

 Routine SETGRP: Setting up the symmetry group for a
 hexagonal supercell.

 Subroutine GETGRP returns: Found  6 space group operations
 (whereof  6 operations were pure point group operations)
 out of a pool of 24 trial point group operations.

The static configuration has the point symmetry S_6 .

Analysis of symmetry for dynamics (positions and initial velocities):
 Subroutine PRICEL returns:
 Original cell was already a primitive cell.

[...]

The dynamic configuration has the point symmetry S_6 .

Analysis of structural, dynamic, and magnetic symmetry:
 Subroutine PRICEL returns:
 Original cell was already a primitive cell.

 Routine SETGRP: Setting up the symmetry group for a
 hexagonal supercell.

 Subroutine GETGRP returns: Found  6 space group operations
 (whereof  6 operations were pure point group operations)
 out of a pool of 24 trial point group operations.

The overall configuration has the point symmetry S_6 .

 Subroutine INISYM returns: Found  6 space group operations
 (whereof  6 operations are pure point group operations),
 and found     1 'primitive' translations

                                     Primitive cell

  volume of cell :     312.4734

  direct lattice vectors                    reciprocal lattice vectors
     4.821184000 -8.350535000  0.000000000     0.103708964 -0.059876403  0.000000000
     4.821184000  8.350535000  0.000000000     0.103708964  0.059876403 -0.000000000
     0.000000000  0.000000000  3.880745000    -0.000000000  0.000000000  0.257682481

  length of vectors
     9.642367445  9.642367445  3.880745000     0.119752799  0.119752799  0.257682481

  position of ions in fractional coordinates (direct lattice)
     0.333333000  0.666667000  0.250979000
     0.666667000  0.333333000  0.749021000
     0.000000000  0.000000000  0.500000000
     0.404007000  0.117485000  0.246806000
     0.713478000  0.595993000  0.246806000
     0.882515000  0.286522000  0.246806000
     0.595993000  0.882515000  0.753194000
     0.286522000  0.404007000  0.753194000
     0.117485000  0.713478000  0.753194000
     0.448915000  0.381568000  0.248924000
     0.932653000  0.551085000  0.248924000
     0.618432000  0.067347000  0.248924000
     0.551085000  0.618432000  0.751076000
     0.067347000  0.448915000  0.751076000
     0.381568000  0.932653000  0.751076000
     0.149164000  0.888100000  0.250201000
     0.738936000  0.850836000  0.250201000
     0.111900000  0.261064000  0.250201000
     0.850836000  0.111900000  0.749799000
     0.261064000  0.149164000  0.749799000
     0.888100000  0.738936000  0.749799000

  ion indices of the primitive-cell ions
   primitive index   ion index
                 1           1
                 2           2
                 3           3
                 4           4
                 5           5
                 6           6
                 7           7
                 8           8
                 9           9
                10          10
                11          11
                12          12
                13          13
                14          14
                15          15
                16          16
                17          17
                18          18
                19          19
                20          20
                21          21

 KPOINTS: Kpoints from vasprun.xml

Automatic generation of k-mesh.
 Grid dimensions read from file:
 generate k-points for:    3    3    7

 Generating k-lattice:

  Cartesian coordinates                     Fractional coordinates (reciprocal lattice)
     0.034569655 -0.019958801  0.000000000     0.333333333  0.000000000  0.000000000
     0.034569655  0.019958801 -0.000000000     0.000000000  0.333333333  0.000000000
    -0.000000000  0.000000000  0.036811783     0.000000000  0.000000000  0.142857143

  Length of vectors
     0.039917600  0.039917600  0.036811783

  Shift w.r.t. Gamma in fractional coordinates (k-lattice)
[...]
  290                map_forward                           0.000219                    4   7
  291                  map_gather                            0.000052                  2   8
  292                  m_alltoallv_z                         0.000024                  2   8
  293                  map_scatter                           0.000110                  2   8
  294                map_backward                          0.000093                    2   7
  295                  map_gather                            0.000023                  1   8
  296                  m_alltoallv_z                         0.000010                  1   8
  297                  map_scatter                           0.000045                  1   8
  298          m_sumb_d                              0.000009                          2   4
  299          pothar                                0.000082                          1   4
  300            m_sumb_d                              0.000008                        1   5
  301        brmix                                 0.009924                            1   3
  302          m_sumb_d                              0.000024                          6   4
  303          brpre                                 0.000030                          2   4
  304          setg0                                 0.001093                          1   4
  305          broyd                                 0.007323                          1   4
  306            m_sumb_d                              0.000315                       50   5
  307            brget                                 0.001464                      224   5
  308            brsav                                 0.000304                       48   5
  309        m_bcast_d                             0.000025                            2   3
  310      potlok                                0.038448                              2   2
  311        fft3d_mpi                             0.024703                           36   3
  312          fftbrc_mpi                            0.020813                         36   4
  313            fftbas_plan_mpi                       0.020797                       36   5
  314              map_forward                           0.005978                     40   6
  315                map_gather                            0.001846                   24   7
  316                m_alltoallv_z                         0.002146                   24   7
  317                map_scatter                           0.001789                   24   7
  318              map_backward                          0.004952                     32   6
  319                map_gather                            0.001726                   16   7
  320                m_alltoallv_z                         0.001557                   16   7
  321                map_scatter                           0.001486                   16   7
  322              dfftw_execute                         0.008356                     30   6
  323        m_sumb_d                              0.000024                            5   3
  324        pothar                                0.001579                            2   3
  325          m_sumb_d                              0.000121                          2   4
  326        m_bcast_d                             0.002537                            4   3
  327      potlok_metagga                        0.000000                              1   2
  328      set_dd_magatom                        0.000004                              1   2
  329      set_dd_paw                            2.759631                              1   2
  330        m_sumb_d                              0.930084                            7   3
  331      augmentation_charge                   0.166378                              1   2
  332        fft3d_mpi                             0.057819                            2   3
  333          fftbrc_mpi                            0.051343                          2   4
  334            fftbas_plan_mpi                       0.051340                        2   5
  335              dfftw_execute                         0.032438                      6   6
  336              map_backward                          0.018648                      4   6
  337                map_gather                            0.004447                    2   7
  338                m_alltoallv_z                         0.007847                    2   7
  339                map_scatter                           0.006344                    2   7
  340      fftwav_mpi                            4.336752                           4428   2
  341        fftwav                                4.331167                         4428   3
  342          fft3d                                 3.973140                       4428   4
  343      densta                                5.667982                              1   2

 Flat profile

 m_sumb_d                              107.376964      454225
 set_dd_paw                            104.318054          56
 eddav                                  74.031224          58
 raccmu_                                68.873922      149250
 lapack                                 64.825146      149250
 redis_pw                               33.575202      784050
 total_time                             14.937052           1
 m_alltoall_d                           14.778799     2112278
 densta                                 11.715593          59
 init_acc                               11.696761           1
 fft3d                                  10.345806      865637
 phaser                                  9.449937        2322
 eccp                                    8.681179       85608
 setdij_                                 8.486527          82
 redis_proj                              6.626240      986948
 fftwav                                  6.061377      577167
 augmentation_charge                     6.005519          55
 orth1                                   5.911095      447966
 dfftw_execute                           5.540583        1776
 racc0mu_acc                             4.301439      149250
 w1_copy                                 4.200870      865410
 hamiltmu                                4.150897      149250
 rpromu_acc                              4.146004      110550
 overl                                   4.087668      491368
 m_bcast_z                               3.564759      155154
 soft_charge                             3.318923          54
 setup_precond                           3.076943       85608
 ggemm                                   2.741426      193098
 m_bcast_d                               2.522757      298617
 acc_init_cublas                         2.441210           1
 overl_mu                                2.274820      149250
 pw_charge                               2.013334       62219
 depsum                                  1.320072          54
 vhamil                                  1.319219      288470
 kinhamil                                1.311735      288470
 newband                                 1.285956      151338
 m_alltoallv_z                           1.283174        2287
 fftext_mpi                              1.225856      288470
 apply_precond                           1.116429      202862
 rpro_isp                                1.004844         234
 map_scatter                             0.929996        2287
 fft3d_mpi                               0.907892      290517
 acc_init_cusolver                       0.799885           1
 fftwav_mpi                              0.770727      577167
 map_gather                              0.652197        2287
 set_charge                              0.559636          54
 rspher_all                              0.266837          14
 sphpro_fast                             0.263428           2
 potlok                                  0.259325          56
 elmin                                   0.150443           1
 broyd                                   0.143330          54
 acc_cufft_makeplan                      0.115488          19
 fftbas_plan_mpi                         0.114911        2047
 brmix                                   0.108393          54
 w1_projall                              0.099771      105402
 lincom                                  0.095908        2124
 proall                                  0.084743           1
 setg0                                   0.061909          56
 brget                                   0.049490        7544
 orthch                                  0.038216           1
 truncate_high_frequency_w1              0.028701      374078
 force_and_stress                        0.023026           1
 choleski                                0.016879          36
 brsav                                   0.012167        1880
 map_forward                             0.011787        1952
 map_backward                            0.011654        2142
 stufak                                  0.011349           1
 strnlr                                  0.006943           1
 pothar                                  0.005868          57
 inisym                                  0.004905           1
 fft_gq                                  0.004611          54
 strelo                                  0.002754           1
 forhar                                  0.002491           2
 fornlr                                  0.002375           1
 brpre                                   0.001885         108
 strehar                                 0.001734           1
 strkin                                  0.001498           1
 forloc                                  0.001304           1
 fftbrc_mpi                              0.001260        2047
 rsp                                     0.000480           1
 fewald                                  0.000330           1
 set_dd_magatom                          0.000256          56
 vectorpot                               0.000236          55
 chggra                                  0.000232           1
 brgrid                                  0.000227           1
 fordep                                  0.000106           1
 rcp                                     0.000037           1
 posmap                                  0.000033           2
 crpa_reader                             0.000026           1
 acc_cufft_makeplans                     0.000009           3
 potlok_metagga                          0.000006          55
 rotate_active_occupied_orbital          0.000000           1
 redis_pw_over_bands                     0.000000           1
  summed up times     632.5730080604553

 Accumulative profile

 total_time                            632.573008           1
 elmin                                 576.139828           1
 eddav                                 391.057248          58
 set_dd_paw                            155.965384          56
 m_sumb_d                              107.376964      454225
 hamiltmu                               85.580630      149250
 raccmu_                                75.450181      149250
 lapack                                 64.825146      149250
 redis_pw                               40.933865      784050
 newband                                19.784271      151338
 set_charge                             18.502382          54
 fftwav_mpi                             15.142508      577167
 m_alltoall_d                           14.778799     2112278
 fftwav                                 14.371781      577167
 redis_proj                             14.046376      986948
 setdij_                                13.963301          82
 densta                                 11.715593          59
 init_acc                               11.696761           1
 fft3d_mpi                              11.488855      290517
 force_and_stress                       11.363605           1
 fft3d                                  10.345806      865637
 phaser                                  9.449937        2322
 augmentation_charge                     9.138438          55
 eccp                                    8.681179       85608
 fftbrc_mpi                              8.545561        2047
 fftbas_plan_mpi                         8.544301        2047
 soft_charge                             7.546665          54
 orth1                                   5.911095      447966
 dfftw_execute                           5.540583        1776
 kinhamil                                4.660333      288470
 racc0mu_acc                             4.301439      149250
 w1_copy                                 4.200870      865410
 rpromu_acc                              4.146004      110550
 overl                                   4.087668      491368
 m_bcast_z                               3.564759      155154
 fftext_mpi                              3.348598      288470
 w1_projall                              3.101150      105402
 setup_precond                           3.076943       85608
 strnlr                                  2.867629           1
 ggemm                                   2.741426      193098
 rpro_isp                                2.737014         234
 m_bcast_d                               2.522757      298617
 acc_init_cublas                         2.441210           1
 overl_mu                                2.274820      149250
 pw_charge                               2.013334       62219
 map_forward                             1.546474        1952
 map_backward                            1.342333        2142
 depsum                                  1.332734          54
 vhamil                                  1.319219      288470
 m_alltoallv_z                           1.283174        2287
 apply_precond                           1.116429      202862
 fordep                                  1.017968           1
 fornlr                                  0.945070           1
 map_scatter                             0.929996        2287
 acc_init_cusolver                       0.799885           1
 potlok                                  0.714208          56
 map_gather                              0.652197        2287
 orthch                                  0.422400           1
 brmix                                   0.393518          54
 sphpro_fast                             0.273439           2
 rspher_all                              0.266837          14
 proall                                  0.238874           1
 broyd                                   0.217281          54
 fft_gq                                  0.130967          54
 acc_cufft_makeplans                     0.115497           3
 acc_cufft_makeplan                      0.115488          19
 lincom                                  0.095908        2124
 setg0                                   0.061909          56
 brget                                   0.049490        7544
 truncate_high_frequency_w1              0.028701      374078
 choleski                                0.016879          36
 brsav                                   0.012167        1880
 stufak                                  0.011349           1
 pothar                                  0.006432          57
 inisym                                  0.004938           1
 strelo                                  0.002764           1
 forhar                                  0.002554           2
 brpre                                   0.001885         108
 strehar                                 0.001740           1
 forloc                                  0.001606           1
 strkin                                  0.001511           1
 fewald                                  0.001127           1
 chggra                                  0.000824           1
 rsp                                     0.000480           1
 set_dd_magatom                          0.000256          56
 vectorpot                               0.000236          55
 brgrid                                  0.000227           1
 rcp                                     0.000037           1
 posmap                                  0.000033           2
 crpa_reader                             0.000026           1
 potlok_metagga                          0.000006          55
 rotate_active_occupied_orbital          0.000000           1
 redis_pw_over_bands                     0.000000           1

Profiling took   1.842206  0.904943  0.003456  0.003368 seconds
Profiling took   1.180075 seconds