 vasp.6.3.2 27Jun22 (build Jul  3 2023 11:46:21) complex
 executed on    LinuxNV_CrayMPICH date 2024.04.20  17:30:05

 INCAR:
   ALGO = All
   EDIFF = 0.0014
   ENCUT = 520.0
   IBRION = -1
   ISIF = 3
   ISMEAR = -5
   ISPIN = 2
   KPAR = 8
   LAECHG = True
   LASPH = True
   LCHARG = True
   LORBIT = 11
   LREAL = Auto
   LVHAR = True
   LWAVE = False
   MAGMOM = 6*0.6 2*7.0 20*0.6
   NELM = 1000
   NPAR = 4
   NSW = 0
   PREC = Accurate
   SIGMA = 0.05

 POTCAR:    PAW_PBE K_sv 06Sep2000
 POTCAR:    PAW_PBE Gd 23Dec2003
 POTCAR:    PAW_PBE As 22Sep2009
 POTCAR:    PAW_PBE S 06Sep2000
 POTCAR:    PAW_PBE K_sv 06Sep2000
   VRHFIN =K:  3s3p4s

   TITEL  = PAW_PBE K_sv 06Sep2000
   POMASS =   39.098; ZVAL   =    9.000    mass and valenz
   ENMAX  =  259.264; ENMIN  =  194.448 eV

   TITEL  = PAW_PBE Gd 23Dec2003
   POMASS =  157.250; ZVAL   =   18.000    mass and valenz
   ENMAX  =  256.472; ENMIN  =  192.354 eV

   TITEL  = PAW_PBE As 22Sep2009
   POMASS =   74.922; ZVAL   =    5.000    mass and valenz
   ENMAX  =  208.702; ENMIN  =  156.526 eV

   TITEL  = PAW_PBE S 06Sep2000
   POMASS =   32.066; ZVAL   =    6.000    mass and valenz
   ENMAX  =  258.689; ENMIN  =  194.016 eV

 Optimization of the real space projectors (new method)

 maximal supplied QI-value         = 16.25
 optimisation between [QCUT,QGAM] = [ 11.54, 23.24] = [ 37.28,151.24] Ry
 Optimized for a Real-space Cutoff    1.32 Angstroem

   l    n(q)    QCUT    max X(q) W(low)/X(q) W(high)/X(q)  e(spline)
   0      9    11.539    11.234    0.52E-04    0.40E-04    0.14E-07
   0      9    11.539    12.505    0.97E-04    0.77E-04    0.27E-07
   1      9    11.539   167.359    0.18E-03    0.11E-02    0.48E-06
   1      9    11.539   168.875    0.18E-03    0.11E-02    0.48E-06
   2      8    11.539     3.435    0.16E-03    0.11E-03    0.38E-07
 Optimization of the real space projectors (new method)

[...]

   l    n(q)    QCUT    max X(q) W(low)/X(q) W(high)/X(q)  e(spline)
   0      9    11.669   117.213    0.18E-03    0.48E-04    0.71E-07
   0      9    11.669    98.411    0.18E-03    0.47E-04    0.71E-07
   1      8    11.669    10.093    0.24E-03    0.36E-03    0.11E-06
   1      8    11.669     5.228    0.21E-03    0.33E-03    0.10E-06
   2      8    11.669     4.067    0.19E-03    0.44E-04    0.46E-07
 Optimization of the real space projectors (new method)

 maximal supplied QI-value         = 19.84
 optimisation between [QCUT,QGAM] = [ 11.51, 23.22] = [ 37.09,150.92] Ry
 Optimized for a Real-space Cutoff    1.21 Angstroem

   l    n(q)    QCUT    max X(q) W(low)/X(q) W(high)/X(q)  e(spline)
   0      8    11.508   187.594    0.96E-04    0.18E-03    0.54E-07
   0      8    11.508   164.243    0.96E-04    0.18E-03    0.54E-07
   1      8    11.508    67.533    0.18E-03    0.65E-04    0.94E-07
   1      8    11.508    50.729    0.18E-03    0.63E-04    0.92E-07
  PAW_PBE K_sv 06Sep2000                :
  PAW_PBE Gd 23Dec2003                  :
  PAW_PBE As 22Sep2009                  :
  PAW_PBE S 06Sep2000                   :

 POSCAR: K6 Gd2 As4 S16
  positions in direct lattice
 exchange correlation table for  LEXCH =        8
   RHO(1)=    0.500       N(1)  =     2000
   RHO(2)=  100.500       N(2)  =     4000

 VTST: version 4.2, (08/11/21)

 CHAIN: initializing optimizer

 OPT: Using VASP Dynamics algorithm
 CHAIN: Read ICHAIN             0

 POSCAR: K6 Gd2 As4 S16
  positions in direct lattice

 ion  position               nearest neighbor table
   1  0.755  0.005  0.010-  15 3.22  16 3.22
   2  0.245  0.995  0.990-  13 3.22  14 3.22
   3  0.000  0.500  0.000-  14 3.16  16 3.16  15 3.30  13 3.30
   4  0.500  0.500  0.000-  13 3.16  15 3.16  14 3.30  16 3.30
   5  0.988  0.738  0.476-  17 3.27  18 3.27
   6  0.012  0.262  0.524-  19 3.27  20 3.27
   7  0.507  0.757  0.514-  18 2.81  17 2.81  25 2.84  26 2.84  24 3.05  23 3.05  21 3.10  22 3.10

   8  0.493  0.243  0.486-  20 2.81  19 2.81  27 2.84  28 2.84  22 3.05  21 3.05  23 3.10  24 3.10

   9  0.507  0.905  0.248-  13 2.16  26 2.20  19 2.20  23 2.20
  10  0.241  0.343  0.248-  14 2.16  25 2.20  20 2.20  24 2.20
  11  0.493  0.095  0.752-  15 2.16  28 2.20  17 2.20  21 2.20
  12  0.759  0.657  0.752-  16 2.16  27 2.20  18 2.20  22 2.20
  13  0.387  0.759  0.025-   9 2.16   4 3.16   2 3.22   3 3.30
  14  0.138  0.265  0.025-  10 2.16   3 3.16   2 3.22   4 3.30
  15  0.613  0.241  0.975-  11 2.16   4 3.16   1 3.22   3 3.30
  16  0.862  0.735  0.975-  12 2.16   3 3.16   1 3.22   4 3.30
  17  0.364  0.841  0.709-  11 2.20   7 2.81   5 3.27
  18  0.844  0.867  0.709-  12 2.20   7 2.81   5 3.27
  19  0.636  0.159  0.291-   9 2.20   8 2.81   6 3.27
  20  0.156  0.133  0.291-  10 2.20   8 2.81   6 3.27
  21  0.685  0.125  0.653-  11 2.20   8 3.05   7 3.10
  22  0.468  0.527  0.653-  12 2.20   8 3.05   7 3.10
  23  0.315  0.875  0.347-   9 2.20   7 3.05   8 3.10
  24  0.532  0.473  0.347-  10 2.20   7 3.05   8 3.10
  25  0.153  0.499  0.356-  10 2.20   7 2.84
  26  0.703  0.857  0.356-   9 2.20   7 2.84
  27  0.847  0.501  0.644-  12 2.20   8 2.84
  28  0.297  0.143  0.644-  11 2.20   8 2.84

  LATTYP: Found a base centered monoclinic cell.
 ALAT       =    10.5121760000
 B/A-ratio  =     1.8170645164
 C/A-ratio  =     0.8569928624
 COS(beta)  =    -0.4619202754

  Lattice vectors:

 A1 = (   5.2560880000,  -9.5506510000,   0.0000000000)
 A2 = (   5.2560880000,   9.5506510000,   0.0000000000)
 A3 = (  -4.1613750000,   0.0000000000,   7.9901510000)

Analysis of symmetry for initial positions (statically):
 Subroutine PRICEL returns:
 Original cell was already a primitive cell.

 Routine SETGRP: Setting up the symmetry group for a
 base centered monoclinic supercell.

 Subroutine GETGRP returns: Found  4 space group operations
 (whereof  2 operations were pure point group operations)
 out of a pool of  4 trial point group operations.

The static configuration has the point symmetry S_2 .
 The point group associated with its full space group is C_2h.

Analysis of symmetry for dynamics (positions and initial velocities):
 Subroutine PRICEL returns:
 Original cell was already a primitive cell.

[...]

The dynamic configuration has the point symmetry S_2 .
 The point group associated with its full space group is C_2h.

Analysis of structural, dynamic, and magnetic symmetry:
 Subroutine PRICEL returns:
 Original cell was already a primitive cell.

 Routine SETGRP: Setting up the symmetry group for a
 base centered monoclinic supercell.

 Subroutine GETGRP returns: Found  4 space group operations
 (whereof  2 operations were pure point group operations)
 out of a pool of  4 trial point group operations.

The overall configuration has the point symmetry S_2 .
 The point group associated with its full space group is C_2h.

 Subroutine INISYM returns: Found  4 space group operations
 (whereof  2 operations are pure point group operations),
 and found     1 'primitive' translations

                                     Primitive cell

  volume of cell :     802.1962

  direct lattice vectors                    reciprocal lattice vectors
    -4.161375000  0.000000000  7.990151000    -0.095127783 -0.052352452  0.075610288
    -6.350801000  0.000000000 -7.990151000    -0.095127783 -0.052352452 -0.049543792
     5.256088000 -9.550651000  0.000000000    -0.000000000 -0.104704904  0.000000000

  length of vectors
     9.008859800 10.206624630 10.901440069     0.132313983  0.119351002  0.104704904

  position of ions in fractional coordinates (direct lattice)
     0.754994000  0.004994000  0.009988000
     0.245006000  0.995006000  0.990012000
     0.000000000  0.500000000  0.000000000
     0.500000000  0.500000000  0.000000000
     0.987971000  0.737971000  0.475941000
     0.012029000  0.262029000  0.524059000
     0.506940000  0.756940000  0.513880000
     0.493060000  0.243060000  0.486120000
     0.507093000  0.904793000  0.247910000
     0.240817000  0.343117000  0.247910000
     0.492907000  0.095207000  0.752090000
     0.759183000  0.656883000  0.752090000
     0.386506000  0.759218000  0.024572000
     0.138066000  0.265354000  0.024572000
     0.613494000  0.240782000  0.975428000
     0.861934000  0.734646000  0.975428000
     0.364397000  0.841285000  0.708517000
     0.844120000  0.867232000  0.708517000
     0.635603000  0.158715000  0.291483000
     0.155880000  0.132768000  0.291483000
     0.684829000  0.125361000  0.652644000
     0.467815000  0.527283000  0.652644000
     0.315171000  0.874639000  0.347356000
     0.532185000  0.472717000  0.347356000
     0.153314000  0.498886000  0.356365000
     0.703051000  0.857479000  0.356365000
     0.846686000  0.501114000  0.643635000
     0.296949000  0.142521000  0.643635000

  ion indices of the primitive-cell ions
   primitive index   ion index
                 1           1
                 2           2
                 3           3
                 4           4
                 5           5
                 6           6
                 7           7
                 8           8
                 9           9
                10          10
                11          11
                12          12
                13          13
                14          14
                15          15
                16          16
                17          17
                18          18
                19          19
                20          20
                21          21
                22          22
                23          23
                24          24
                25          25
                26          26
                27          27
                28          28

 KPOINTS: Kpoints from vasprun.xml

Automatic generation of k-mesh.
 Grid dimensions read from file:
 generate k-points for:    3    3    3

 Generating k-lattice:

  Cartesian coordinates                     Fractional coordinates (reciprocal lattice)
    -0.031709261 -0.017450817  0.025203429     0.333333333  0.000000000  0.000000000
    -0.031709261 -0.017450817 -0.016514597    -0.000000000  0.333333333  0.000000000
    -0.000000000 -0.034901635  0.000000000     0.000000000  0.000000000  0.333333333

  Length of vectors
     0.044104661  0.039783667  0.034901635

  Shift w.r.t. Gamma in fractional coordinates (k-lattice)
     0.000000000  0.000000000  0.000000000

 TETIRR: Found     74 inequivalent tetrahedra from      162

 Subroutine IBZKPT returns following result:

 Found     10 irreducible k-points:

 Following reciprocal coordinates:
            Coordinates               Weight
  0.000000  0.000000  0.000000      1.000000
  0.333333  0.000000  0.000000      4.000000
  0.000000  0.333333  0.000000      4.000000
  0.333333  0.333333  0.000000      4.000000
 -0.333333  0.333333  0.000000      2.000000
  0.000000  0.000000  0.333333      2.000000
  0.333333  0.000000  0.333333      2.000000
  0.000000  0.333333  0.333333      2.000000
 -0.333333  0.333333  0.333333      4.000000
 -0.333333 -0.333333  0.333333      2.000000

 Following cartesian coordinates:
            Coordinates               Weight
 -0.000000 -0.000000  0.000000      1.000000
 -0.031709 -0.017451  0.025203      4.000000
[...]
  168      force_and_stress                      6.659861                              1   2
  169        forloc                                0.015504                            1   3
  170        fornlr                                0.511157                            1   3
  171          rspher_all                            0.062405                          3   4
  172          phaser                                0.048382                          9   4
  173          rpro_isp                              0.399454                          9   4
  174            fftwav_mpi                            0.085668                     2484   5
  175              fftwav                                0.082639                   2484   6
  176                fft3d                                 0.016772                 2484   7
  177            rpromu_acc                            0.168668                      630   5
  178          m_sumb_d                              0.000049                          1   4
  179        fordep                                0.380349                            1   3
  180          setdij_                               0.380220                          6   4
  181        setdij_                               1.244492                           20   3
  182        set_dd_magatom                        0.000005                            1   3
  183        set_dd_paw                            2.803183                            1   3
  184          m_sumb_d                              0.000477                          7   4
  185        strkin                                0.002394                            1   3
  186          m_sumb_d                              0.000007                          1   4
  187        strelo                                0.019521                            1   3
  188        strnlr                                1.526259                            1   3
  189          rspher_all                            0.186080                          9   4
  190          phaser                                0.143640                         27   4
  191          rpro_isp                              1.194016                         27   4
  192            fftwav_mpi                            0.255135                     7452   5
  193              fftwav                                0.246423                   7452   6
  194                fft3d                                 0.049533                 7452   7
  195            rpromu_acc                            0.504619                     1890   5
  196          m_sumb_d                              0.000060                          9   4
  197        fft3d_mpi                             0.009699                           22   3
  198          fftbrc_mpi                            0.006578                         22   4
  199            fftbas_plan_mpi                       0.006565                       22   5
  200              map_forward                           0.003132                     20   6
  201                map_scatter                           0.001633                   10   7
  202              map_backward                          0.002761                     24   6
  203                map_gather                            0.001245                   12   7
  204        forhar                                0.015456                            1   3
  205        strehar                               0.017161                            1   3
  206        m_bcast_d                             0.004356                            2   3
  207      potlok                                0.355175                              2   2
  208        fft3d_mpi                             0.211088                           36   3
  209          fftbrc_mpi                            0.168778                         36   4
  210            fftbas_plan_mpi                       0.168746                       36   5
  211              map_forward                           0.029321                     40   6
  212                map_scatter                           0.019527                   20   7
  213              map_backward                          0.030364                     32   6
  214                map_gather                            0.023083                   16   7
  215              dfftw_execute                         0.107165                     30   6
  216        pothar                                0.020507                            2   3
  217      potlok_metagga                        0.000000                              1   2
  218      set_dd_magatom                        0.000004                              1   2
  219      set_dd_paw                            2.789606                              1   2
  220        m_sumb_d                              0.000404                            7   3
  221      augmentation_charge                   0.120872                              1   2
  222        fft3d_mpi                             0.048366                            2   3
  223          fftbrc_mpi                            0.038290                          2   4
  224            fftbas_plan_mpi                       0.038287                        2   5
  225              dfftw_execute                         0.024230                      6   6
  226              map_backward                          0.013778                      4   6
  227                map_gather                            0.010761                    2   7

 Flat profile

 set_dd_paw                             80.933753          29
 total_time                             27.974686           1
 edwav                                  11.101991          26
 init_acc                                6.308414           1
 eccp                                    5.907198       47196
 densta                                  5.810858          38
 rpro1_acc                               5.697546       10764
 setdij_                                 3.488528          55
 racc0_acc                               3.284085       10764
 eddav                                   2.559145           5
 acc_init_cublas                         2.459930           1
 augmentation_charge                     2.102657          28
 elmin_all                               2.052616           1
 fftwav                                  1.602300       87078
 overl                                   1.267000       37596
 lapack                                  1.237801        2013
 raccmu_                                 1.222234        2013
 dfftw_execute                           1.127448         408
 set_charge                              1.000736          27
 potlok                                  0.970077          29
 soft_charge                             0.940345          27
 fftext_mpi                              0.931651       37680
 fft3d                                   0.865325      124758
 acc_init_cusolver                       0.792482           1
 phaser                                  0.788728         147
 rpromu_acc                              0.766265        4203
 pw_charge                               0.732307       16686
 fft3d_mpi                               0.664728       38566
 rpro_isp                                0.602782          39
 map_gather                              0.413347         468
 hamilt_local                            0.402723       11592
 depsum                                  0.367595          27
 m_sumb_d                                0.367353         518
 rspher_all                              0.277272          14
 newband                                 0.275691        2043
 eddiag                                  0.267761          14
 vhamil                                  0.261520       26916
 hamiltmu                                0.237096        2013
 choleski                                0.215612         162
 w1_copy                                 0.214152       45972
 kinhamil                                0.209997       26916
 proall                                  0.200109           1
 orthch                                  0.189260          27
 orth1                                   0.175320        8955
 stufak                                  0.165132           1
 map_backward                            0.147277         936
 setup_precond                           0.147202        4140
 sphpro_fast                             0.144368           2
 acc_cufft_makeplan                      0.142879          19
 lincom                                  0.129452         510
 map_scatter                             0.119022         418
 force_and_stress                        0.110326           1
 racc0mu_acc                             0.110214        2013
 fftwav_mpi                              0.108091       87078
 w1_dscal                                0.082174       10764
 map_forward                             0.080665         836
 apply_precond                           0.054869       11184
 fftbas_plan_mpi                         0.040502         886
 overl_mu                                0.032822        2013
 ggemm                                   0.030097        2553
 pothar                                  0.027461          29
 strelo                                  0.019521           1
 strehar                                 0.017161           1
 forloc                                  0.015504           1
 forhar                                  0.015456           1
 fft_gq                                  0.007550          27
 m_bcast_d                               0.004558           7
 inisym                                  0.004521           1
 strnlr                                  0.002462           1
 strkin                                  0.002387           1
 brgrid                                  0.001847           1
 w1_projall                              0.001568        1473
 truncate_high_frequency_w1              0.001514       19464
 rsp                                     0.001127           1
 m_bcast_z                               0.001048          60
 fornlr                                  0.000867           1
 fftbrc_mpi                              0.000491         886
 fewald                                  0.000338           1
 fordep                                  0.000129           1
 rcp                                     0.000037           1
 posmap                                  0.000030           2
 crpa_reader                             0.000027           1
 acc_cufft_makeplans                     0.000010           3
 set_dd_magatom                          0.000009           2
 redis_pw_over_bands                     0.000005          27
 vectorpot                               0.000005           1
 shift_bands_between_low_high            0.000001           6
 potlok_metagga                          0.000001          28
 rotate_active_occupied_orbital          0.000001           1
  summed up times     181.0391530990601

 Accumulative profile

 total_time                            181.039153           1
 elmin_all                             127.909051           1
 set_dd_paw                             80.948065          29
 edwav                                  28.854046          26
 eddav                                   7.843361           5
 set_charge                              7.521234          27
 force_and_stress                        6.659861           1
 init_acc                                6.308414           1
 eccp                                    5.907198       47196
 densta                                  5.811503          38
 rpro1_acc                               5.697546       10764
 augmentation_charge                     3.586404          28
 setdij_                                 3.488528          55
 racc0_acc                               3.284085       10764
 fft3d_mpi                               2.857458       38566
 soft_charge                             2.678223          27
 acc_init_cublas                         2.459930           1
 fftwav_mpi                              2.311737       87078
 fftwav                                  2.203645       87078
 fftbrc_mpi                              1.928751         886
 fftbas_plan_mpi                         1.928259         886
 hamiltmu                                1.898749        2013
 eddiag                                  1.747365          14
 rpro_isp                                1.671603          39
 strnlr                                  1.526259           1
 potlok                                  1.509223          29
 raccmu_                                 1.365270        2013
 overl                                   1.267000       37596
 hamilt_local                            1.253185       11592
 lapack                                  1.237801        2013
 fftext_mpi                              1.206261       37680
 dfftw_execute                           1.127448         408
 newband                                 0.996927        2043
 kinhamil                                0.885326       26916
 fft3d                                   0.865325      124758
 acc_init_cusolver                       0.792482           1
 phaser                                  0.788728         147
 rpromu_acc                              0.766265        4203
 pw_charge                               0.732307       16686
 map_backward                            0.560623         936
 fornlr                                  0.511157           1
 orthch                                  0.437939          27
 map_gather                              0.413347         468
 fordep                                  0.380349           1
 depsum                                  0.376743          27
 m_sumb_d                                0.367353         518
 proall                                  0.295093           1
 rspher_all                              0.277272          14
 vhamil                                  0.261520       26916
 choleski                                0.215612         162
 w1_copy                                 0.214152       45972
 map_forward                             0.199686         836
 fft_gq                                  0.197066          27
 orth1                                   0.175320        8955
 stufak                                  0.165132           1
 sphpro_fast                             0.155793           2
 setup_precond                           0.147202        4140
 acc_cufft_makeplans                     0.142889           3
 acc_cufft_makeplan                      0.142879          19
 lincom                                  0.129452         510
 map_scatter                             0.119022         418
 racc0mu_acc                             0.110214        2013
 w1_dscal                                0.082174       10764
 w1_projall                              0.073140        1473
 apply_precond                           0.054869       11184
 overl_mu                                0.032822        2013
 ggemm                                   0.030097        2553
 pothar                                  0.027461          29
 strelo                                  0.019521           1
 strehar                                 0.017161           1
 forloc                                  0.015504           1
 forhar                                  0.015456           1
 m_bcast_d                               0.004558           7
 inisym                                  0.004551           1
 strkin                                  0.002394           1
 brgrid                                  0.001847           1
 fewald                                  0.001606           1
 truncate_high_frequency_w1              0.001514       19464
 rsp                                     0.001127           1
 m_bcast_z                               0.001048          60
 rcp                                     0.000037           1
 posmap                                  0.000030           2
 crpa_reader                             0.000027           1
 set_dd_magatom                          0.000009           2
 redis_pw_over_bands                     0.000005          27
 vectorpot                               0.000005           1
 shift_bands_between_low_high            0.000001           6
 potlok_metagga                          0.000001          28
 rotate_active_occupied_orbital          0.000001           1

Profiling took   0.080299  0.054709  0.003284  0.003218 seconds
Profiling took   0.056911 seconds