 vasp.6.3.2 27Jun22 (build Jul  3 2023 11:46:21) complex
 executed on    LinuxNV_CrayMPICH date 2024.04.20  23:18:25

 INCAR:
   ADDGRID = True
   ALGO = Normal
   EDIFF = 0.002
   ENCUT = 520.0
   IBRION = -1
   ICHARG = 0
   ISIF = 3
   ISMEAR = -5
   ISPIN = 2
   KPOINT_BSE = -1 0 0 0
   LAECHG = True
   LASPH = True
   LCHARG = True
   LELF = True
   LORBIT = 11
   LREAL = Auto
   LVHAR = True
   LWAVE = False
   MAGMOM = 12*0.6 4*7.0 24*0.6
   NELM = 1000
   NSW = 0
   PREC = accurate
   SIGMA = 0.05

 POTCAR:    PAW_PBE Rb_sv 06Sep2000
 POTCAR:    PAW_PBE Eu 23Dec2003
 POTCAR:    PAW_PBE Cl 06Sep2000
 POTCAR:    PAW_PBE Rb_sv 06Sep2000
   VRHFIN =Rb: 4s4p5s

   TITEL  = PAW_PBE Rb_sv 06Sep2000
   POMASS =   85.468; ZVAL   =    9.000    mass and valenz
   ENMAX  =  220.112; ENMIN  =  165.084 eV

   TITEL  = PAW_PBE Eu 23Dec2003
   POMASS =  151.965; ZVAL   =   17.000    mass and valenz
   ENMAX  =  249.668; ENMIN  =  187.251 eV

   TITEL  = PAW_PBE Cl 06Sep2000
   POMASS =   35.453; ZVAL   =    7.000    mass and valenz
   ENMAX  =  262.472; ENMIN  =  196.854 eV

 Optimization of the real space projectors (new method)

 maximal supplied QI-value         = 15.12
 optimisation between [QCUT,QGAM] = [ 11.64, 23.28] = [ 37.95,151.78] Ry
 Optimized for a Real-space Cutoff    1.63 Angstroem

   l    n(q)    QCUT    max X(q) W(low)/X(q) W(high)/X(q)  e(spline)
   0     11    11.641    11.905    0.26E-04    0.31E-05    0.88E-07
   0     11    11.641    15.029    0.40E-04    0.49E-05    0.17E-06
   1     11    11.641   129.694    0.10E-03    0.47E-04    0.47E-06
   1     11    11.641   129.780    0.10E-03    0.47E-04    0.47E-06
   2     10    11.641    17.083    0.83E-05    0.11E-04    0.75E-07
 Optimization of the real space projectors (new method)

[...]

   l    n(q)    QCUT    max X(q) W(low)/X(q) W(high)/X(q)  e(spline)
   0     11    11.673    10.400    0.14E-04    0.18E-05    0.24E-07
   0     11    11.673    10.768    0.21E-04    0.32E-05    0.49E-07
   1     11    11.673     4.094    0.40E-05    0.13E-04    0.93E-07
   1     11    11.673     4.009    0.11E-04    0.46E-04    0.33E-06
   2     10    11.673    29.030    0.79E-04    0.60E-04    0.70E-06
   2     10    11.673    19.941    0.80E-04    0.60E-04    0.71E-06
   3     10    11.673    88.889    0.23E-03    0.29E-03    0.30E-06
   3     10    11.673    76.102    0.23E-03    0.30E-03    0.30E-06
 Optimization of the real space projectors (new method)

 maximal supplied QI-value         = 19.84
 optimisation between [QCUT,QGAM] = [ 11.51, 23.22] = [ 37.09,150.92] Ry
 Optimized for a Real-space Cutoff    1.21 Angstroem

   l    n(q)    QCUT    max X(q) W(low)/X(q) W(high)/X(q)  e(spline)
   0      8    11.508   168.010    0.86E-04    0.17E-03    0.49E-07
   0      8    11.508   164.674    0.84E-04    0.16E-03    0.48E-07
   1      8    11.508    69.222    0.18E-03    0.70E-04    0.97E-07
   1      8    11.508    56.786    0.18E-03    0.67E-04    0.95E-07
  PAW_PBE Rb_sv 06Sep2000               :
  PAW_PBE Eu 23Dec2003                  :
  PAW_PBE Cl 06Sep2000                  :

 POSCAR: Rb12 Eu4 Cl24
  positions in direct lattice
 exchange correlation table for  LEXCH =        8
   RHO(1)=    0.500       N(1)  =     2000
   RHO(2)=  100.500       N(2)  =     4000

 VTST: version 4.2, (08/11/21)

 CHAIN: initializing optimizer

 OPT: Using VASP Dynamics algorithm
 CHAIN: Read ICHAIN             0

 POSCAR: Rb12 Eu4 Cl24
  positions in direct lattice

 ion  position               nearest neighbor table
   1  0.304  0.795  0.568-  22 3.55  32 3.57  36 3.59  17 3.61  30 3.62  26 3.78  21 3.85  35 3.87
                            31 4.14  23 4.16  14 4.58  13 4.58   8 5.02   5 5.05   3 5.06  11 5.14
   2  0.696  0.205  0.432-  21 3.55  31 3.57  35 3.59  18 3.61  29 3.62  25 3.78  22 3.85  36 3.87
                            32 4.14  24 4.16  13 4.58  14 4.58   7 5.02   6 5.05   4 5.06  12 5.14
   3  0.205  0.696  0.932-  24 3.55  30 3.57  34 3.59  19 3.61  32 3.62  28 3.78  23 3.85  33 3.87
                            29 4.14  21 4.16  14 4.58  13 4.58   6 5.02   7 5.05   1 5.06   9 5.14
   4  0.795  0.304  0.068-  23 3.55  29 3.57  33 3.59  20 3.61  31 3.62  27 3.78  24 3.85  34 3.87
                            30 4.14  22 4.16  13 4.58  14 4.58   5 5.02   8 5.05   2 5.06  10 5.14
   5  0.467  0.841  0.855-  23 3.24  27 3.29  39 3.44  34 3.45  37 3.49  30 3.52  20 3.62  17 3.70
                            11 4.51  11 4.52  10 4.69   9 4.82   4 5.02   1 5.05   3 5.35
   6  0.533  0.159  0.145-  24 3.24  28 3.29  40 3.44  33 3.45  38 3.49  29 3.52  19 3.62  18 3.70
                            12 4.51  12 4.52   9 4.69  10 4.82   3 5.02   2 5.05   4 5.35
   7  0.159  0.533  0.645-  21 3.24  25 3.29  37 3.44  36 3.45  39 3.49  32 3.52  18 3.62  19 3.70
                             9 4.51   9 4.52  12 4.69  11 4.82   2 5.02   3 5.05   1 5.35
   8  0.841  0.467  0.355-  22 3.24  26 3.29  38 3.44  35 3.45  40 3.49  31 3.52  17 3.62  20 3.70
                            10 4.51  10 4.52  11 4.69  12 4.82   1 5.02   4 5.05   2 5.35
   9  0.652  0.025  0.799-  19 3.31  39 3.34  32 3.34  37 3.37  33 3.53  28 3.55  21 3.60  25 3.74
                            13 4.23   7 4.51   7 4.52   6 4.69   5 4.82   3 5.14   2 5.24
  10  0.348  0.975  0.201-  20 3.31  40 3.34  31 3.34  38 3.37  34 3.53  27 3.55  22 3.60  26 3.74
                            14 4.23   8 4.51   8 4.52   5 4.69   6 4.82   4 5.14   1 5.24
  11  0.975  0.348  0.701-  17 3.31  37 3.34  30 3.34  39 3.37  35 3.53  26 3.55  23 3.60  27 3.74
                            13 4.23   5 4.51   5 4.52   8 4.69   7 4.82   1 5.14   4 5.24
  12  0.025  0.652  0.299-  18 3.31  38 3.34  29 3.34  40 3.37  36 3.53  25 3.55  24 3.60  28 3.74
                            14 4.23   6 4.51   6 4.52   7 4.69   8 4.82   2 5.14   3 5.24
  13  0.782  0.218  0.750-  33 2.71  35 2.71  21 2.73  23 2.73  30 2.75  32 2.75   9 4.23  11 4.23
                             2 4.58   4 4.58   1 4.58   3 4.58
  14  0.218  0.782  0.250-  34 2.71  36 2.71  24 2.73  22 2.73  29 2.75  31 2.75  10 4.23  12 4.23
                             1 4.58   3 4.58   4 4.58   2 4.58
  15  0.500  0.000  0.500-  25 2.73  26 2.73  17 2.76  18 2.76  37 2.76  38 2.76
  16  0.000  0.500  0.000-  27 2.73  28 2.73  19 2.76  20 2.76  39 2.76  40 2.76
  17  0.622  0.718  0.582-  15 2.76  11 3.31   1 3.61   8 3.62   5 3.70
  18  0.378  0.282  0.418-  15 2.76  12 3.31   2 3.61   7 3.62   6 3.70
  19  0.282  0.378  0.918-  16 2.76   9 3.31   3 3.61   6 3.62   7 3.70
  20  0.718  0.622  0.082-  16 2.76  10 3.31   4 3.61   5 3.62   8 3.70
  21  0.490  0.391  0.677-  13 2.73   7 3.24   2 3.55   9 3.60   1 3.85   3 4.16
  22  0.510  0.609  0.323-  14 2.73   8 3.24   1 3.55  10 3.60   2 3.85   4 4.16
  23  0.609  0.510  0.823-  13 2.73   5 3.24   4 3.55  11 3.60   3 3.85   1 4.16
  24  0.391  0.490  0.177-  14 2.73   6 3.24   3 3.55  12 3.60   4 3.85   2 4.16
  25  0.786  0.865  0.534-  15 2.73   7 3.29  12 3.55   9 3.74   2 3.78
  26  0.214  0.135  0.466-  15 2.73   8 3.29  11 3.55  10 3.74   1 3.78
  27  0.135  0.214  0.966-  16 2.73   5 3.29  10 3.55  11 3.74   4 3.78
  28  0.865  0.786  0.034-  16 2.73   6 3.29   9 3.55  12 3.74   3 3.78
  29  0.906  0.975  0.196-  14 2.75  12 3.34   6 3.52   4 3.57   2 3.62   3 4.14
  30  0.094  0.025  0.804-  13 2.75  11 3.34   5 3.52   3 3.57   1 3.62   4 4.14
  31  0.025  0.094  0.304-  14 2.75  10 3.34   8 3.52   2 3.57   4 3.62   1 4.14
  32  0.975  0.906  0.696-  13 2.75   9 3.34   7 3.52   1 3.57   3 3.62   2 4.14
  33  0.718  0.163  0.939-  13 2.71   6 3.45   9 3.53   4 3.59   3 3.87
  34  0.282  0.837  0.061-  14 2.71   5 3.45  10 3.53   3 3.59   4 3.87
  35  0.837  0.282  0.561-  13 2.71   8 3.45  11 3.53   2 3.59   1 3.87
  36  0.163  0.718  0.439-  14 2.71   7 3.45  12 3.53   1 3.59   2 3.87
  37  0.357  0.144  0.691-  15 2.76  11 3.34   9 3.37   7 3.44   5 3.49
  38  0.643  0.856  0.309-  15 2.76  12 3.34  10 3.37   8 3.44   6 3.49
  39  0.856  0.643  0.809-  16 2.76   9 3.34  11 3.37   5 3.44   7 3.49
  40  0.144  0.357  0.191-  16 2.76  10 3.34  12 3.37   6 3.44   8 3.49

  LATTYP: Found a base centered monoclinic cell.
 ALAT       =    26.5223900000
 B/A-ratio  =     0.3056628004
 C/A-ratio  =     0.4940565791
 COS(beta)  =    -0.1658268279

  Lattice vectors:

 A1 = (  -4.0534540000, -13.2611950000,   0.0000000000)
 A2 = (   4.0534540000, -13.2611950000,   0.0000000000)
 A3 = (   0.0000000000,   2.1729220000,  12.9221410000)

Analysis of symmetry for initial positions (statically):
 Subroutine PRICEL returns:
 Original cell was already a primitive cell.

 Routine SETGRP: Setting up the symmetry group for a
 base centered monoclinic supercell.

 Subroutine GETGRP returns: Found  4 space group operations
 (whereof  2 operations were pure point group operations)
 out of a pool of  4 trial point group operations.

The static configuration has the point symmetry S_2 .
 The point group associated with its full space group is C_2h.

Analysis of symmetry for dynamics (positions and initial velocities):
 Subroutine PRICEL returns:
 Original cell was already a primitive cell.

[...]

The dynamic configuration has the point symmetry S_2 .
 The point group associated with its full space group is C_2h.

Analysis of structural, dynamic, and magnetic symmetry:
 Subroutine PRICEL returns:
 Original cell was already a primitive cell.

 Routine SETGRP: Setting up the symmetry group for a
 base centered monoclinic supercell.

 Subroutine GETGRP returns: Found  4 space group operations
 (whereof  2 operations were pure point group operations)
 out of a pool of  4 trial point group operations.

The overall configuration has the point symmetry S_2 .
 The point group associated with its full space group is C_2h.

 Subroutine INISYM returns: Found  4 space group operations
 (whereof  2 operations are pure point group operations),
 and found     1 'primitive' translations

                                     Primitive cell

  volume of cell :    1389.2243

  direct lattice vectors                    reciprocal lattice vectors
     4.053454000 13.261195000  0.000000000     0.123351591  0.037703993 -0.006340113
    -4.053454000 13.261195000  0.000000000    -0.123351591  0.037703993 -0.006340113
     0.000000000  2.172922000 12.922141000     0.000000000 -0.000000000  0.077386557

  length of vectors
    13.866859131 13.866859131 13.103561273     0.129141020  0.129141020  0.077386557

  position of ions in fractional coordinates (direct lattice)
     0.303715000  0.795455000  0.567663000
     0.696285000  0.204545000  0.432337000
     0.204545000  0.696285000  0.932337000
     0.795455000  0.303715000  0.067663000
     0.467339000  0.841125000  0.854637000
     0.532661000  0.158875000  0.145363000
     0.158875000  0.532661000  0.645363000
     0.841125000  0.467339000  0.354637000
     0.651718000  0.025109000  0.798739000
     0.348282000  0.974891000  0.201261000
     0.974891000  0.348282000  0.701261000
     0.025109000  0.651718000  0.298739000
     0.782436000  0.217564000  0.750000000
     0.217564000  0.782436000  0.250000000
     0.500000000  0.000000000  0.500000000
     0.000000000  0.500000000  0.000000000
[...]
  318                map_forward                           0.000713                    4   7
  319                  map_gather                            0.000117                  2   8
  320                  m_alltoallv_z                         0.000029                  2   8
  321                  map_scatter                           0.000497                  2   8
  322                map_backward                          0.000323                    2   7
  323                  map_gather                            0.000068                  1   8
  324                  m_alltoallv_z                         0.000013                  1   8
  325                  map_scatter                           0.000161                  1   8
  326          m_sumb_d                              0.000009                          2   4
  327          pothar                                0.000198                          1   4
  328            m_sumb_d                              0.000051                        1   5
  329        brmix                                 0.059921                            1   3
  330          m_sumb_d                              0.000193                          6   4
  331          brpre                                 0.000180                          2   4
  332          setg0                                 0.007853                          1   4
  333          broyd                                 0.042057                          1   4
  334            m_sumb_d                              0.000430                       51   5
  335            brget                                 0.008490                      229   5
  336            brsav                                 0.001884                       49   5
  337        m_bcast_d                             0.000038                            2   3
  338      potlok                                0.275487                              2   2
  339        fft3d_mpi                             0.187001                           36   3
  340          fftbrc_mpi                            0.158590                         36   4
  341            fftbas_plan_mpi                       0.158566                       36   5
  342              map_forward                           0.041107                     40   6
  343                map_gather                            0.010604                   24   7
  344                m_alltoallv_z                         0.015167                   24   7
  345                map_scatter                           0.014899                   24   7
  346              map_backward                          0.032431                     32   6
  347                map_gather                            0.007375                   16   7
  348                m_alltoallv_z                         0.011012                   16   7
  349                map_scatter                           0.013048                   16   7
  350              dfftw_execute                         0.082510                     30   6
  351        m_sumb_d                              0.000034                            5   3
  352        pothar                                0.012694                            2   3
  353          m_sumb_d                              0.000030                          2   4
  354        m_bcast_d                             0.018558                            4   3
  355      potlok_metagga                        0.000000                              1   2
  356      set_dd_magatom                        0.000005                              1   2
  357      set_dd_paw                            3.725415                              1   2
  358        m_sumb_d                              0.032926                            7   3
  359      augmentation_charge                   0.853576                              1   2
  360        fft3d_mpi                             0.526645                            2   3
  361          fftbrc_mpi                            0.462194                          2   4
  362            fftbas_plan_mpi                       0.462191                        2   5
  363              dfftw_execute                         0.305681                      6   6
  364              map_backward                          0.156183                      4   6
  365                map_gather                            0.056812                    2   7
  366                m_alltoallv_z                         0.029514                    2   7
  367                map_scatter                           0.069843                    2   7
  368      fftwav_mpi                           17.343475                           2088   2
  369        fftwav                               17.338453                         2088   3
  370          fft3d                                16.226959                       2088   4
  371      densta                                1.453903                              1   2

 Flat profile

 set_dd_paw                           1981.834280         537
 raccmu_                               604.868059      715403
 eddav                                 558.963631         539
 dfftw_execute                         344.556520       13332
 lapack                                337.241385      715403
 redis_pw                              210.767258     3930234
 m_sumb_d                              194.269996     2197233
 setdij_                               176.163305         563
 augmentation_charge                   175.671204         537
 hamiltmu                              138.282439      715403
 phaser                                 94.217277        6546
 m_alltoall_d                           79.532138    10394266
 eccp                                   76.137847      375144
 fft3d_mpi                              75.772933     1449211
 map_scatter                            74.264568       20571
 map_gather                             61.529399       20571
 fft3d                                  59.640783     4206744
 total_time                             59.203804           1
 set_charge                             43.119483         536
 m_alltoallv_z                          42.916308       20571
 orth1                                  40.213260     2146305
 redis_proj                             33.083790     4985908
 fftwav                                 30.212602     2775938
 pw_charge                              28.624935      278334
 overl                                  21.786357     2486480
 w1_copy                                21.267660     4292418
 racc0mu_acc                            21.121052      715403
 soft_charge                            17.640011         536
 rpromu_acc                             16.372165      530171
 m_bcast_z                              16.148469      718187
 broyd                                  15.612054         535
 setup_precond                          13.649351      375144
 ggemm                                  12.723866      902975
 m_bcast_d                              12.307183     1431885
 potlok                                 11.573552         537
 overl_mu                               11.357838      715403
 init_acc                               10.956795           1
 densta                                  8.370718         540
 vhamil                                  7.081613     1430806
 kinhamil                                6.495583     1430806
 depsum                                  6.288677         536
 fftext_mpi                              6.171467     1430806
 apply_precond                           5.801818     1055662
 newband                                 5.758453      721871
 brmix                                   5.701558         535
 setg0                                   5.188592         537
 brget                                   4.617302      124125
 fftwav_mpi                              3.793638     2775938
 acc_init_cublas                         2.403976           1
 elmin                                   2.031045           1
 brsav                                   1.316785       35817
 fftbas_plan_mpi                         1.232579       18405
 rpro_isp                                0.813628          78
 acc_init_cusolver                       0.788155           1
 rspher_all                              0.784167          14
 w1_projall                              0.549430      527831
 map_backward                            0.533561       19466
 lincom                                  0.399614        6480
 fft_gq                                  0.330323         536
 map_forward                             0.230601       17344
 sphpro_fast                             0.205885           2
 truncate_high_frequency_w1              0.149262     1805950
 stufak                                  0.133442           1
 proall                                  0.126026           1
 acc_cufft_makeplan                      0.106860          19
 pothar                                  0.100606         538
 brpre                                   0.100338        1070
 orthch                                  0.067904           1
 force_and_stress                        0.060424           1
 fftbrc_mpi                              0.014252       18405
 forhar                                  0.014080           2
 strelo                                  0.011538           1
 strehar                                 0.010374           1
 choleski                                0.009821          12
 forloc                                  0.007124           1
 inisym                                  0.004073           1
 strkin                                  0.003910           1
 strnlr                                  0.003751           1
 vectorpot                               0.002690         536
 set_dd_magatom                          0.002638         537
 rsp                                     0.002497           1
 fornlr                                  0.001257           1
 brgrid                                  0.001208           1
 chggra                                  0.000491           1
 fewald                                  0.000338           1
 fordep                                  0.000169           1
 rcp                                     0.000061           1
 potlok_metagga                          0.000047         536
 posmap                                  0.000040           2
 crpa_reader                             0.000026           1
 acc_cufft_makeplans                     0.000010           3
 rotate_active_occupied_orbital          0.000000           1
 redis_pw_over_bands                     0.000000           1
  summed up times     5801.427986860275

 Accumulative profile

 total_time                           5801.427987           1
 elmin                                5661.502058           1
 eddav                                2578.581542         539
 set_dd_paw                           1986.322959         537
 hamiltmu                              808.899540      715403
 raccmu_                               637.346950      715403
 fft3d_mpi                             614.132381     1449211
 set_charge                            599.888671         536
 fftbrc_mpi                            525.277788       18405
 fftbas_plan_mpi                       525.263536       18405
 setdij_                               473.469762         563
 augmentation_charge                   461.646178         537
 dfftw_execute                         344.556520       13332
 lapack                                337.241385      715403
 redis_pw                              253.567665     3930234
 m_sumb_d                              194.269996     2197233
 newband                               127.663513      721871
 map_backward                          101.368624       19466
 phaser                                 94.217277        6546
 soft_charge                            82.140876         536
 fftwav_mpi                             80.565364     2775938
 m_alltoall_d                           79.532138    10394266
 map_forward                            78.105813       17344
 fftwav                                 76.771725     2775938
 eccp                                   76.137847      375144
 map_scatter                            74.264568       20571
 redis_proj                             69.815521     4985908
 map_gather                             61.529399       20571
 fft3d                                  59.640783     4206744
 m_alltoallv_z                          42.916308       20571
 orth1                                  40.213260     2146305
 brmix                                  32.912501         535
 force_and_stress                       30.695050           1
 pw_charge                              28.624935      278334
 kinhamil                               26.188539     1430806
 broyd                                  21.837242         535
 overl                                  21.786357     2486480
 w1_copy                                21.267660     4292418
 racc0mu_acc                            21.121052      715403
 fftext_mpi                             19.692955     1430806
 potlok                                 19.080786         537
 rpromu_acc                             16.372165      530171
 m_bcast_z                              16.148469      718187
 w1_projall                             15.952712      527831
 setup_precond                          13.649351      375144
 ggemm                                  12.723866      902975
 m_bcast_d                              12.307183     1431885
 overl_mu                               11.357838      715403
 init_acc                               10.956795           1
 fft_gq                                  9.128145         536
 densta                                  8.370718         540
 vhamil                                  7.081613     1430806
 depsum                                  7.038474         536
 apply_precond                           5.801818     1055662
 setg0                                   5.188592         537
 fordep                                  5.014584           1
 brget                                   4.617302      124125
 strnlr                                  2.923254           1
 acc_init_cublas                         2.403976           1
 rpro_isp                                2.178613          78
 brsav                                   1.316785       35817
 fornlr                                  0.978743           1
 acc_init_cusolver                       0.788155           1
 rspher_all                              0.784167          14
 lincom                                  0.399614        6480
 orthch                                  0.368599           1
 proall                                  0.276933           1
 sphpro_fast                             0.214806           2
 truncate_high_frequency_w1              0.149262     1805950
 stufak                                  0.133442           1
 pothar                                  0.114485         538
 acc_cufft_makeplans                     0.106870           3
 acc_cufft_makeplan                      0.106860          19
 brpre                                   0.100338        1070
 forhar                                  0.014138           2
 strelo                                  0.012397           1
 strehar                                 0.010378           1
 choleski                                0.009821          12
 forloc                                  0.008639           1
 inisym                                  0.004113           1
 strkin                                  0.003915           1
 fewald                                  0.003061           1
 vectorpot                               0.002690         536
 set_dd_magatom                          0.002638         537
 rsp                                     0.002497           1
 chggra                                  0.002189           1
 brgrid                                  0.001208           1
 rcp                                     0.000061           1
 potlok_metagga                          0.000047         536
 posmap                                  0.000040           2
 crpa_reader                             0.000026           1
 rotate_active_occupied_orbital          0.000000           1
 redis_pw_over_bands                     0.000000           1

Profiling took   9.209842  4.361380  0.003462  0.003323 seconds
Profiling took   5.618066 seconds