 vasp.6.3.2 27Jun22 (build Jul  3 2023 11:46:21) complex
 executed on    LinuxNV_CrayMPICH date 2024.04.22  03:27:44

 INCAR:
   ALGO = Normal
   EDIFF = 0.00095
   ENCUT = 520.0
   IBRION = -1
   ISIF = 3
   ISMEAR = -5
   ISPIN = 2
   KPAR = 8
   LAECHG = True
   LASPH = True
   LCHARG = True
   LORBIT = 11
   LREAL = Auto
   LVHAR = True
   LWAVE = False
   MAGMOM = 1*7.0 12*5.0 6*0.6
   NELM = 1000
   NPAR = 4
   NSW = 0
   PREC = Accurate
   SIGMA = 0.05

 POTCAR:    PAW_PBE Gd 23Dec2003
 POTCAR:    PAW_PBE Ni_pv 06Sep2000
 POTCAR:    PAW_PBE B 06Sep2000
 POTCAR:    PAW_PBE Gd 23Dec2003
   VRHFIN =Gd : [core=Xe4]

   TITEL  = PAW_PBE Gd 23Dec2003
   POMASS =  157.250; ZVAL   =   18.000    mass and valenz
   ENMAX  =  256.472; ENMIN  =  192.354 eV

   TITEL  = PAW_PBE Ni_pv 06Sep2000
   POMASS =   58.690; ZVAL   =   16.000    mass and valenz
   ENMAX  =  367.986; ENMIN  =  275.989 eV

   TITEL  = PAW_PBE B 06Sep2000
   POMASS =   10.811; ZVAL   =    3.000    mass and valenz
   ENMAX  =  318.614; ENMIN  =  238.960 eV

 Optimization of the real space projectors (new method)

 maximal supplied QI-value         = 13.42
 optimisation between [QCUT,QGAM] = [ 11.67, 23.35] = [ 38.16,152.62] Ry
 Optimized for a Real-space Cutoff    1.63 Angstroem

   l    n(q)    QCUT    max X(q) W(low)/X(q) W(high)/X(q)  e(spline)
   0     11    11.673    10.501    0.14E-04    0.17E-05    0.21E-07
   0     11    11.673     9.148    0.21E-04    0.32E-05    0.45E-07
   1     11    11.673     4.035    0.33E-05    0.11E-04    0.84E-07
   1     11    11.673     4.388    0.11E-04    0.47E-04    0.34E-06
   2     10    11.673    20.656    0.12E-04    0.28E-04    0.54E-06
   2     10    11.673    12.651    0.11E-04    0.26E-04    0.51E-06
   3     10    11.673    61.921    0.19E-03    0.22E-03    0.23E-06
   3     10    11.673    48.328    0.20E-03    0.23E-03    0.23E-06
 Optimization of the real space projectors (new method)

[...]

   l    n(q)    QCUT    max X(q) W(low)/X(q) W(high)/X(q)  e(spline)
   1      9    11.527     2.836    0.16E-04    0.30E-04    0.95E-07
   1      9    11.527     4.023    0.73E-04    0.81E-04    0.21E-06
   2      9    11.527    73.368    0.15E-03    0.29E-03    0.28E-06
   2      9    11.527    69.010    0.15E-03    0.29E-03    0.29E-06
   0      9    11.527    54.797    0.43E-04    0.28E-04    0.85E-07
   0      9    11.527    24.266    0.33E-04    0.24E-04    0.75E-07
 Optimization of the real space projectors (new method)

 maximal supplied QI-value         = 22.11
 optimisation between [QCUT,QGAM] = [ 11.50, 23.22] = [ 37.02,150.92] Ry
 Optimized for a Real-space Cutoff    1.21 Angstroem

   l    n(q)    QCUT    max X(q) W(low)/X(q) W(high)/X(q)  e(spline)
   0      8    11.497    53.033    0.18E-03    0.30E-03    0.10E-06
   0      8    11.497    34.740    0.17E-03    0.29E-03    0.10E-06
   1      8    11.497    30.949    0.20E-03    0.12E-03    0.21E-06
   1      8    11.497    19.518    0.18E-03    0.11E-03    0.19E-06
  PAW_PBE Gd 23Dec2003                  :
  PAW_PBE Ni_pv 06Sep2000               :
  PAW_PBE B 06Sep2000                   :

 POSCAR: Gd1 Ni12 B6
  positions in direct lattice
 exchange correlation table for  LEXCH =        8
   RHO(1)=    0.500       N(1)  =     2000
   RHO(2)=  100.500       N(2)  =     4000

 VTST: version 4.2, (08/11/21)

 CHAIN: initializing optimizer

 OPT: Using VASP Dynamics algorithm
 CHAIN: Read ICHAIN             0

 POSCAR: Gd1 Ni12 B6
  positions in direct lattice

 ion  position               nearest neighbor table
   1  0.000  0.000  0.000-
   2  0.869  0.131  0.500-  15 2.03  18 2.03  17 2.08  16 2.08  10 2.49  11 2.49   7 2.50   4 2.53
                             3 2.53
   3  0.131  0.500  0.869-  16 2.03  19 2.03  14 2.08  18 2.08  12 2.49   8 2.49   5 2.50   4 2.53
                             2 2.53
   4  0.500  0.869  0.131-  17 2.03  14 2.03  19 2.08  15 2.08   9 2.49  13 2.49   6 2.50   3 2.53
                             2 2.53
   5  0.869  0.500  0.131-  19 2.03  16 2.03  17 2.08  15 2.08   9 2.49  11 2.49   3 2.50   6 2.53
                             7 2.53
   6  0.500  0.131  0.869-  14 2.03  17 2.03  16 2.08  18 2.08  12 2.49  10 2.49   4 2.50   5 2.53
                             7 2.53
   7  0.131  0.869  0.500-  15 2.03  18 2.03  14 2.08  19 2.08   8 2.49  13 2.49   2 2.50   5 2.53
                             6 2.53
   8  0.812  0.547  0.547-  16 2.08  15 2.08  17 2.11  13 2.48  12 2.48   7 2.49   3 2.49   9 2.53
                            10 2.53
   9  0.547  0.547  0.812-  14 2.08  16 2.08  18 2.11  13 2.48  11 2.48   5 2.49   4 2.49  10 2.53
                             8 2.53
  10  0.547  0.812  0.547-  14 2.08  15 2.08  19 2.11  11 2.48  12 2.48   2 2.49   6 2.49   9 2.53
                             8 2.53
  11  0.188  0.453  0.453-  19 2.08  18 2.08  14 2.11  10 2.48   9 2.48   2 2.49   5 2.49  12 2.53
                            13 2.53
  12  0.453  0.453  0.188-  17 2.08  19 2.08  15 2.11  10 2.48   8 2.48   6 2.49   3 2.49  13 2.53
                            11 2.53
  13  0.453  0.188  0.453-  17 2.08  18 2.08  16 2.11   8 2.48   9 2.48   7 2.49   4 2.49  12 2.53
                            11 2.53
  14  0.333  0.766  0.766-   6 2.03   4 2.03   3 2.08   7 2.08  10 2.08   9 2.08  11 2.11
  15  0.766  0.766  0.333-   2 2.03   7 2.03   5 2.08   4 2.08   8 2.08  10 2.08  12 2.11
  16  0.766  0.333  0.766-   3 2.03   5 2.03   6 2.08   2 2.08   8 2.08   9 2.08  13 2.11
  17  0.667  0.234  0.234-   4 2.03   6 2.03   5 2.08   2 2.08  13 2.08  12 2.08   8 2.11
  18  0.234  0.234  0.667-   2 2.03   7 2.03   6 2.08   3 2.08  11 2.08  13 2.08   9 2.11
  19  0.234  0.667  0.234-   5 2.03   3 2.03   4 2.08   7 2.08  11 2.08  12 2.08  10 2.11

  LATTYP: Found a trigonal (rhomboedric) cell.
 ALAT       =     6.0224892983
 COS(alpha) =    -0.2489804476

  Lattice vectors:

 A1 = (   4.7592540000,   2.7477560000,   2.4636790000)
 A2 = (  -4.7592540000,   2.7477560000,   2.4636790000)
 A3 = (   0.0000000000,  -5.4955130000,   2.4636790000)

Analysis of symmetry for initial positions (statically):
 Subroutine PRICEL returns:
 Original cell was already a primitive cell.

 Routine SETGRP: Setting up the symmetry group for a
 trigonal (rhombohedral) supercell.

 Subroutine GETGRP returns: Found 12 space group operations
 (whereof 12 operations were pure point group operations)
 out of a pool of 12 trial point group operations.

The static configuration has the point symmetry D_3d.

Analysis of symmetry for dynamics (positions and initial velocities):
 Subroutine PRICEL returns:
 Original cell was already a primitive cell.

[...]

The dynamic configuration has the point symmetry D_3d.

Analysis of structural, dynamic, and magnetic symmetry:
 Subroutine PRICEL returns:
 Original cell was already a primitive cell.

 Routine SETGRP: Setting up the symmetry group for a
 trigonal (rhombohedral) supercell.

 Subroutine GETGRP returns: Found 12 space group operations
 (whereof 12 operations were pure point group operations)
 out of a pool of 12 trial point group operations.

The overall configuration has the point symmetry D_3d.

 Subroutine INISYM returns: Found 12 space group operations
 (whereof 12 operations are pure point group operations),
 and found     1 'primitive' translations

                                     Primitive cell

  volume of cell :     193.3092

  direct lattice vectors                    reciprocal lattice vectors
     4.759254000  2.747756000  2.463679000     0.105058482  0.060655548  0.135299020
    -4.759254000  2.747756000  2.463679000    -0.105058482  0.060655548  0.135299020
     0.000000000 -5.495513000  2.463679000     0.000000000 -0.121311096  0.135298995

  length of vectors
     6.022489177  6.022489177  6.022489298     0.181720128  0.181720128  0.181720115

  position of ions in fractional coordinates (direct lattice)
     0.000000000  0.000000000  0.000000000
     0.868762000  0.131238000  0.500000000
     0.131238000  0.500000000  0.868762000
     0.500000000  0.868762000  0.131238000
     0.868762000  0.500000000  0.131238000
     0.500000000  0.131238000  0.868762000
     0.131238000  0.868762000  0.500000000
     0.812236000  0.546905000  0.546905000
     0.546905000  0.546905000  0.812236000
     0.546905000  0.812236000  0.546905000
     0.187764000  0.453095000  0.453095000
     0.453095000  0.453095000  0.187764000
     0.453095000  0.187764000  0.453095000
     0.333110000  0.766107000  0.766107000
     0.766107000  0.766107000  0.333110000
     0.766107000  0.333110000  0.766107000
     0.666890000  0.233893000  0.233893000
     0.233893000  0.233893000  0.666890000
     0.233893000  0.666890000  0.233893000

  ion indices of the primitive-cell ions
   primitive index   ion index
                 1           1
                 2           2
                 3           3
                 4           4
                 5           5
                 6           6
                 7           7
                 8           8
                 9           9
                10          10
                11          11
                12          12
                13          13
                14          14
                15          15
                16          16
                17          17
                18          18
                19          19

 KPOINTS: Kpoints from vasprun.xml

Automatic generation of k-mesh.
 Grid dimensions read from file:
 generate k-points for:    5    5    5

 Generating k-lattice:

  Cartesian coordinates                     Fractional coordinates (reciprocal lattice)
     0.021011696  0.012131110  0.027059804     0.200000000  0.000000000  0.000000000
    -0.021011696  0.012131110  0.027059804     0.000000000  0.200000000  0.000000000
     0.000000000 -0.024262219  0.027059799     0.000000000  0.000000000  0.200000000

  Length of vectors
     0.036344026  0.036344026  0.036344023

  Shift w.r.t. Gamma in fractional coordinates (k-lattice)
     0.000000000  0.000000000  0.000000000

 TETIRR: Found    174 inequivalent tetrahedra from      750

 Subroutine IBZKPT returns following result:

 Found     19 irreducible k-points:

 Following reciprocal coordinates:
            Coordinates               Weight
  0.000000  0.000000  0.000000      1.000000
  0.200000  0.000000  0.000000      6.000000
  0.400000  0.000000  0.000000      6.000000
  0.200000  0.200000  0.000000      6.000000
  0.400000  0.200000  0.000000     12.000000
 -0.400000  0.200000  0.000000     12.000000
 -0.200000  0.200000  0.000000      6.000000
  0.400000  0.400000  0.000000      6.000000
 -0.400000  0.400000  0.000000      6.000000
  0.200000  0.200000  0.200000      2.000000
  0.400000  0.200000  0.200000      6.000000
 -0.400000  0.200000  0.200000      6.000000
 -0.200000  0.200000  0.200000      6.000000
  0.400000  0.400000  0.200000      6.000000
 -0.400000  0.400000  0.200000     12.000000
 -0.200000  0.400000  0.200000     12.000000
 -0.400000 -0.400000  0.200000      6.000000
  0.400000  0.400000  0.400000      2.000000
 -0.400000  0.400000  0.400000      6.000000

 Following cartesian coordinates:
            Coordinates               Weight
[...]
  173        strelo                                0.005261                            1   3
  174        strnlr                                2.469440                            1   3
  175          rspher_all                            0.154376                          9   4
  176          phaser                                0.174231                         45   4
  177          rpro_isp                              2.136987                         45   4
  178            fftwav_mpi                            0.477088                    15390   5
  179              fftwav                                0.458420                  15390   6
  180                fft3d                                 0.103091                15390   7
  181            rpromu_acc                            0.950165                     3870   5
  182          m_sumb_d                              0.000072                          9   4
  183        fft3d_mpi                             0.003501                           22   3
  184          fftbrc_mpi                            0.002485                         22   4
  185            fftbas_plan_mpi                       0.002477                       22   5
  186              map_forward                           0.000850                     20   6
  187                map_scatter                           0.000337                   10   7
  188              map_backward                          0.001022                     24   6
  189                map_gather                            0.000379                   12   7
  190        forhar                                0.006702                            2   3
  191        strehar                               0.004147                            1   3
  192        chggra                                0.000874                            1   3
  193          fft3d_mpi                             0.000479                          3   4
  194            fftbrc_mpi                            0.000331                        3   5
  195              fftbas_plan_mpi                       0.000330                      3   6
  196                map_forward                           0.000169                    4   7
  197                  map_scatter                           0.000069                  2   8
  198                map_backward                          0.000076                    2   7
  199                  map_gather                            0.000031                  1   8
  200          pothar                                0.000089                          1   4
  201        brmix                                 0.027601                            1   3
  202          brpre                                 0.000070                          2   4
  203          setg0                                 0.003078                          1   4
  204          broyd                                 0.015996                          1   4
  205            brget                                 0.003386                      204   5
  206            brsav                                 0.000720                       44   5
  207          m_bcast_z                             0.004549                          1   4
  208          m_bcast_d                             0.000026                          1   4
  209        m_bcast_d                             0.000031                            2   3
  210      potlok                                0.068328                              2   2
  211        fft3d_mpi                             0.040423                           36   3
  212          fftbrc_mpi                            0.032883                         36   4
  213            fftbas_plan_mpi                       0.032861                       36   5
  214              map_forward                           0.005515                     40   6
  215                map_scatter                           0.003583                   20   7
  216              map_backward                          0.004316                     32   6
  217                map_gather                            0.002849                   16   7
  218              dfftw_execute                         0.021254                     30   6
  219        pothar                                0.004225                            2   3
  220      potlok_metagga                        0.000001                              1   2
  221      set_dd_magatom                        0.000003                              1   2
  222      set_dd_paw                            2.534735                              1   2
  223        m_sumb_d                              0.925892                            7   3
  224      augmentation_charge                   0.039618                              1   2
  225        fft3d_mpi                             0.009839                            2   3
  226          fftbrc_mpi                            0.007991                          2   4
  227            fftbas_plan_mpi                       0.007989                        2   5
  228              dfftw_execute                         0.005622                      6   6
  229              map_backward                          0.002089                      4   6
  230                map_gather                            0.001506                    2   7
  231      densta                               11.493438                              1   2
  232        m_bcast_z                             0.000029                            1   3

 Flat profile

 set_dd_paw                             67.617489          42
 m_sumb_d                               39.323412         613
 eddav                                  35.132798          44
 densta                                 21.138982          45
 raccmu_                                16.511165       32449
 lapack                                 15.694608       32449
 total_time                             11.223040           1
 eccp                                    6.432373       75240
 init_acc                                6.308269           1
 fft3d                                   4.916841      741563
 fftwav                                  4.615804      492101
 w1_copy                                 3.572101      748386
 overl                                   3.343831      423694
 setup_precond                           2.644064       75240
 soft_charge                             2.567146          40
 acc_init_cublas                         2.516375           1
 rpromu_acc                              2.386751       28359
 phaser                                  1.897216         505
 setdij_                                 1.797425          68
 racc0mu_acc                             1.758222       32449
 orth1                                   1.563842       97457
 pw_charge                               1.266444       46187
 augmentation_charge                     1.259385          41
 depsum                                  1.095404          40
 kinhamil                                1.084479      249462
 vhamil                                  1.017330      249462
 rpro_isp                                0.999333          65
 fftext_mpi                              0.970720      249462
 hamiltmu                                0.903843       32449
 apply_precond                           0.850733      174222
 acc_init_cusolver                       0.812877           1
 newband                                 0.739829       32889
 fftwav_mpi                              0.603065      492101
 overl_mu                                0.508014       32449
 ggemm                                   0.469226       42129
 potlok                                  0.385710          42
 dfftw_execute                           0.311425         564
 set_charge                              0.303869          40
 sphpro_fast                             0.251622           2
 fft3d_mpi                               0.237462      250741
 rspher_all                              0.230309          14
 elmin                                   0.207278           1
 broyd                                   0.160109          40
 brmix                                   0.159303          40
 proall                                  0.138753           1
 setg0                                   0.127575          42
 acc_cufft_makeplan                      0.121852          19
 m_bcast_z                               0.118822         132
 orthch                                  0.090435           1
 map_gather                              0.089860         677
 brget                                   0.068988        4254
 fftbas_plan_mpi                         0.056687        1279
 force_and_stress                        0.054116           1
 map_backward                            0.053038        1354
 map_forward                             0.034127        1204
 map_scatter                             0.029144         602
 stufak                                  0.027718           1
 truncate_high_frequency_w1              0.024262      324702
 w1_projall                              0.022265       22769
 lincom                                  0.022152         450
 brsav                                   0.016133         987
 choleski                                0.010818          10
 pothar                                  0.008465          43
 forhar                                  0.006702           2
 strelo                                  0.005261           1
 forloc                                  0.004879           1
 inisym                                  0.004776           1
 strehar                                 0.004147           1
 strnlr                                  0.003774           1
 brpre                                   0.002894          80
 fornlr                                  0.002550           1
 fft_gq                                  0.002088          40
 m_bcast_d                               0.001546          47
 strkin                                  0.001176           1
 fftbrc_mpi                              0.000611        1279
 rsp                                     0.000563           1
 brgrid                                  0.000478           1
 fewald                                  0.000339           1
 chggra                                  0.000306           1
 set_dd_magatom                          0.000174          42
 vectorpot                               0.000160          41
 fordep                                  0.000078           1
 posmap                                  0.000058           2
 rcp                                     0.000033           1
 crpa_reader                             0.000026           1
 acc_cufft_makeplans                     0.000010           3
 potlok_metagga                          0.000002          41
 rotate_active_occupied_orbital          0.000000           1
 redis_pw_over_bands                     0.000000           1
  summed up times     268.9473650455475

 Accumulative profile

 total_time                            268.947365           1
 elmin                                 226.145777           1
 set_dd_paw                            106.788612          42
 eddav                                 104.093437          44
 m_sumb_d                               39.323412         613
 hamiltmu                               24.427888       32449
 densta                                 21.139759          45
 raccmu_                                18.777401       32449
 lapack                                 15.694608       32449
 newband                                11.788287       32889
 fftwav_mpi                              8.533242      492101
 set_charge                              8.421459          40
 fftwav                                  7.930177      492101
 force_and_stress                        6.811384           1
 eccp                                    6.432373       75240
 init_acc                                6.308269           1
 soft_charge                             5.403486          40
 fft3d                                   4.916841      741563
 kinhamil                                3.729314      249462
 w1_copy                                 3.572101      748386
 overl                                   3.343831      423694
 rpro_isp                                2.998474          65
 fftext_mpi                              2.644835      249462
 setup_precond                           2.644064       75240
 acc_init_cublas                         2.516375           1
 strnlr                                  2.469440           1
 fft3d_mpi                               2.414823      250741
 rpromu_acc                              2.386751       28359
 phaser                                  1.897216         505
 setdij_                                 1.797425          68
 racc0mu_acc                             1.758222       32449
 augmentation_charge                     1.643752          41
 orth1                                   1.563842       97457
 pw_charge                               1.266444       46187
 w1_projall                              1.118612       22769
 depsum                                  1.109970          40
 vhamil                                  1.017330      249462
 apply_precond                           0.850733      174222
 fornlr                                  0.824639           1
 acc_init_cusolver                       0.812877           1
 brmix                                   0.652937          40
 potlok                                  0.601484          42
 fftbrc_mpi                              0.574893        1279
 fftbas_plan_mpi                         0.574283        1279
 overl_mu                                0.508014       32449
 ggemm                                   0.469226       42129
 dfftw_execute                           0.311425         564
 proall                                  0.307745           1
 sphpro_fast                             0.261868           2
 broyd                                   0.245229          40
 rspher_all                              0.230309          14
 fordep                                  0.157669           1
 map_backward                            0.142899        1354
 setg0                                   0.127575          42
 acc_cufft_makeplans                     0.121862           3
 acc_cufft_makeplan                      0.121852          19
 m_bcast_z                               0.118822         132
 orthch                                  0.107525           1
 map_gather                              0.089860         677
 brget                                   0.068988        4254
 fft_gq                                  0.067955          40
 map_forward                             0.063272        1204
 map_scatter                             0.029144         602
 stufak                                  0.027718           1
 truncate_high_frequency_w1              0.024262      324702
 lincom                                  0.022152         450
 brsav                                   0.016133         987
 choleski                                0.010818          10
 pothar                                  0.008465          43
 forhar                                  0.006702           2
 strelo                                  0.005261           1
 forloc                                  0.004879           1
 inisym                                  0.004834           1
 strehar                                 0.004147           1
 brpre                                   0.002894          80
 m_bcast_d                               0.001546          47
 strkin                                  0.001196           1
 fewald                                  0.001027           1
 chggra                                  0.000874           1
 rsp                                     0.000563           1
 brgrid                                  0.000478           1
 set_dd_magatom                          0.000174          42
 vectorpot                               0.000160          41
 posmap                                  0.000058           2
 rcp                                     0.000033           1
 crpa_reader                             0.000026           1
 potlok_metagga                          0.000002          41
 rotate_active_occupied_orbital          0.000000           1
 redis_pw_over_bands                     0.000000           1

Profiling took   0.590013  0.378529  0.003174  0.003110 seconds
Profiling took   0.424673 seconds