 vasp.6.3.2 27Jun22 (build Jul  3 2023 11:46:21) complex
 executed on    LinuxNV_CrayMPICH date 2024.04.22  00:30:04

 INCAR:
   ADDGRID = True
   ALGO = Normal
   EDIFF = 0.0014
   ENCUT = 520.0
   IBRION = -1
   ICHARG = 0
   ISIF = 3
   ISMEAR = -5
   ISPIN = 2
   KPOINT_BSE = -1 0 0 0
   LAECHG = True
   LASPH = True
   LCHARG = True
   LELF = True
   LORBIT = 11
   LREAL = Auto
   LVHAR = True
   LWAVE = False
   MAGMOM = 4*7.0 24*0.6
   NELM = 1000
   NSW = 0
   PREC = accurate
   SIGMA = 0.05

 POTCAR:    PAW_PBE Eu 23Dec2003
 POTCAR:    PAW_PBE Lu_3 06Sep2000
 POTCAR:    PAW_PBE O 08Apr2002
 POTCAR:    PAW_PBE Eu 23Dec2003
   VRHFIN =Eu : [core=Kr4d]

   TITEL  = PAW_PBE Eu 23Dec2003
   POMASS =  151.965; ZVAL   =   17.000    mass and valenz
   ENMAX  =  249.668; ENMIN  =  187.251 eV

   TITEL  = PAW_PBE Lu_3 06Sep2000
   POMASS =  174.967; ZVAL   =    9.000    mass and valenz
   ENMAX  =  154.992; ENMIN  =  116.244 eV

   TITEL  = PAW_PBE O 08Apr2002
   POMASS =   16.000; ZVAL   =    6.000    mass and valenz
   ENMAX  =  400.000; ENMIN  =  300.000 eV

 Optimization of the real space projectors (new method)

 maximal supplied QI-value         = 13.42
 optimisation between [QCUT,QGAM] = [ 11.67, 23.35] = [ 38.16,152.62] Ry
 Optimized for a Real-space Cutoff    1.63 Angstroem

   l    n(q)    QCUT    max X(q) W(low)/X(q) W(high)/X(q)  e(spline)
   0     11    11.673    10.400    0.14E-04    0.18E-05    0.24E-07
   0     11    11.673    10.768    0.21E-04    0.32E-05    0.49E-07
   1     11    11.673     4.094    0.40E-05    0.13E-04    0.93E-07
   1     11    11.673     4.009    0.11E-04    0.46E-04    0.33E-06
   2     10    11.673    29.030    0.79E-04    0.60E-04    0.70E-06
   2     10    11.673    19.941    0.80E-04    0.60E-04    0.71E-06
   3     10    11.673    88.889    0.23E-03    0.29E-03    0.30E-06
   3     10    11.673    76.102    0.23E-03    0.30E-03    0.30E-06
 Optimization of the real space projectors (new method)

[...]

   l    n(q)    QCUT    max X(q) W(low)/X(q) W(high)/X(q)  e(spline)
   0     13    11.599    39.231    0.34E-04    0.22E-04    0.85E-06
   0     13    11.599    20.134    0.22E-04    0.18E-04    0.72E-06
   1     12    11.599    35.092    0.60E-05    0.20E-04    0.84E-06
   1     12    11.599    35.544    0.64E-05    0.21E-04    0.89E-06
   2     12    11.599   467.541    0.24E-03    0.14E-04    0.16E-05
   2     12    11.599   368.025    0.24E-03    0.14E-04    0.16E-05
 Optimization of the real space projectors (new method)

 maximal supplied QI-value         = 24.76
 optimisation between [QCUT,QGAM] = [ 11.64, 23.27] = [ 37.91,151.63] Ry
 Optimized for a Real-space Cutoff    1.14 Angstroem

   l    n(q)    QCUT    max X(q) W(low)/X(q) W(high)/X(q)  e(spline)
   0      8    11.635    20.381    0.10E-03    0.33E-03    0.24E-06
   0      8    11.635    15.268    0.11E-03    0.35E-03    0.26E-06
   1      7    11.635     5.964    0.24E-03    0.31E-03    0.30E-06
   1      7    11.635     5.382    0.22E-03    0.25E-03    0.26E-06
  PAW_PBE Eu 23Dec2003                  :
  PAW_PBE Lu_3 06Sep2000                :
  PAW_PBE O 08Apr2002                   :

 POSCAR: Eu4 Lu8 O16
  positions in direct lattice
 exchange correlation table for  LEXCH =        8
   RHO(1)=    0.500       N(1)  =     2000
   RHO(2)=  100.500       N(2)  =     4000

 VTST: version 4.2, (08/11/21)

 CHAIN: initializing optimizer

 OPT: Using VASP Dynamics algorithm
 CHAIN: Read ICHAIN             0

 POSCAR: Eu4 Lu8 O16
  positions in direct lattice

 ion  position               nearest neighbor table
   1  0.750  0.748  0.650-  16 2.57  16 2.57  24 2.61  24 2.61  19 2.68  28 2.68  28 2.68  11 3.28
                             9 3.29   7 3.55   6 3.64   6 3.64
   2  0.250  0.752  0.150-  15 2.57  15 2.57  23 2.61  23 2.61  20 2.68  27 2.68  27 2.68  12 3.28
                            10 3.29   8 3.55   5 3.64   5 3.64
   3  0.750  0.248  0.850-  14 2.57  14 2.57  22 2.61  22 2.61  17 2.68  26 2.68  26 2.68   9 3.28
                            11 3.29   5 3.55   8 3.64   8 3.64
   4  0.250  0.252  0.350-  13 2.57  13 2.57  21 2.61  21 2.61  18 2.68  25 2.68  25 2.68  10 3.28
                            12 3.29   6 3.55   7 3.64   7 3.64
   5  0.750  0.428  0.111-  20 2.18  20 2.18  25 2.21  23 2.27  22 2.31  22 2.31   8 3.42   8 3.42
                             3 3.55   2 3.64   2 3.64  10 3.80  10 3.80
   6  0.250  0.072  0.611-  19 2.18  19 2.18  26 2.21  24 2.27  21 2.31  21 2.31   7 3.42   7 3.42
                             4 3.55   1 3.64   1 3.64   9 3.80   9 3.80
   7  0.750  0.928  0.389-  18 2.18  18 2.18  27 2.21  21 2.27  24 2.31  24 2.31   6 3.42   6 3.42
                             1 3.55   4 3.64   4 3.64  12 3.80  12 3.80
   8  0.250  0.572  0.889-  17 2.18  17 2.18  28 2.21  22 2.27  23 2.31  23 2.31   5 3.42   5 3.42
                             2 3.55   3 3.64   3 3.64  11 3.80  11 3.80
   9  0.750  0.418  0.611-  17 2.21  13 2.23  26 2.26  26 2.26  16 2.28  16 2.28   3 3.28   1 3.29
                            12 3.50  12 3.50   6 3.80   6 3.80
  10  0.250  0.082  0.111-  18 2.21  14 2.23  25 2.26  25 2.26  15 2.28  15 2.28   4 3.28   2 3.29
                            11 3.50  11 3.50   5 3.80   5 3.80
  11  0.750  0.918  0.889-  19 2.21  15 2.23  28 2.26  28 2.26  14 2.28  14 2.28   1 3.28   3 3.29
                            10 3.50  10 3.50   8 3.80   8 3.80
  12  0.250  0.582  0.389-  20 2.21  16 2.23  27 2.26  27 2.26  13 2.28  13 2.28   2 3.28   4 3.29
                             9 3.50   9 3.50   7 3.80   7 3.80
  13  0.750  0.430  0.422-   9 2.23  12 2.28  12 2.28   4 2.57   4 2.57
  14  0.250  0.070  0.922-  10 2.23  11 2.28  11 2.28   3 2.57   3 2.57
  15  0.750  0.930  0.078-  11 2.23  10 2.28  10 2.28   2 2.57   2 2.57
  16  0.250  0.570  0.578-  12 2.23   9 2.28   9 2.28   1 2.57   1 2.57
  17  0.750  0.507  0.784-   8 2.18   8 2.18   9 2.21   3 2.68
  18  0.250  0.993  0.284-   7 2.18   7 2.18  10 2.21   4 2.68
  19  0.750  0.007  0.716-   6 2.18   6 2.18  11 2.21   1 2.68
  20  0.250  0.493  0.216-   5 2.18   5 2.18  12 2.21   2 2.68
  21  0.750  0.127  0.485-   7 2.27   6 2.31   6 2.31   4 2.61   4 2.61
  22  0.250  0.373  0.985-   8 2.27   5 2.31   5 2.31   3 2.61   3 2.61
  23  0.750  0.627  0.015-   5 2.27   8 2.31   8 2.31   2 2.61   2 2.61
  24  0.250  0.873  0.515-   6 2.27   7 2.31   7 2.31   1 2.61   1 2.61
  25  0.750  0.217  0.175-   5 2.21  10 2.26  10 2.26   4 2.68   4 2.68
  26  0.250  0.283  0.675-   6 2.21   9 2.26   9 2.26   3 2.68   3 2.68
  27  0.750  0.717  0.325-   7 2.21  12 2.26  12 2.26   2 2.68   2 2.68
  28  0.250  0.783  0.825-   8 2.21  11 2.26  11 2.26   1 2.68   1 2.68

  LATTYP: Found a simple orthorhombic cell.
 ALAT       =     3.3488450000
 B/A-ratio  =     2.9454564186
 C/A-ratio  =     3.5108910684

  Lattice vectors:

 A1 = (   3.3488450000,   0.0000000000,   0.0000000000)
 A2 = (   0.0000000000,   9.8638770000,   0.0000000000)
 A3 = (   0.0000000000,   0.0000000000,  11.7574300000)

Analysis of symmetry for initial positions (statically):
 Subroutine PRICEL returns:
 Original cell was already a primitive cell.

 Routine SETGRP: Setting up the symmetry group for a
 simple orthorhombic supercell.

 Subroutine GETGRP returns: Found  8 space group operations
 (whereof  2 operations were pure point group operations)
 out of a pool of  8 trial point group operations.

The static configuration has the point symmetry S_2 .
 The point group associated with its full space group is D_2h.

Analysis of symmetry for dynamics (positions and initial velocities):
 Subroutine PRICEL returns:
 Original cell was already a primitive cell.

[...]

The dynamic configuration has the point symmetry S_2 .
 The point group associated with its full space group is D_2h.

Analysis of structural, dynamic, and magnetic symmetry:
 Subroutine PRICEL returns:
 Original cell was already a primitive cell.

 Routine SETGRP: Setting up the symmetry group for a
 simple orthorhombic supercell.

 Subroutine GETGRP returns: Found  8 space group operations
 (whereof  2 operations were pure point group operations)
 out of a pool of  8 trial point group operations.

The overall configuration has the point symmetry S_2 .
 The point group associated with its full space group is D_2h.

 Subroutine INISYM returns: Found  8 space group operations
 (whereof  2 operations are pure point group operations),
 and found     1 'primitive' translations

                                     Primitive cell

  volume of cell :     388.3784

  direct lattice vectors                    reciprocal lattice vectors
     3.348845000  0.000000000  0.000000000     0.298610416  0.000000000  0.000000000
     0.000000000  9.863877000  0.000000000     0.000000000  0.101380015  0.000000000
     0.000000000  0.000000000 11.757430000     0.000000000  0.000000000  0.085052601

  length of vectors
     3.348845000  9.863877000 11.757430000     0.298610416  0.101380015  0.085052601

  position of ions in fractional coordinates (direct lattice)
     0.750000000  0.747749000  0.649829000
     0.250000000  0.752251000  0.149829000
     0.750000000  0.247749000  0.850171000
     0.250000000  0.252251000  0.350171000
     0.750000000  0.427592000  0.111275000
     0.250000000  0.072408000  0.611275000
     0.750000000  0.927592000  0.388725000
     0.250000000  0.572408000  0.888725000
     0.750000000  0.417805000  0.610848000
     0.250000000  0.082195000  0.110848000
     0.750000000  0.917805000  0.889152000
     0.250000000  0.582195000  0.389152000
     0.750000000  0.430486000  0.421892000
     0.250000000  0.069514000  0.921892000
     0.750000000  0.930486000  0.078108000
     0.250000000  0.569514000  0.578108000
     0.750000000  0.507266000  0.783566000
     0.250000000  0.992734000  0.283566000
     0.750000000  0.007266000  0.716434000
     0.250000000  0.492734000  0.216434000
     0.750000000  0.127354000  0.484645000
     0.250000000  0.372646000  0.984645000
     0.750000000  0.627354000  0.015355000
     0.250000000  0.872646000  0.515355000
     0.750000000  0.216739000  0.174589000
     0.250000000  0.283261000  0.674589000
     0.750000000  0.716739000  0.325411000
     0.250000000  0.783261000  0.825411000

  ion indices of the primitive-cell ions
   primitive index   ion index
                 1           1
                 2           2
                 3           3
                 4           4
                 5           5
                 6           6
                 7           7
                 8           8
                 9           9
                10          10
                11          11
                12          12
                13          13
                14          14
                15          15
                16          16
                17          17
                18          18
                19          19
                20          20
                21          21
                22          22
                23          23
                24          24
                25          25
                26          26
                27          27
                28          28

[...]
  318                map_forward                           0.000223                    4   7
  319                  map_gather                            0.000045                  2   8
  320                  m_alltoallv_z                         0.000029                  2   8
  321                  map_scatter                           0.000113                  2   8
  322                map_backward                          0.000105                    2   7
  323                  map_gather                            0.000026                  1   8
  324                  m_alltoallv_z                         0.000013                  1   8
  325                  map_scatter                           0.000047                  1   8
  326          m_sumb_d                              0.000010                          2   4
  327          pothar                                0.000090                          1   4
  328            m_sumb_d                              0.000009                        1   5
  329        brmix                                 0.012702                            1   3
  330          m_sumb_d                              0.000067                          6   4
  331          brpre                                 0.000036                          2   4
  332          setg0                                 0.001608                          1   4
  333          broyd                                 0.009303                          1   4
  334            brget                                 0.002284                      326   5
  335            brsav                                 0.001115                      163   5
  336            m_sumb_d                              0.000796                       47   5
  337        m_bcast_d                             0.000024                            2   3
  338      potlok                                0.048091                              2   2
  339        fft3d_mpi                             0.030813                           36   3
  340          fftbrc_mpi                            0.025691                         36   4
  341            fftbas_plan_mpi                       0.025675                       36   5
  342              map_forward                           0.007232                     40   6
  343                map_gather                            0.002253                   24   7
  344                m_alltoallv_z                         0.002698                   24   7
  345                map_scatter                           0.002066                   24   7
  346              map_backward                          0.006150                     32   6
  347                map_gather                            0.002033                   16   7
  348                m_alltoallv_z                         0.002090                   16   7
  349                map_scatter                           0.001791                   16   7
  350              dfftw_execute                         0.010517                     30   6
  351        m_sumb_d                              0.000030                            5   3
  352        pothar                                0.001932                            2   3
  353          m_sumb_d                              0.000120                          2   4
  354        m_bcast_d                             0.003357                            4   3
  355      potlok_metagga                        0.000000                              1   2
  356      set_dd_magatom                        0.000005                              1   2
  357      set_dd_paw                            2.747804                              1   2
  358        m_sumb_d                              0.000378                            7   3
  359      augmentation_charge                   0.217149                              1   2
  360        fft3d_mpi                             0.066651                            2   3
  361          fftbrc_mpi                            0.059470                          2   4
  362            fftbas_plan_mpi                       0.059467                        2   5
  363              dfftw_execute                         0.035420                      6   6
  364              map_backward                          0.023796                      4   6
  365                map_gather                            0.007647                    2   7
  366                m_alltoallv_z                         0.007075                    2   7
  367                map_scatter                           0.009062                    2   7
  368      fftwav_mpi                            7.329629                           4920   2
  369        fftwav                                7.323316                         4920   3
  370          fft3d                                 6.813888                       4920   4
  371      densta                                5.290815                              1   2

 Flat profile

 set_dd_paw                            600.655654         218
 eddav                                 436.177058         220
 lapack                                407.484605      795380
 raccmu_                               406.090538      795380
 redis_pw                              183.863085     4298525
 m_sumb_d                              172.170395     2413762
 m_alltoall_d                           79.693965    11199505
 phaser                                 54.648119        9060
 fft3d                                  42.061636     4567109
 orth1                                  41.165008     2386380
 eccp                                   38.820683      360800
 redis_proj                             36.829391     5484980
 setdij_                                34.541404         244
 augmentation_charge                    32.773048         218
 fftwav                                 28.638857     3019894
 densta                                 28.468705         221
 hamiltmu                               26.007476      795380
 racc0mu_acc                            23.505014      795380
 overl                                  22.747436     2733670
 w1_copy                                22.667741     4641645
 rpromu_acc                             19.354279      616300
 dfftw_execute                          19.133940        5676
 total_time                             18.714066           1
 m_bcast_z                              17.724752      801940
 soft_charge                            14.719385         217
 m_bcast_d                              13.546252     1591201
 setup_precond                          13.211224      360800
 ggemm                                  13.093148      980180
 overl_mu                               12.341620      795380
 init_acc                               10.128177           1
 pw_charge                               9.019129      260024
 vhamil                                  7.217907     1547215
 kinhamil                                7.171000     1547215
 fftext_mpi                              6.596268     1547215
 apply_precond                           6.509894     1186415
 newband                                 5.911953      804180
 depsum                                  5.878354         217
 m_alltoallv_z                           4.701220        8449
 fftwav_mpi                              4.101207     3019894
 map_scatter                             3.901283        8449
 fft3d_mpi                               3.858079     1554774
 map_gather                              3.323276        8449
 set_charge                              2.622574         217
 acc_init_cublas                         2.418906           1
 rpro_isp                                1.143333         260
 potlok                                  1.125692         218
 broyd                                   1.046937         216
 acc_init_cusolver                       0.797614           1
 w1_projall                              0.621604      610580
 brmix                                   0.595373         216
 elmin                                   0.488467           1
 fftbas_plan_mpi                         0.405972        7559
 rspher_all                              0.397719          14
 sphpro_fast                             0.368311           2
 lincom                                  0.341964        8840
 brget                                   0.325926       46883
 setg0                                   0.311234         218
 truncate_high_frequency_w1              0.155115     1908015
 acc_cufft_makeplan                      0.134253          19
 proall                                  0.099418           1
 brsav                                   0.088759       13388
 map_backward                            0.055106        7982
 orthch                                  0.051656           1
 map_forward                             0.048258        7136
 force_and_stress                        0.030356           1
 fft_gq                                  0.028625         217
 pothar                                  0.020148         219
 stufak                                  0.019092           1
 choleski                                0.018868          40
 strnlr                                  0.008584           1
 brpre                                   0.007735         432
 fftbrc_mpi                              0.004429        7559
 inisym                                  0.004415           1
 fornlr                                  0.003597           1
 forhar                                  0.002868           2
 strelo                                  0.002759           1
 strkin                                  0.002264           1
 strehar                                 0.001994           1
 forloc                                  0.001491           1
 set_dd_magatom                          0.001014         218
 rsp                                     0.000938           1
 vectorpot                               0.000908         217
 fewald                                  0.000371           1
 brgrid                                  0.000279           1
 chggra                                  0.000261           1
 fordep                                  0.000130           1
 posmap                                  0.000048           2
 rcp                                     0.000030           1
 crpa_reader                             0.000026           1
 potlok_metagga                          0.000019         217
 acc_cufft_makeplans                     0.000013           3
 rotate_active_occupied_orbital          0.000001           1
 redis_pw_over_bands                     0.000000           1
  summed up times     2952.971683979034

 Accumulative profile

 total_time                           2952.971684           1
 elmin                                2884.193793           1
 eddav                                2124.593101         220
 set_dd_paw                            601.009493         218
 hamiltmu                              500.271828      795380
 raccmu_                               441.937172      795380
 lapack                                407.484605      795380
 redis_pw                              223.087117     4298525
 m_sumb_d                              172.170395     2413762
 set_charge                             91.333664         217
 newband                                86.172182      804180
 m_alltoall_d                           79.693965    11199505
 redis_proj                             77.299324     5484980
 fftwav_mpi                             63.926812     3019894
 fftwav                                 59.825604     3019894
 phaser                                 54.648119        9060
 setdij_                                52.911359         244
 augmentation_charge                    47.367845         218
 fft3d_mpi                              46.306451     1554774
 fft3d                                  42.061636     4567109
 orth1                                  41.165008     2386380
 eccp                                   38.820683      360800
 soft_charge                            35.112680         217
 fftbrc_mpi                             31.573483        7559
 fftbas_plan_mpi                        31.569054        7559
 densta                                 28.468705         221
 kinhamil                               25.109272     1547215
 racc0mu_acc                            23.505014      795380
 overl                                  22.747436     2733670
 w1_copy                                22.667741     4641645
 rpromu_acc                             19.354279      616300
 dfftw_execute                          19.133940        5676
 w1_projall                             18.434133      610580
 fftext_mpi                             17.938273     1547215
 m_bcast_z                              17.724752      801940
 force_and_stress                       14.039518           1
 m_bcast_d                              13.546252     1591201
 setup_precond                          13.211224      360800
 ggemm                                  13.093148      980180
 overl_mu                               12.341620      795380
 init_acc                               10.128177           1
 pw_charge                               9.019129      260024
 vhamil                                  7.217907     1547215
 map_backward                            6.567900        7982
 apply_precond                           6.509894     1186415
 depsum                                  5.953901         217
 map_forward                             5.461243        7136
 m_alltoallv_z                           4.701220        8449
 map_scatter                             3.901283        8449
 strnlr                                  3.855324           1
 rpro_isp                                3.346901         260
 map_gather                              3.323276        8449
 brmix                                   2.528670         216
 acc_init_cublas                         2.418906           1
 potlok                                  2.365432         218
 broyd                                   1.585553         216
 fordep                                  1.318803           1
 fornlr                                  1.287921           1
 acc_init_cusolver                       0.797614           1
 fft_gq                                  0.649108         217
 orthch                                  0.506398           1
 rspher_all                              0.397719          14
 sphpro_fast                             0.383076           2
 lincom                                  0.341964        8840
 brget                                   0.325926       46883
 setg0                                   0.311234         218
 proall                                  0.304536           1
 truncate_high_frequency_w1              0.155115     1908015
 acc_cufft_makeplans                     0.134266           3
 acc_cufft_makeplan                      0.134253          19
 brsav                                   0.088759       13388
 pothar                                  0.022319         219
 stufak                                  0.019092           1
 choleski                                0.018868          40
 brpre                                   0.007735         432
 inisym                                  0.004463           1
 strelo                                  0.003153           1
 forhar                                  0.002932           2
 fewald                                  0.002548           1
 strkin                                  0.002277           1
 strehar                                 0.001998           1
 forloc                                  0.001532           1
 set_dd_magatom                          0.001014         218
 rsp                                     0.000938           1
 vectorpot                               0.000908         217
 chggra                                  0.000900           1
 brgrid                                  0.000279           1
 posmap                                  0.000048           2
 rcp                                     0.000030           1
 crpa_reader                             0.000026           1
 potlok_metagga                          0.000019         217
 rotate_active_occupied_orbital          0.000001           1
 redis_pw_over_bands                     0.000000           1

Profiling took   9.916527  4.810807  0.003522  0.003422 seconds
Profiling took   6.346208 seconds