 vasp.6.3.2 27Jun22 (build Jul  3 2023 11:46:21) complex
 executed on    LinuxNV_CrayMPICH date 2024.04.21  23:52:11

 INCAR:
   ADDGRID = True
   ALGO = Normal
   EDIFF = 0.001
   ENCUT = 520.0
   IBRION = -1
   ICHARG = 0
   ISIF = 3
   ISMEAR = -5
   ISPIN = 2
   ISTART = 1
   KPOINT_BSE = -1 0 0 0
   LAECHG = True
   LASPH = True
   LCHARG = True
   LELF = True
   LORBIT = 11
   LREAL = Auto
   LVHAR = True
   LWAVE = False
   MAGMOM = 1*7.0 19*0.6
   NELM = 1000
   NSW = 0
   PREC = accurate
   SIGMA = 0.05

 POTCAR:    PAW_PBE Gd 23Dec2003
 POTCAR:    PAW_PBE Er_3 06Sep2000
 POTCAR:    PAW_PBE Al 04Jan2001
 POTCAR:    PAW_PBE Gd 23Dec2003
   VRHFIN =Gd : [core=Xe4]

   TITEL  = PAW_PBE Gd 23Dec2003
   POMASS =  157.250; ZVAL   =   18.000    mass and valenz
   ENMAX  =  256.472; ENMIN  =  192.354 eV

   TITEL  = PAW_PBE Er_3 06Sep2000
   POMASS =  167.260; ZVAL   =    9.000    mass and valenz
   ENMAX  =  155.037; ENMIN  =  116.278 eV

   TITEL  = PAW_PBE Al 04Jan2001
   POMASS =   26.981; ZVAL   =    3.000    mass and valenz
   ENMAX  =  240.300; ENMIN  =  180.225 eV

 Optimization of the real space projectors (new method)

 maximal supplied QI-value         = 13.42
 optimisation between [QCUT,QGAM] = [ 11.67, 23.35] = [ 38.16,152.62] Ry
 Optimized for a Real-space Cutoff    1.63 Angstroem

   l    n(q)    QCUT    max X(q) W(low)/X(q) W(high)/X(q)  e(spline)
   0     11    11.673    10.501    0.14E-04    0.17E-05    0.21E-07
   0     11    11.673     9.148    0.21E-04    0.32E-05    0.45E-07
   1     11    11.673     4.035    0.33E-05    0.11E-04    0.84E-07
   1     11    11.673     4.388    0.11E-04    0.47E-04    0.34E-06
   2     10    11.673    20.656    0.12E-04    0.28E-04    0.54E-06
   2     10    11.673    12.651    0.11E-04    0.26E-04    0.51E-06
   3     10    11.673    61.921    0.19E-03    0.22E-03    0.23E-06
   3     10    11.673    48.328    0.20E-03    0.23E-03    0.23E-06
 Optimization of the real space projectors (new method)

[...]

   l    n(q)    QCUT    max X(q) W(low)/X(q) W(high)/X(q)  e(spline)
   0     13    11.599    48.894    0.36E-04    0.44E-05    0.66E-06
   0     13    11.599    24.210    0.23E-04    0.40E-05    0.57E-06
   1     12    11.599    38.381    0.61E-05    0.13E-04    0.10E-05
   1     12    11.599    39.149    0.63E-05    0.14E-04    0.11E-05
   2     12    11.599   405.348    0.23E-03    0.44E-04    0.18E-05
   2     12    11.599   322.512    0.23E-03    0.44E-04    0.18E-05
 Optimization of the real space projectors (new method)

 maximal supplied QI-value         = 19.84
 optimisation between [QCUT,QGAM] = [ 11.51, 23.22] = [ 37.09,150.92] Ry
 Optimized for a Real-space Cutoff    1.18 Angstroem

   l    n(q)    QCUT    max X(q) W(low)/X(q) W(high)/X(q)  e(spline)
   0      8    11.508   176.870    0.11E-03    0.16E-03    0.40E-07
   0      8    11.508   105.762    0.11E-03    0.16E-03    0.39E-07
   1      8    11.508    55.370    0.23E-03    0.10E-03    0.75E-07
   1      8    11.508    20.208    0.21E-03    0.91E-04    0.68E-07
  PAW_PBE Gd 23Dec2003                  :
  PAW_PBE Er_3 06Sep2000                :
  PAW_PBE Al 04Jan2001                  :

 POSCAR: Gd1 Er4 Al15
  positions in direct lattice
 exchange correlation table for  LEXCH =        8
   RHO(1)=    0.500       N(1)  =     2000
   RHO(2)=  100.500       N(2)  =     4000

 VTST: version 4.2, (08/11/21)

 CHAIN: initializing optimizer

 OPT: Using VASP Dynamics algorithm
 CHAIN: Read ICHAIN             0

 POSCAR: Gd1 Er4 Al15
  positions in direct lattice

 ion  position               nearest neighbor table
   1  0.000  0.000  0.000-   6 3.05   6 3.05   7 3.05   7 3.05   8 3.05   8 3.05  15 3.06  18 3.06
                            17 3.06  20 3.06  19 3.06  16 3.06
   2  0.869  0.869  0.869-  13 2.99  14 2.99  12 2.99  16 3.00  15 3.00  17 3.00  10 3.05  10 3.05
                             9 3.05  11 3.05   9 3.05  11 3.05
   3  0.131  0.131  0.131-  10 2.99  11 2.99   9 2.99  19 3.00  18 3.00  20 3.00  13 3.05  13 3.05
                            12 3.05  14 3.05  12 3.05  14 3.05
   4  0.600  0.600  0.600-   7 2.97   8 2.97   6 2.97  10 2.99   9 2.99  11 2.99  16 3.06  16 3.06
                            15 3.06  17 3.06  15 3.06  17 3.06
   5  0.400  0.400  0.400-   7 2.97   8 2.97   6 2.97  13 2.99  12 2.99  14 2.99  19 3.06  19 3.06
                            18 3.06  20 3.06  18 3.06  20 3.06
   6  0.500  0.500  0.000-  15 2.91  17 2.91  18 2.91  20 2.91   4 2.97   5 2.97   1 3.05   1 3.05
                             7 3.05   8 3.05   8 3.05   7 3.05
   7  0.000  0.500  0.500-  16 2.91  19 2.91  18 2.91  15 2.91   4 2.97   5 2.97   8 3.05   8 3.05
                             1 3.05   1 3.05   6 3.05   6 3.05
   8  0.500  0.000  0.500-  16 2.91  19 2.91  17 2.91  20 2.91   4 2.97   5 2.97   7 3.05   7 3.05
                             6 3.05   1 3.05   1 3.05   6 3.05
   9  0.363  0.871  0.363-  17 2.93  16 2.93  14 2.94  13 2.94   3 2.99   4 2.99  11 3.00  10 3.00
                             2 3.05   2 3.05  11 3.10  10 3.10
  10  0.363  0.363  0.871-  15 2.93  17 2.93  14 2.94  12 2.94   3 2.99   4 2.99   9 3.00  11 3.00
                             2 3.05   2 3.05  11 3.10   9 3.10
  11  0.871  0.363  0.363-  15 2.93  16 2.93  12 2.94  13 2.94   3 2.99   4 2.99   9 3.00  10 3.00
                             2 3.05   2 3.05   9 3.10  10 3.10
  12  0.637  0.129  0.637-  20 2.93  19 2.93  11 2.94  10 2.94   2 2.99   5 2.99  14 3.00  13 3.00
                             3 3.05   3 3.05  14 3.10  13 3.10
  13  0.637  0.637  0.129-  18 2.93  20 2.93  11 2.94   9 2.94   2 2.99   5 2.99  12 3.00  14 3.00
                             3 3.05   3 3.05  14 3.10  12 3.10
  14  0.129  0.637  0.637-  18 2.93  19 2.93   9 2.94  10 2.94   2 2.99   5 2.99  12 3.00  13 3.00
                             3 3.05   3 3.05  12 3.10  13 3.10
  15  0.116  0.569  0.116-  17 2.77  16 2.77   6 2.91   7 2.91  11 2.93  10 2.93   2 3.00   4 3.06
                             4 3.06   1 3.06  17 3.33  16 3.33
  16  0.116  0.116  0.569-  15 2.77  17 2.77   7 2.91   8 2.91   9 2.93  11 2.93   2 3.00   4 3.06
                             4 3.06   1 3.06  17 3.33  15 3.33
  17  0.569  0.116  0.116-  15 2.77  16 2.77   6 2.91   8 2.91   9 2.93  10 2.93   2 3.00   4 3.06
                             4 3.06   1 3.06  15 3.33  16 3.33
  18  0.884  0.431  0.884-  20 2.77  19 2.77   6 2.91   7 2.91  14 2.93  13 2.93   3 3.00   5 3.06
                             5 3.06   1 3.06  20 3.33  19 3.33
  19  0.884  0.884  0.431-  18 2.77  20 2.77   7 2.91   8 2.91  12 2.93  14 2.93   3 3.00   5 3.06
                             5 3.06   1 3.06  20 3.33  18 3.33
  20  0.431  0.884  0.884-  18 2.77  19 2.77   6 2.91   8 2.91  12 2.93  13 2.93   3 3.00   5 3.06
                             5 3.06   1 3.06  18 3.33  19 3.33

  LATTYP: Found a trigonal (rhomboedric) cell.
 ALAT       =    12.4144619767
 COS(alpha) =     0.8792036509

  Lattice vectors:

 A1 = (  12.0337180000,  -3.0509830000,   0.0000000000)
 A2 = (  12.0337180000,   3.0509830000,   0.0000000000)
 A3 = (  11.2601840000,   0.0000000000,   5.2275370000)

Analysis of symmetry for initial positions (statically):
 Subroutine PRICEL returns:
 Original cell was already a primitive cell.

 Routine SETGRP: Setting up the symmetry group for a
 trigonal (rhombohedral) supercell.

 Subroutine GETGRP returns: Found 12 space group operations
 (whereof 12 operations were pure point group operations)
 out of a pool of 12 trial point group operations.

The static configuration has the point symmetry D_3d.

Analysis of symmetry for dynamics (positions and initial velocities):
 Subroutine PRICEL returns:
 Original cell was already a primitive cell.

[...]

The dynamic configuration has the point symmetry D_3d.

Analysis of structural, dynamic, and magnetic symmetry:
 Subroutine PRICEL returns:
 Original cell was already a primitive cell.

 Routine SETGRP: Setting up the symmetry group for a
 trigonal (rhombohedral) supercell.

 Subroutine GETGRP returns: Found 12 space group operations
 (whereof 12 operations were pure point group operations)
 out of a pool of 12 trial point group operations.

The overall configuration has the point symmetry D_3d.

 Subroutine INISYM returns: Found 12 space group operations
 (whereof 12 operations are pure point group operations),
 and found     1 'primitive' translations

                                     Primitive cell

  volume of cell :     383.8546

  direct lattice vectors                    reciprocal lattice vectors
    12.033718000 -3.050983000  0.000000000     0.041549918 -0.163881608 -0.089499075
    12.033718000  3.050983000  0.000000000     0.041549918  0.163881608 -0.089499075
    11.260184000  0.000000000  5.227537000    -0.000000000  0.000000000  0.191294677

  length of vectors
    12.414461977 12.414461977 12.414462808     0.191294698  0.191294698  0.191294677

  position of ions in fractional coordinates (direct lattice)
     0.000000000  0.000000000  0.000000000
     0.868985000  0.868985000  0.868985000
     0.131015000  0.131015000  0.131015000
     0.599831000  0.599831000  0.599831000
     0.400169000  0.400169000  0.400169000
     0.500000000  0.500000000  0.000000000
     1.000000000  0.500000000  0.500000000
     0.500000000  1.000000000  0.500000000
     0.363292000  0.871231000  0.363292000
     0.363292000  0.363292000  0.871231000
     0.871231000  0.363292000  0.363292000
     0.636708000  0.128769000  0.636708000
     0.636708000  0.636708000  0.128769000
     0.128769000  0.636708000  0.636708000
     0.115524000  0.569233000  0.115524000
     0.115524000  0.115524000  0.569233000
     0.569233000  0.115524000  0.115524000
     0.884476000  0.430767000  0.884476000
     0.884476000  0.884476000  0.430767000
     0.430767000  0.884476000  0.884476000

  ion indices of the primitive-cell ions
   primitive index   ion index
                 1           1
                 2           2
                 3           3
                 4           4
                 5           5
                 6           6
                 7           7
                 8           8
                 9           9
                10          10
                11          11
                12          12
                13          13
                14          14
                15          15
                16          16
                17          17
                18          18
                19          19
                20          20

 KPOINTS: Kpoints from vasprun.xml

Automatic generation of k-mesh.
 Grid dimensions read from file:
 generate k-points for:    4    4    4

 Generating k-lattice:

  Cartesian coordinates                     Fractional coordinates (reciprocal lattice)
     0.010387480 -0.040970402 -0.022374769     0.250000000 -0.000000000 -0.000000000
     0.010387480  0.040970402 -0.022374769    -0.000000000  0.250000000 -0.000000000
    -0.000000000  0.000000000  0.047823669     0.000000000  0.000000000  0.250000000

  Length of vectors
     0.047823675  0.047823675  0.047823669

  Shift w.r.t. Gamma in fractional coordinates (k-lattice)
[...]
  290                map_forward                           0.000557                    4   7
  291                  map_gather                            0.000089                  2   8
  292                  m_alltoallv_z                         0.000029                  2   8
  293                  map_scatter                           0.000385                  2   8
  294                map_backward                          0.000236                    2   7
  295                  map_gather                            0.000052                  1   8
  296                  m_alltoallv_z                         0.000013                  1   8
  297                  map_scatter                           0.000145                  1   8
  298          m_sumb_d                              0.000010                          2   4
  299          pothar                                0.000120                          1   4
  300            m_sumb_d                              0.000005                        1   5
  301        brmix                                 0.049019                            1   3
  302          m_sumb_d                              0.000144                          6   4
  303          brpre                                 0.000239                          2   4
  304          setg0                                 0.007026                          1   4
  305          broyd                                 0.033845                          1   4
  306            m_sumb_d                              0.003288                       50   5
  307            brget                                 0.006294                      224   5
  308            brsav                                 0.001469                       48   5
  309        m_bcast_d                             0.000035                            2   3
  310      potlok                                0.194536                              2   2
  311        fft3d_mpi                             0.136851                           36   3
  312          fftbrc_mpi                            0.108611                         36   4
  313            fftbas_plan_mpi                       0.108580                       36   5
  314              map_forward                           0.031805                     40   6
  315                map_gather                            0.007095                   24   7
  316                m_alltoallv_z                         0.014185                   24   7
  317                map_scatter                           0.010167                   24   7
  318              map_backward                          0.023756                     32   6
  319                map_gather                            0.005504                   16   7
  320                m_alltoallv_z                         0.010396                   16   7
  321                map_scatter                           0.007525                   16   7
  322              dfftw_execute                         0.050803                     30   6
  323        m_sumb_d                              0.000034                            5   3
  324        pothar                                0.010099                            2   3
  325          m_sumb_d                              0.000445                          2   4
  326        m_bcast_d                             0.013243                            4   3
  327      potlok_metagga                        0.000000                              1   2
  328      set_dd_magatom                        0.000005                              1   2
  329      set_dd_paw                            2.048282                              1   2
  330        m_sumb_d                              0.738749                            7   3
  331      augmentation_charge                   0.933342                              1   2
  332        fft3d_mpi                             0.380800                            2   3
  333          fftbrc_mpi                            0.332471                          2   4
  334            fftbas_plan_mpi                       0.332467                        2   5
  335              dfftw_execute                         0.212920                      6   6
  336              map_backward                          0.119262                      4   6
  337                map_gather                            0.044422                    2   7
  338                m_alltoallv_z                         0.022662                    2   7
  339                map_scatter                           0.052165                    2   7
  340      fftwav_mpi                            8.702649                           1404   2
  341        fftwav                                8.698795                         1404   3
  342          fft3d                                 8.165797                       1404   4
  343      densta                                0.552721                              1   2

 Flat profile

 raccmu_                               148.185258       63820
 set_dd_paw                             93.063752          71
 m_sumb_d                               74.884466      200515
 total_time                             52.717817           1
 setdij_                                51.925043          97
 phaser                                 45.511524        2067
 eddav                                  43.241836          73
 dfftw_execute                          39.813409        2136
 augmentation_charge                    38.617361          70
 lapack                                 31.445566       63820
 redis_pw                               17.733560      352604
 init_acc                               11.825959           1
 fft3d                                  10.958214      379693
 fft3d_mpi                               9.382465      130197
 map_scatter                             8.476692        2857
 map_gather                              7.227006        2857
 m_alltoall_d                            6.604186      929984
 m_alltoallv_z                           5.651764        2857
 eccp                                    5.510866       34164
 hamiltmu                                5.148900       63820
 set_charge                              4.557884          69
 fftwav                                  3.104339      252053
 redis_proj                              2.960380      446106
 orth1                                   2.617326      191538
 acc_init_cublas                         2.403159           1
 rpromu_acc                              2.086535       48428
 soft_charge                             1.947030          69
 densta                                  1.858496          74
 racc0mu_acc                             1.855845       63820
 w1_copy                                 1.849530      382920
 overl                                   1.800109      221142
 m_bcast_z                               1.532897       65692
 pw_charge                               1.474891       23449
 setup_precond                           1.240896       34164
 potlok                                  1.215461          71
 rspher_all                              1.199026          14
 m_bcast_d                               1.087184      127787
 broyd                                   1.013559          69
 overl_mu                                0.998322       63820
 ggemm                                   0.838498       80902
 acc_init_cusolver                       0.787219           1
 brmix                                   0.590285          69
 vhamil                                  0.576012      127640
 kinhamil                                0.574690      127640
 newband                                 0.554441       65718
 fftext_mpi                              0.548552      127640
 depsum                                  0.531790          69
 apply_precond                           0.507447       93476
 rpro_isp                                0.460577         169
 setg0                                   0.444385          71
 fftwav_mpi                              0.337965      252053
 brget                                   0.305418       11180
 elmin                                   0.286676           1
 fftbas_plan_mpi                         0.172135        2557
 acc_cufft_makeplan                      0.117753          19
 brsav                                   0.078866        2939
 sphpro_fast                             0.078818           2
 lincom                                  0.067168        1924
 proall                                  0.065029           1
 stufak                                  0.054104           1
 w1_projall                              0.048183       46738
 fft_gq                                  0.035446          69
 force_and_stress                        0.033934           1
 map_forward                             0.025532        2432
 map_backward                            0.024682        2682
 pothar                                  0.019084          72
 orthch                                  0.017488           1
 truncate_high_frequency_w1              0.013709      161804
 forhar                                  0.012751           2
 brpre                                   0.010314         138
 strelo                                  0.009377           1
 choleski                                0.008214          26
 strehar                                 0.008082           1
 forloc                                  0.006448           1
 inisym                                  0.004550           1
 strnlr                                  0.004245           1
 fftbrc_mpi                              0.001914        2557
 fornlr                                  0.001436           1
 rsp                                     0.001238           1
 brgrid                                  0.000968           1
 strkin                                  0.000690           1
 chggra                                  0.000409           1
 fewald                                  0.000371           1
 set_dd_magatom                          0.000327          71
 vectorpot                               0.000287          70
 fordep                                  0.000081           1
 posmap                                  0.000053           2
 rcp                                     0.000027           1
 crpa_reader                             0.000026           1
 acc_cufft_makeplans                     0.000013           3
 potlok_metagga                          0.000006          70
 rotate_active_occupied_orbital          0.000000           1
 redis_pw_over_bands                     0.000000           1
  summed up times     752.9962291717529

 Accumulative profile

 total_time                            752.996229           1
 elmin                                 633.020921           1
 eddav                                 341.393788          73
 hamiltmu                              158.843322       63820
 raccmu_                               151.039425       63820
 set_dd_paw                            148.294317          71
 setdij_                                92.069720          97
 set_charge                             76.989517          69
 m_sumb_d                               74.884466      200515
 fft3d_mpi                              71.692274      130197
 augmentation_charge                    65.592945          70
 fftbrc_mpi                             61.393135        2557
 fftbas_plan_mpi                        61.391221        2557
 phaser                                 45.511524        2067
 dfftw_execute                          39.813409        2136
 force_and_stress                       34.017947           1
 lapack                                 31.445566       63820
 redis_pw                               20.939591      352604
 fftwav_mpi                             13.483844      252053
 fftwav                                 13.145879      252053
 init_acc                               11.825959           1
 fft3d                                  10.958214      379693
 map_backward                           10.862257        2682
 map_forward                            10.543420        2432
 newband                                10.001652       65718
 map_scatter                             8.476692        2857
 map_gather                              7.227006        2857
 m_alltoall_d                            6.604186      929984
 soft_charge                             6.576878          69
 redis_proj                              6.358535      446106
 fordep                                  5.693476           1
 m_alltoallv_z                           5.651764        2857
 eccp                                    5.510866       34164
 strnlr                                  4.512334           1
 orth1                                   2.617326      191538
 brmix                                   2.577469          69
 acc_init_cublas                         2.403159           1
 potlok                                  2.170624          71
 rpromu_acc                              2.086535       48428
 kinhamil                                2.078984      127640
 densta                                  1.858496          74
 racc0mu_acc                             1.855845       63820
 w1_copy                                 1.849530      382920
 overl                                   1.800109      221142
 m_bcast_z                               1.532897       65692
 broyd                                   1.524831          69
 fftext_mpi                              1.504295      127640
 fornlr                                  1.497856           1
 pw_charge                               1.474891       23449
 rpro_isp                                1.434422         169
 w1_projall                              1.385831       46738
 setup_precond                           1.240896       34164
 fft_gq                                  1.211949          69
 rspher_all                              1.199026          14
 m_bcast_d                               1.087184      127787
 overl_mu                                0.998322       63820
 ggemm                                   0.838498       80902
 acc_init_cusolver                       0.787219           1
 vhamil                                  0.576012      127640
 depsum                                  0.562627          69
 apply_precond                           0.507447       93476
 setg0                                   0.444385          71
 proall                                  0.380408           1
 brget                                   0.305418       11180
 orthch                                  0.291016           1
 acc_cufft_makeplans                     0.117766           3
 acc_cufft_makeplan                      0.117753          19
 sphpro_fast                             0.082048           2
 brsav                                   0.078866        2939
 lincom                                  0.067168        1924
 stufak                                  0.054104           1
 pothar                                  0.021380          72
 truncate_high_frequency_w1              0.013709      161804
 forhar                                  0.012859           2
 brpre                                   0.010314         138
 strelo                                  0.009552           1
 choleski                                0.008214          26
 strehar                                 0.008186           1
 forloc                                  0.007267           1
 inisym                                  0.004603           1
 fewald                                  0.001700           1
 chggra                                  0.001614           1
 rsp                                     0.001238           1
 brgrid                                  0.000968           1
 strkin                                  0.000699           1
 set_dd_magatom                          0.000327          71
 vectorpot                               0.000287          70
 posmap                                  0.000053           2
 rcp                                     0.000027           1
 crpa_reader                             0.000026           1
 potlok_metagga                          0.000006          70
 rotate_active_occupied_orbital          0.000000           1
 redis_pw_over_bands                     0.000000           1

Profiling took   0.826112  0.403538  0.003253  0.003136 seconds
Profiling took   0.530399 seconds