 vasp.6.3.2 27Jun22 (build Jul  3 2023 11:46:21) complex
 executed on    LinuxNV_CrayMPICH date 2024.04.20  21:46:29

 INCAR:
   ALGO = Normal
   EDIFF = 3.8e-05
   EFIELD_PEAD = 0.0 0.0 0.0
   ENCUT = 520.0
   IBRION = -1
   ICHARG = 0
   ISIF = 3
   ISMEAR = -5
   ISPIN = 2
   LAECHG = True
   LCALCEPS = False
   LCALCPOL = False
   LCHARG = True
   LDAU = False
   LEFG = False
   LORBIT = 11
   LPEAD = False
   LREAL = Auto
   LWAVE = False
   MAGMOM = 4*7.0 34*0.6
   NELM = 1000
   NSW = 0
   PREC = accurate
   SIGMA = 0.2

 POTCAR:    PAW_PBE Eu 23Dec2003
 POTCAR:    PAW_PBE Re_pv 06Sep2000
 POTCAR:    PAW_PBE S 06Sep2000
 POTCAR:    PAW_PBE Eu 23Dec2003
   VRHFIN =Eu : [core=Kr4d]

   TITEL  = PAW_PBE Eu 23Dec2003
   POMASS =  151.965; ZVAL   =   17.000    mass and valenz
   ENMAX  =  249.668; ENMIN  =  187.251 eV

   TITEL  = PAW_PBE Re_pv 06Sep2000
   POMASS =  186.207; ZVAL   =   13.000    mass and valenz
   ENMAX  =  226.216; ENMIN  =  169.662 eV

   TITEL  = PAW_PBE S 06Sep2000
   POMASS =   32.066; ZVAL   =    6.000    mass and valenz
   ENMAX  =  258.689; ENMIN  =  194.016 eV

 Optimization of the real space projectors (new method)

 maximal supplied QI-value         = 13.42
 optimisation between [QCUT,QGAM] = [ 11.67, 23.35] = [ 38.16,152.62] Ry
 Optimized for a Real-space Cutoff    1.63 Angstroem

   l    n(q)    QCUT    max X(q) W(low)/X(q) W(high)/X(q)  e(spline)
   0     11    11.673    10.400    0.14E-04    0.18E-05    0.24E-07
   0     11    11.673    10.768    0.21E-04    0.32E-05    0.49E-07
   1     11    11.673     4.094    0.40E-05    0.13E-04    0.93E-07
   1     11    11.673     4.009    0.11E-04    0.46E-04    0.33E-06
   2     10    11.673    29.030    0.79E-04    0.60E-04    0.70E-06
   2     10    11.673    19.941    0.80E-04    0.60E-04    0.71E-06
   3     10    11.673    88.889    0.23E-03    0.29E-03    0.30E-06
   3     10    11.673    76.102    0.23E-03    0.30E-03    0.30E-06
 Optimization of the real space projectors (new method)

[...]

   l    n(q)    QCUT    max X(q) W(low)/X(q) W(high)/X(q)  e(spline)
   1     10    11.641     4.536    0.53E-04    0.11E-04    0.10E-06
   1     10    11.641     5.174    0.11E-03    0.39E-04    0.25E-06
   2     10    11.641   884.986    0.18E-03    0.55E-03    0.12E-05
   2     10    11.641   788.248    0.18E-03    0.55E-03    0.12E-05
   0     11    11.641    79.269    0.41E-04    0.98E-04    0.47E-06
   0     11    11.641    46.212    0.38E-04    0.91E-04    0.44E-06
 Optimization of the real space projectors (new method)

 maximal supplied QI-value         = 19.84
 optimisation between [QCUT,QGAM] = [ 11.51, 23.22] = [ 37.09,150.92] Ry
 Optimized for a Real-space Cutoff    1.21 Angstroem

   l    n(q)    QCUT    max X(q) W(low)/X(q) W(high)/X(q)  e(spline)
   0      8    11.508   187.594    0.96E-04    0.18E-03    0.54E-07
   0      8    11.508   164.243    0.96E-04    0.18E-03    0.54E-07
   1      8    11.508    67.533    0.18E-03    0.65E-04    0.94E-07
   1      8    11.508    50.729    0.18E-03    0.63E-04    0.92E-07
  PAW_PBE Eu 23Dec2003                  :
  PAW_PBE Re_pv 06Sep2000               :
  PAW_PBE S 06Sep2000                   :

 POSCAR: Eu4 Re12 S22
  positions in direct lattice
 exchange correlation table for  LEXCH =        8
   RHO(1)=    0.500       N(1)  =     2000
   RHO(2)=  100.500       N(2)  =     4000

 VTST: version 4.2, (08/11/21)

 CHAIN: initializing optimizer

 OPT: Using VASP Dynamics algorithm
 CHAIN: Read ICHAIN             0

 POSCAR: Eu4 Re12 S22
  positions in direct lattice

 ion  position               nearest neighbor table
   1  0.310  0.310  0.310-  19 2.96  30 2.96  29 2.96  21 3.09
   2  0.190  0.190  0.190-  29 2.96  30 2.96  19 2.96  37 3.09
   3  0.690  0.690  0.690-  27 2.96  36 2.96  38 2.96  31 3.09
   4  0.810  0.810  0.810-  38 2.96  36 2.96  27 2.96  35 3.09
   5  0.006  0.214  0.884-  37 2.40  17 2.42  33 2.43  22 2.44  36 2.50   6 2.63  12 2.63  15 2.66
                            11 2.66
   6  0.884  0.006  0.214-  37 2.40  34 2.42  18 2.43  33 2.44  38 2.50   5 2.63  12 2.63  11 2.66
                            14 2.66
   7  0.616  0.286  0.494-  21 2.40  23 2.42  26 2.43  20 2.44  38 2.50  16 2.63  10 2.63  13 2.66
                             8 2.66
   8  0.714  0.506  0.384-  31 2.40  20 2.42  23 2.43  24 2.44  30 2.50  13 2.63   9 2.63  16 2.66
                             7 2.66
   9  0.384  0.714  0.506-  31 2.40  25 2.42  24 2.43  28 2.44  29 2.50  13 2.63   8 2.63  16 2.66
                            10 2.66
  10  0.286  0.494  0.616-  21 2.40  28 2.42  25 2.43  26 2.44  36 2.50  16 2.63   7 2.63  13 2.66
                             9 2.66
  11  0.786  0.116  0.994-  35 2.40  33 2.42  34 2.43  17 2.44  19 2.50  15 2.63  14 2.63   6 2.66
                             5 2.66
  12  0.214  0.884  0.006-  37 2.40  32 2.42  22 2.43  18 2.44  27 2.50   6 2.63   5 2.63  15 2.66
                            14 2.66
  13  0.506  0.384  0.714-  31 2.40  26 2.42  28 2.43  23 2.44  19 2.50   8 2.63   9 2.63   7 2.66
                            10 2.66
  14  0.994  0.786  0.116-  35 2.40  18 2.42  32 2.43  34 2.44  30 2.50  15 2.63  11 2.63   6 2.66
                            12 2.66
  15  0.116  0.994  0.786-  35 2.40  22 2.42  17 2.43  32 2.44  29 2.50  14 2.63  11 2.63  12 2.66
                             5 2.66
  16  0.494  0.616  0.286-  21 2.40  24 2.42  20 2.43  25 2.44  27 2.50  10 2.63   7 2.63   9 2.66
                             8 2.66
  17  0.917  0.301  0.692-   5 2.42  15 2.43  11 2.44
  18  0.083  0.699  0.308-  14 2.42   6 2.43  12 2.44
  19  0.500  0.250  1.000-  13 2.50  11 2.50   1 2.96   2 2.96
  20  0.801  0.417  0.192-   8 2.42  16 2.43   7 2.44
  21  0.407  0.407  0.407-  10 2.40   7 2.40  16 2.40   1 3.09
  22  0.308  0.083  0.699-  15 2.42  12 2.43   5 2.44
  23  0.808  0.199  0.583-   7 2.42   8 2.43  13 2.44
  24  0.583  0.808  0.199-  16 2.42   9 2.43   8 2.44
  25  0.192  0.801  0.417-   9 2.42  10 2.43  16 2.44
  26  0.417  0.192  0.801-  13 2.42   7 2.43  10 2.44
  27  0.500  0.750  0.000-  16 2.50  12 2.50   3 2.96   4 2.96
  28  0.199  0.583  0.808-  10 2.42  13 2.43   9 2.44
  29  0.250  1.000  0.500-  15 2.50   9 2.50   2 2.96   1 2.96
  30  1.000  0.500  0.250-  14 2.50   8 2.50   1 2.96   2 2.96
  31  0.593  0.593  0.593-   8 2.40   9 2.40  13 2.40   3 3.09
  32  0.301  0.692  0.917-  12 2.42  14 2.43  15 2.44
  33  0.699  0.308  0.083-  11 2.42   5 2.43   6 2.44
  34  0.692  0.917  0.301-   6 2.42  11 2.43  14 2.44
  35  0.907  0.907  0.907-  14 2.40  11 2.40  15 2.40   4 3.09
  36  0.000  0.500  0.750-   5 2.50  10 2.50   3 2.96   4 2.96
  37  0.093  0.093  0.093-   5 2.40  12 2.40   6 2.40   2 3.09
  38  0.750  0.000  0.500-   6 2.50   7 2.50   4 2.96   3 2.96

  LATTYP: Found a trigonal (rhomboedric) cell.
 ALAT       =    11.8139245549
 COS(alpha) =     0.7027258413

  Lattice vectors:

 A1 = (  10.9006290000,  -4.5546790000,   0.0000000000)
 A2 = (  10.9006290000,   4.5546790000,   0.0000000000)
 A3 = (   8.9975180000,   0.0000000000,   7.6559430000)

Analysis of symmetry for initial positions (statically):
 Subroutine PRICEL returns:
 Original cell was already a primitive cell.

 Routine SETGRP: Setting up the symmetry group for a
 trigonal (rhombohedral) supercell.

 Subroutine GETGRP returns: Found 12 space group operations
 (whereof  6 operations were pure point group operations)
 out of a pool of 12 trial point group operations.

The static configuration has the point symmetry S_6 .
 The point group associated with its full space group is D_3d.

Analysis of symmetry for dynamics (positions and initial velocities):
 Subroutine PRICEL returns:
 Original cell was already a primitive cell.

[...]

The dynamic configuration has the point symmetry S_6 .
 The point group associated with its full space group is D_3d.

Analysis of structural, dynamic, and magnetic symmetry:
 Subroutine PRICEL returns:
 Original cell was already a primitive cell.

 Routine SETGRP: Setting up the symmetry group for a
 trigonal (rhombohedral) supercell.

 Subroutine GETGRP returns: Found 12 space group operations
 (whereof  6 operations were pure point group operations)
 out of a pool of 12 trial point group operations.

The overall configuration has the point symmetry S_6 .
 The point group associated with its full space group is D_3d.

 Subroutine INISYM returns: Found 12 space group operations
 (whereof  6 operations are pure point group operations),
 and found     1 'primitive' translations

                                     Primitive cell

  volume of cell :     760.2178

  direct lattice vectors                    reciprocal lattice vectors
    10.900629000 -4.554679000  0.000000000     0.045868913 -0.109777220 -0.053906667
    10.900629000  4.554679000  0.000000000     0.045868913  0.109777220 -0.053906667
     8.997518000  0.000000000  7.655943000    -0.000000000  0.000000000  0.130617482

  length of vectors
    11.813924555 11.813924555 11.813923708     0.130617472  0.130617472  0.130617482

  position of ions in fractional coordinates (direct lattice)
     0.309778000  0.309778000  0.309778000
     0.190222000  0.190222000  0.190222000
     0.690222000  0.690222000  0.690222000
     0.809778000  0.809778000  0.809778000
     0.005569000  0.213776000  0.883783000
     0.883783000  0.005569000  0.213776000
     0.616217000  0.286224000  0.494431000
     0.713776000  0.505569000  0.383783000
     0.383783000  0.713776000  0.505569000
     0.286224000  0.494431000  0.616217000
     0.786224000  0.116217000  0.994431000
     0.213776000  0.883783000  0.005569000
     0.505569000  0.383783000  0.713776000
     0.994431000  0.786224000  0.116217000
     0.116217000  0.994431000  0.786224000
     0.494431000  0.616217000  0.286224000
     0.916788000  0.300646000  0.691679000
     0.083212000  0.699354000  0.308321000
     0.500064000  0.250000000  0.999936000
     0.800646000  0.416788000  0.191679000
     0.407207000  0.407207000  0.407207000
     0.308321000  0.083212000  0.699354000
     0.808321000  0.199354000  0.583212000
     0.583212000  0.808321000  0.199354000
     0.191679000  0.800646000  0.416788000
     0.416788000  0.191679000  0.800646000
     0.499936000  0.750000000  0.000064000
     0.199354000  0.583212000  0.808321000
     0.250000000  0.999936000  0.500064000
     0.999936000  0.500064000  0.250000000
     0.592793000  0.592793000  0.592793000
     0.300646000  0.691679000  0.916788000
     0.699354000  0.308321000  0.083212000
     0.691679000  0.916788000  0.300646000
     0.907207000  0.907207000  0.907207000
     0.000064000  0.499936000  0.750000000
     0.092793000  0.092793000  0.092793000
     0.750000000  0.000064000  0.499936000

  ion indices of the primitive-cell ions
   primitive index   ion index
                 1           1
                 2           2
                 3           3
                 4           4
                 5           5
                 6           6
                 7           7
                 8           8
                 9           9
                10          10
                11          11
                12          12
[...]
  266        chggra                                0.001527                            1   3
  267          fft3d_mpi                             0.001007                          3   4
  268            fftbrc_mpi                            0.000817                        3   5
  269              fftbas_plan_mpi                       0.000816                      3   6
  270                map_forward                           0.000517                    4   7
  271                  map_gather                            0.000086                  2   8
  272                  m_alltoallv_z                         0.000029                  2   8
  273                  map_scatter                           0.000346                  2   8
  274                map_backward                          0.000210                    2   7
  275                  map_gather                            0.000047                  1   8
  276                  m_alltoallv_z                         0.000013                  1   8
  277                  map_scatter                           0.000115                  1   8
  278          m_sumb_d                              0.000011                          2   4
  279          pothar                                0.000127                          1   4
  280            m_sumb_d                              0.000025                        1   5
  281        brmix                                 0.035809                            1   3
  282          m_sumb_d                              0.000073                          6   4
  283          brpre                                 0.000116                          2   4
  284          setg0                                 0.005173                          1   4
  285          broyd                                 0.023953                          1   4
  286            m_sumb_d                              0.000385                       49   5
  287            brget                                 0.005124                      219   5
  288            brsav                                 0.001074                       47   5
  289        m_bcast_d                             0.000039                            2   3
  290      potlok                                0.015290                              1   2
  291        fft3d_mpi                             0.009026                           26   3
  292          fftbrc_mpi                            0.007282                         26   4
  293            fftbas_plan_mpi                       0.007274                       26   5
  294              map_forward                           0.003262                     28   6
  295                map_gather                            0.000629                   16   7
  296                m_alltoallv_z                         0.000222                   16   7
  297                map_scatter                           0.002074                   16   7
  298              map_backward                          0.003090                     24   6
  299                map_gather                            0.000567                   12   7
  300                m_alltoallv_z                         0.000160                   12   7
  301                map_scatter                           0.001941                   12   7
  302        m_sumb_d                              0.000035                            5   3
  303        pothar                                0.000130                            1   3
  304          m_sumb_d                              0.000007                          1   4
  305        m_bcast_d                             0.000026                            2   3
  306      potlok_metagga                        0.000000                              1   2
  307      set_dd_magatom                        0.000004                              1   2
  308      set_dd_paw                            0.032576                              1   2
  309        m_sumb_d                              0.003692                            7   3
  310      augmentation_charge                   0.068946                              1   2
  311        fft3d_mpi                             0.021263                            2   3
  312          fftbrc_mpi                            0.017879                          2   4
  313            fftbas_plan_mpi                       0.017876                        2   5
  314              dfftw_execute                         0.010116                      6   6
  315              map_backward                          0.007519                      4   6
  316                map_gather                            0.001967                    2   7
  317                m_alltoallv_z                         0.003691                    2   7
  318                map_scatter                           0.001854                    2   7
  319      densta                                3.559572                              1   2

 Flat profile

 raccmu_                               484.170109      518181
 eddav                                 338.882583         147
 lapack                                278.246565      518181
 redis_pw                              127.938241     2887462
 m_sumb_d                              118.990217     1570387
 phaser                                 59.680410        3991
 m_alltoall_d                           54.501795     7491654
 eccp                                   33.650663      229320
 hamiltmu                               28.955280      518181
 orth1                                  27.739606     1554751
 fft3d                                  27.332803     3068539
 redis_proj                             24.127443     3694530
 total_time                             24.065691           1
 fftwav                                 20.124015     2032177
 overl                                  15.441720     1843430
 racc0mu_acc                            15.245336      518181
 w1_copy                                15.044930     3109086
 rpromu_acc                             13.951222      408591
 m_bcast_z                              12.246211      524421
 init_acc                               11.476722           1
 ggemm                                  10.729960      632841
 densta                                 10.504846         148
 pw_charge                               9.527293      168493
 soft_charge                             9.337555         144
 m_bcast_d                               8.785743     1036655
 setup_precond                           8.459482      229320
 overl_mu                                8.150486      518181
 set_charge                              7.805971         144
 setdij_                                 7.088670         171
 augmentation_charge                     6.872563         145
 vhamil                                  4.770007     1036362
 kinhamil                                4.738823     1036362
 fftext_mpi                              4.436170     1036362
 apply_precond                           4.408715      807042
 set_dd_paw                              4.220066         145
 newband                                 3.842523      522003
 depsum                                  3.720553         144
 fftwav_mpi                              2.674007     2032177
 acc_init_cublas                         2.457545           1
 potlok                                  2.122013         144
 broyd                                   2.115921         143
 dfftw_execute                           1.947501        1782
 fft3d_mpi                               1.713034     1040725
 m_alltoallv_z                           1.337037        4939
 rpro_isp                                1.299835         169
 brmix                                   0.960004         143
 map_scatter                             0.947410        4939
 rspher_all                              0.879476          14
 acc_init_cusolver                       0.800771           1
 setg0                                   0.744320         145
 brget                                   0.685547       29136
 map_gather                              0.665232        4939
 elmin                                   0.512474           1
 sphpro_fast                             0.452474           2
 w1_projall                              0.393657      403521
 fftbas_plan_mpi                         0.190678        4363
 brsav                                   0.188196        8186
 lincom                                  0.175220        3848
 proall                                  0.146132           1
 acc_cufft_makeplan                      0.133681          19
 truncate_high_frequency_w1              0.103016     1265682
 orthch                                  0.086101           1
 stufak                                  0.082310           1
 fft_gq                                  0.064499         144
 map_backward                            0.063598        4650
 force_and_stress                        0.060466           1
 map_forward                             0.049556        4076
 pothar                                  0.018147         145
 brpre                                   0.017582         286
 choleski                                0.016023          26
 strnlr                                  0.007554           1
 forhar                                  0.007504           2
 strelo                                  0.007379           1
 strehar                                 0.006798           1
 inisym                                  0.004825           1
 forloc                                  0.003887           1
 strkin                                  0.003655           1
 fornlr                                  0.002565           1
 fftbrc_mpi                              0.002400        4363
 rsp                                     0.001977           1
 brgrid                                  0.000826           1
 vectorpot                               0.000676         144
 set_dd_magatom                          0.000614         145
 chggra                                  0.000382           1
 fewald                                  0.000354           1
 fordep                                  0.000170           1
 posmap                                  0.000125           2
 rcp                                     0.000056           1
 crpa_reader                             0.000029           1
 potlok_metagga                          0.000014         144
 acc_cufft_makeplans                     0.000014           3
 rotate_active_occupied_orbital          0.000000           1
 redis_pw_over_bands                     0.000000           1
  summed up times     1873.366255998611

 Accumulative profile

 total_time                           1873.366256           1
 elmin                                1812.779883           1
 eddav                                1735.826328         147
 hamiltmu                              558.204420      518181
 raccmu_                               507.565931      518181
 lapack                                278.246565      518181
 redis_pw                              156.078436     2887462
 m_sumb_d                              118.990217     1570387
 newband                                64.176851      522003
 phaser                                 59.680410        3991
 set_charge                             56.560357         144
 m_alltoall_d                           54.501795     7491654
 redis_proj                             50.489043     3694530
 fftwav_mpi                             42.702655     2032177
 fftwav                                 40.028647     2032177
 eccp                                   33.650663      229320
 soft_charge                            33.540522         144
 orth1                                  27.739606     1554751
 fft3d                                  27.332803     3068539
 kinhamil                               16.913202     1036362
 overl                                  15.441720     1843430
 racc0mu_acc                            15.245336      518181
 w1_copy                                15.044930     3109086
 fft3d_mpi                              14.344616     1040725
 rpromu_acc                             13.951222      408591
 m_bcast_z                              12.246211      524421
 fftext_mpi                             12.174379     1036362
 w1_projall                             12.144621      403521
 init_acc                               11.476722           1
 ggemm                                  10.729960      632841
 densta                                 10.504846         148
 augmentation_charge                    10.374969         145
 pw_charge                               9.527293      168493
 force_and_stress                        8.906729           1
 m_bcast_d                               8.785743     1036655
 setup_precond                           8.459482      229320
 overl_mu                                8.150486      518181
 setdij_                                 7.279727         171
 strnlr                                  5.491223           1
 fftbrc_mpi                              5.203411        4363
 fftbas_plan_mpi                         5.201011        4363
 vhamil                                  4.770007     1036362
 brmix                                   4.769450         143
 set_dd_paw                              4.746293         145
 apply_precond                           4.408715      807042
 rpro_isp                                4.227160         169
 depsum                                  3.782355         144
 potlok                                  3.540655         144
 broyd                                   3.036676         143
 acc_init_cublas                         2.457545           1
 map_backward                            2.412001        4650
 dfftw_execute                           1.947501        1782
 fornlr                                  1.832204           1
 fft_gq                                  1.579864         144
 m_alltoallv_z                           1.337037        4939
 map_scatter                             0.947410        4939
 rspher_all                              0.879476          14
 acc_init_cusolver                       0.800771           1
 setg0                                   0.744320         145
 brget                                   0.685547       29136
 map_gather                              0.665232        4939
 map_forward                             0.650831        4076
 orthch                                  0.545796           1
 sphpro_fast                             0.472207           2
 proall                                  0.436687           1
 fordep                                  0.247599           1
 brsav                                   0.188196        8186
 lincom                                  0.175220        3848
 acc_cufft_makeplans                     0.133695           3
 acc_cufft_makeplan                      0.133681          19
 truncate_high_frequency_w1              0.103016     1265682
 stufak                                  0.082310           1
 pothar                                  0.021288         145
 brpre                                   0.017582         286
 choleski                                0.016023          26
 forhar                                  0.007822           2
 strelo                                  0.007740           1
 strehar                                 0.006802           1
 inisym                                  0.004950           1
 forloc                                  0.004210           1
 strkin                                  0.003665           1
 fewald                                  0.002687           1
 rsp                                     0.001977           1
 chggra                                  0.001527           1
 brgrid                                  0.000826           1
 vectorpot                               0.000676         144
 set_dd_magatom                          0.000614         145
 posmap                                  0.000125           2
 rcp                                     0.000056           1
 crpa_reader                             0.000029           1
 potlok_metagga                          0.000014         144
 rotate_active_occupied_orbital          0.000000           1
 redis_pw_over_bands                     0.000000           1

Profiling took   6.676188  3.236099  0.003308  0.003214 seconds
Profiling took   4.223097 seconds