 vasp.6.3.2 27Jun22 (build Jul  3 2023 11:46:21) complex
 executed on    LinuxNV_CrayMPICH date 2024.04.21  20:18:43

 INCAR:
   ADDGRID = True
   ALGO = Normal
   EDIFF = 0.0015
   ENCUT = 520.0
   IBRION = -1
   ICHARG = 0
   ISIF = 3
   ISMEAR = -5
   ISPIN = 2
   KPOINT_BSE = -1 0 0 0
   LAECHG = True
   LASPH = True
   LCHARG = True
   LELF = True
   LORBIT = 11
   LREAL = Auto
   LVHAR = True
   LWAVE = False
   MAGMOM = 9*5.0 1*7.0 20*0.6
   NELM = 1000
   NSW = 0
   PREC = accurate
   SIGMA = 0.05

 POTCAR:    PAW_PBE Ce 23Dec2003
 POTCAR:    PAW_PBE Gd 23Dec2003
 POTCAR:    PAW_PBE O 08Apr2002
 POTCAR:    PAW_PBE Ce 23Dec2003
   VRHFIN =Ce : [core= Kr 4d10]

   TITEL  = PAW_PBE Ce 23Dec2003
   POMASS =  140.115; ZVAL   =   12.000    mass and valenz
   ENMAX  =  273.042; ENMIN  =  204.781 eV

   TITEL  = PAW_PBE Gd 23Dec2003
   POMASS =  157.250; ZVAL   =   18.000    mass and valenz
   ENMAX  =  256.472; ENMIN  =  192.354 eV

   TITEL  = PAW_PBE O 08Apr2002
   POMASS =   16.000; ZVAL   =    6.000    mass and valenz
   ENMAX  =  400.000; ENMIN  =  300.000 eV

 Optimization of the real space projectors (new method)

 maximal supplied QI-value         = 13.98
 optimisation between [QCUT,QGAM] = [ 11.61, 23.35] = [ 37.72,152.72] Ry
 Optimized for a Real-space Cutoff    1.58 Angstroem

   l    n(q)    QCUT    max X(q) W(low)/X(q) W(high)/X(q)  e(spline)
   0     11    11.607     8.553    0.18E-04    0.38E-05    0.11E-06
   0     11    11.607     8.106    0.25E-04    0.72E-05    0.23E-06
   1     11    11.607     4.160    0.64E-06    0.35E-05    0.82E-07
   1     11    11.607     3.597    0.15E-04    0.58E-05    0.16E-06
   2     10    11.607     8.183    0.53E-04    0.30E-03    0.10E-05
   2     10    11.607     6.077    0.37E-04    0.21E-03    0.69E-06
   3     10    11.607   116.013    0.17E-03    0.16E-04    0.46E-06
   3     10    11.607   108.937    0.17E-03    0.15E-04    0.47E-06
 Optimization of the real space projectors (new method)

[...]

   l    n(q)    QCUT    max X(q) W(low)/X(q) W(high)/X(q)  e(spline)
   0     11    11.673    10.501    0.14E-04    0.17E-05    0.21E-07
   0     11    11.673     9.148    0.21E-04    0.32E-05    0.45E-07
   1     11    11.673     4.035    0.33E-05    0.11E-04    0.84E-07
   1     11    11.673     4.388    0.11E-04    0.47E-04    0.34E-06
   2     10    11.673    20.656    0.12E-04    0.28E-04    0.54E-06
   2     10    11.673    12.651    0.11E-04    0.26E-04    0.51E-06
   3     10    11.673    61.921    0.19E-03    0.22E-03    0.23E-06
   3     10    11.673    48.328    0.20E-03    0.23E-03    0.23E-06
 Optimization of the real space projectors (new method)

 maximal supplied QI-value         = 24.76
 optimisation between [QCUT,QGAM] = [ 11.64, 23.27] = [ 37.91,151.63] Ry
 Optimized for a Real-space Cutoff    1.14 Angstroem

   l    n(q)    QCUT    max X(q) W(low)/X(q) W(high)/X(q)  e(spline)
   0      8    11.635    20.381    0.10E-03    0.33E-03    0.24E-06
   0      8    11.635    15.268    0.11E-03    0.35E-03    0.26E-06
   1      7    11.635     5.964    0.24E-03    0.31E-03    0.30E-06
   1      7    11.635     5.382    0.22E-03    0.25E-03    0.26E-06
  PAW_PBE Ce 23Dec2003                  :
  PAW_PBE Gd 23Dec2003                  :
  PAW_PBE O 08Apr2002                   :

 POSCAR: Ce9 Gd1 O20
  positions in direct lattice
 exchange correlation table for  LEXCH =        8
   RHO(1)=    0.500       N(1)  =     2000
   RHO(2)=  100.500       N(2)  =     4000

 VTST: version 4.2, (08/11/21)

 CHAIN: initializing optimizer

 OPT: Using VASP Dynamics algorithm
 CHAIN: Read ICHAIN             0

 POSCAR: Ce9 Gd1 O20
  positions in direct lattice

 ion  position               nearest neighbor table
   1  0.800  0.601  0.601-  25 2.35  21 2.35  30 2.36  15 2.36  14 2.37  17 2.37  26 2.37  11 2.37

   2  0.599  0.199  0.199-  12 2.35  29 2.35  22 2.36  16 2.36  18 2.37  19 2.37  26 2.38  11 2.38

[...]

  11  0.850  0.325  0.450-   5 2.36   1 2.37   4 2.37   2 2.38
  12  0.647  0.924  0.051-   6 2.35   2 2.35   9 2.35  10 2.39
  13  0.950  0.773  0.151-   6 2.35   8 2.35   3 2.36  10 2.39
  14  0.450  0.525  0.650-   1 2.37   5 2.37   7 2.37   9 2.38
  15  0.850  0.825  0.450-   6 2.36   1 2.36   8 2.37   4 2.37
  16  0.252  0.126  0.252-   5 2.35   8 2.35   2 2.36  10 2.38
  17  0.750  0.375  0.750-   4 2.36   3 2.37   1 2.37   7 2.37
  18  0.650  0.425  0.050-   6 2.36   7 2.36   3 2.37   2 2.37
  19  0.550  0.975  0.350-   6 2.36   8 2.36   2 2.37   4 2.37
  20  0.450  0.025  0.650-   7 2.36   4 2.36   9 2.37   8 2.37
  21  0.050  0.723  0.849-   1 2.35   9 2.36   3 2.36  10 2.38
  22  0.950  0.277  0.151-   5 2.35   2 2.36   3 2.36  10 2.38
  23  0.350  0.575  0.950-   7 2.36   6 2.36   3 2.37   9 2.37
  24  0.250  0.625  0.250-   8 2.36   3 2.37   5 2.37   6 2.37
  25  0.748  0.874  0.748-   1 2.35   4 2.35   9 2.36  10 2.38
  26  0.550  0.475  0.350-   5 2.37   1 2.37   6 2.37   2 2.38
  27  0.150  0.175  0.550-   7 2.36   5 2.36   4 2.37   8 2.37
  28  0.050  0.227  0.849-   7 2.35   4 2.35   3 2.36  10 2.39
  29  0.353  0.076  0.949-   7 2.35   9 2.35   2 2.35  10 2.39
  30  0.150  0.675  0.550-   1 2.36   5 2.37   8 2.37   9 2.38

  LATTYP: Found a triclinic cell.
 ALAT       =    13.9313471009
 B/A-ratio  =     0.6200820918
 C/A-ratio  =     1.2401345712
 COS(alpha) =     0.0003765245
 COS(beta)  =     0.5583810828
 COS(gamma) =     0.8063404344

  Lattice vectors:

 A1 = (   5.5864890000,   9.7491510000,  -8.2357530000)
 A2 = (   4.4643390000,   7.3955880000,   0.0000000000)
 A3 = (   4.4662720000,  -2.6884620000, -16.4715060000)

Analysis of symmetry for initial positions (statically):
 Subroutine PRICEL returns:
 Original cell was already a primitive cell.

 Routine SETGRP: Setting up the symmetry group for a
 triclinic supercell.

 Subroutine GETGRP returns: Found  2 space group operations
 (whereof  2 operations were pure point group operations)
 out of a pool of  2 trial point group operations.

The static configuration has the point symmetry S_2 .

Analysis of symmetry for dynamics (positions and initial velocities):
 Subroutine PRICEL returns:
 Original cell was already a primitive cell.

[...]

The dynamic configuration has the point symmetry S_2 .

Analysis of structural, dynamic, and magnetic symmetry:
 Subroutine PRICEL returns:
 Original cell was already a primitive cell.

 Routine SETGRP: Setting up the symmetry group for a
 triclinic supercell.

 Subroutine GETGRP returns: Found  2 space group operations
 (whereof  2 operations were pure point group operations)
 out of a pool of  2 trial point group operations.

The overall configuration has the point symmetry S_2 .

 Subroutine INISYM returns: Found  2 space group operations
 (whereof  2 operations are pure point group operations),
 and found     1 'primitive' translations

                                     Primitive cell

  volume of cell :     407.2514

  direct lattice vectors                    reciprocal lattice vectors
     6.686311000  0.000000000  0.000000000     0.149559301  0.044934436  0.033219063
    -2.221972000  7.395588000  0.000000000    -0.000000000  0.135215753  0.038641129
    -1.122150000 -2.353563000  8.235753000     0.000000000 -0.000000000  0.121421806

  length of vectors
     6.686311000  7.722168182  8.638640338     0.159657741  0.140628719  0.121421806

  position of ions in fractional coordinates (direct lattice)
     0.800403000  0.600913000  0.600849000
     0.599390000  0.198776000  0.198809000
     0.000000000  0.500000000  0.000000000
     0.800421000  0.099904000  0.601060000
     0.199597000  0.399087000  0.399151000
     0.601365000  0.700925000  0.199417000
     0.398635000  0.299075000  0.800583000
     0.199579000  0.900096000  0.398940000
     0.400610000  0.801224000  0.801191000
     0.000000000  0.000000000  0.000000000
     0.850167000  0.325141000  0.450250000
     0.646995000  0.924184000  0.050680000
     0.949684000  0.773063000  0.151379000
     0.449812000  0.524731000  0.649875000
     0.850031000  0.825044000  0.450042000
     0.251952000  0.126053000  0.251954000
     0.749586000  0.374862000  0.749979000
     0.649700000  0.425089000  0.049855000
     0.550189000  0.974857000  0.350293000
     0.449811000  0.025143000  0.649707000
     0.050404000  0.722819000  0.848666000
     0.949596000  0.277181000  0.151334000
     0.350300000  0.574911000  0.950145000
     0.250414000  0.625138000  0.250021000
     0.748048000  0.873947000  0.748046000
     0.550188000  0.475269000  0.350125000
     0.149969000  0.174956000  0.549958000
     0.050316000  0.226937000  0.848621000
     0.353005000  0.075816000  0.949320000
     0.149833000  0.674859000  0.549750000

  ion indices of the primitive-cell ions
   primitive index   ion index
                 1           1
                 2           2
                 3           3
                 4           4
                 5           5
                 6           6
                 7           7
                 8           8
                 9           9
                10          10
                11          11
                12          12
                13          13
                14          14
                15          15
                16          16
                17          17
                18          18
                19          19
                20          20
                21          21
                22          22
                23          23
                24          24
                25          25
                26          26
                27          27
                28          28
                29          29
                30          30

 KPOINTS: Kpoints from vasprun.xml

Automatic generation of k-mesh.
 Grid dimensions read from file:
 generate k-points for:    4    3    3

 Generating k-lattice:

  Cartesian coordinates                     Fractional coordinates (reciprocal lattice)
     0.037389825  0.011233609  0.008304766     0.250000000  0.000000000  0.000000000
    -0.000000000  0.045071918  0.012880376     0.000000000  0.333333333  0.000000000
     0.000000000 -0.000000000  0.040473935     0.000000000  0.000000000  0.333333333

  Length of vectors
     0.039914435  0.046876240  0.040473935

  Shift w.r.t. Gamma in fractional coordinates (k-lattice)
     0.000000000  0.000000000  0.000000000

 TETIRR: Found    106 inequivalent tetrahedra from      216

 Subroutine IBZKPT returns following result:

 Found     19 irreducible k-points:

 Following reciprocal coordinates:
            Coordinates               Weight
  0.000000  0.000000  0.000000      1.000000
  0.250000  0.000000  0.000000      2.000000
  0.500000  0.000000  0.000000      1.000000
  0.000000  0.333333  0.000000      2.000000
  0.250000  0.333333  0.000000      2.000000
  0.500000  0.333333  0.000000      2.000000
 -0.250000  0.333333  0.000000      2.000000
  0.000000  0.000000  0.333333      2.000000
  0.250000  0.000000  0.333333      2.000000
  0.500000  0.000000  0.333333      2.000000
 -0.250000  0.000000  0.333333      2.000000
  0.000000  0.333333  0.333333      2.000000
  0.250000  0.333333  0.333333      2.000000
[...]
  318                map_forward                           0.000223                    4   7
  319                  map_gather                            0.000049                  2   8
  320                  m_alltoallv_z                         0.000026                  2   8
  321                  map_scatter                           0.000114                  2   8
  322                map_backward                          0.000099                    2   7
  323                  map_gather                            0.000025                  1   8
  324                  m_alltoallv_z                         0.000011                  1   8
  325                  map_scatter                           0.000049                  1   8
  326          m_sumb_d                              0.000009                          2   4
  327          pothar                                0.000086                          1   4
  328            m_sumb_d                              0.000010                        1   5
  329        brmix                                 0.013149                            1   3
  330          m_sumb_d                              0.000072                          6   4
  331          brpre                                 0.000037                          2   4
  332          setg0                                 0.001374                          1   4
  333          broyd                                 0.010109                          1   4
  334            m_sumb_d                              0.001406                       51   5
  335            brget                                 0.001775                      229   5
  336            brsav                                 0.000360                       49   5
  337        m_bcast_d                             0.000028                            2   3
  338      potlok                                0.045171                              2   2
  339        fft3d_mpi                             0.028807                           36   3
  340          fftbrc_mpi                            0.023896                         36   4
  341            fftbas_plan_mpi                       0.023873                       36   5
  342              map_forward                           0.007120                     40   6
  343                map_gather                            0.002198                   24   7
  344                m_alltoallv_z                         0.002695                   24   7
  345                map_scatter                           0.002012                   24   7
  346              map_backward                          0.005684                     32   6
  347                map_gather                            0.002008                   16   7
  348                m_alltoallv_z                         0.001738                   16   7
  349                map_scatter                           0.001756                   16   7
  350              dfftw_execute                         0.009432                     30   6
  351        m_sumb_d                              0.000026                            5   3
  352        pothar                                0.001884                            2   3
  353          m_sumb_d                              0.000126                          2   4
  354        m_bcast_d                             0.003194                            4   3
  355      potlok_metagga                        0.000000                              1   2
  356      set_dd_magatom                        0.000005                              1   2
  357      set_dd_paw                            3.875071                              1   2
  358        m_sumb_d                              0.918196                            7   3
  359      augmentation_charge                   0.191567                              1   2
  360        fft3d_mpi                             0.063301                            2   3
  361          fftbrc_mpi                            0.055735                          2   4
  362            fftbas_plan_mpi                       0.055732                        2   5
  363              dfftw_execute                         0.034109                      6   6
  364              map_backward                          0.021375                      4   6
  365                map_gather                            0.007361                    2   7
  366                m_alltoallv_z                         0.007731                    2   7
  367                map_scatter                           0.006270                    2   7
  368      fftwav_mpi                            5.389730                           5130   2
  369        fftwav                                5.383457                         5130   3
  370          fft3d                                 4.869576                       5130   4
  371      densta                                9.763277                              1   2

 Flat profile

 set_dd_paw                            273.851001          92
 eddav                                 190.633476          94
 lapack                                177.803507      358775
 raccmu_                               167.319842      358775
 m_sumb_d                              163.655346     1088023
 redis_pw                               85.239676     1947509
 m_alltoall_d                           35.684467     5071691
 densta                                 21.579929          95
 fft3d                                  21.445844     2075545
 orth1                                  18.682092     1076553
 phaser                                 17.720435        3819
 total_time                             17.577542           1
 eccp                                   16.833888      160740
 redis_proj                             16.548532     2487150
 setdij_                                14.016869         118
 fftwav                                 13.359064     1375202
 init_acc                               12.139298           1
 augmentation_charge                    11.626628          92
 hamiltmu                               10.780529      358775
 racc0mu_acc                            10.551701      358775
 overl                                  10.502462     1239984
 w1_copy                                10.205942     2101029
 rpromu_acc                              9.579676      282547
 dfftw_execute                           9.082794        2652
 m_bcast_z                               8.310751      365615
 soft_charge                             6.333195          91
 m_bcast_d                               6.029775      717739
 setup_precond                           5.857162      160740
 ggemm                                   5.708335      440931
 overl_mu                                5.622069      358775
 pw_charge                               3.676258      107896
 vhamil                                  3.289240      700343
 kinhamil                                3.248637      700343
 apply_precond                           3.010668      539603
 fftext_mpi                              2.970156      700343
 newband                                 2.657184      362347
 depsum                                  2.588220          91
 acc_init_cublas                         2.441392           1
 m_alltoallv_z                           2.163514        3661
 fftwav_mpi                              1.859118     1375202
 fft3d_mpi                               1.773477      703618
 map_scatter                             1.690282        3661
 map_gather                              1.363915        3661
 set_charge                              1.187751          91
 rpro_isp                                1.179807         247
 acc_init_cusolver                       0.794296           1
 potlok                                  0.458121          92
 sphpro_fast                             0.415390           2
 broyd                                   0.380550          90
 rspher_all                              0.336841          14
 w1_projall                              0.283180      276619
 elmin                                   0.244175           1
 brmix                                   0.211870          90
 fftbas_plan_mpi                         0.184043        3275
 lincom                                  0.139712        3610
 acc_cufft_makeplan                      0.131096          19
 setg0                                   0.125571          92
 brget                                   0.125100       16257
 proall                                  0.108952           1
 truncate_high_frequency_w1              0.067670      861083
 orthch                                  0.055232           1
 brsav                                   0.033499        4400
 force_and_stress                        0.031634           1
 map_forward                             0.020751        3104
 stufak                                  0.019702           1
 map_backward                            0.018844        3446
 choleski                                0.017165          38
 fft_gq                                  0.010430          91
 pothar                                  0.009366          93
 strnlr                                  0.008975           1
 inisym                                  0.004332           1
 brpre                                   0.003751         180
 fornlr                                  0.003074           1
 strelo                                  0.002553           1
 strkin                                  0.002378           1
 forhar                                  0.002214           2
 fftbrc_mpi                              0.002012        3275
 strehar                                 0.001933           1
 rsp                                     0.001274           1
 forloc                                  0.001165           1
 set_dd_magatom                          0.000421          92
 vectorpot                               0.000376          91
 fewald                                  0.000338           1
 brgrid                                  0.000263           1
 chggra                                  0.000245           1
 fordep                                  0.000135           1
 rcp                                     0.000045           1
 crpa_reader                             0.000027           1
 posmap                                  0.000026           2
 acc_cufft_makeplans                     0.000012           3
 potlok_metagga                          0.000011          91
 rotate_active_occupied_orbital          0.000000           1
 redis_pw_over_bands                     0.000000           1
  summed up times     1413.640197992325

 Accumulative profile

 total_time                           1413.640198           1
 elmin                                1342.743814           1
 eddav                                 925.424775          94
 set_dd_paw                            358.743324          92
 hamiltmu                              208.969115      358775
 raccmu_                               183.493612      358775
 lapack                                177.803507      358775
 m_sumb_d                              163.655346     1088023
 redis_pw                              102.893708     1947509
 newband                                38.461767      362347
 set_charge                             36.612249          91
 m_alltoall_d                           35.684467     5071691
 redis_proj                             34.578967     2487150
 fftwav_mpi                             31.685101     1375202
 fftwav                                 29.825983     1375202
 setdij_                                23.199066         118
 densta                                 21.579929          95
 fft3d                                  21.445844     2075545
 fft3d_mpi                              21.278558      703618
 orth1                                  18.682092     1076553
 phaser                                 17.720435        3819
 augmentation_charge                    17.550771          92
 eccp                                   16.833888      160740
 soft_charge                            15.264196          91
 fftbrc_mpi                             14.526155        3275
 fftbas_plan_mpi                        14.524143        3275
 force_and_stress                       14.116426           1
 init_acc                               12.139298           1
 kinhamil                               11.405735      700343
 racc0mu_acc                            10.551701      358775
 overl                                  10.502462     1239984
 w1_copy                                10.205942     2101029
 rpromu_acc                              9.579676      282547
 dfftw_execute                           9.082794        2652
 w1_projall                              8.357159      276619
 m_bcast_z                               8.310751      365615
 fftext_mpi                              8.157098      700343
 m_bcast_d                               6.029775      717739
 setup_precond                           5.857162      160740
 ggemm                                   5.708335      440931
 overl_mu                                5.622069      358775
 pw_charge                               3.676258      107896
 strnlr                                  3.512215           1
 rpro_isp                                3.382993         247
 vhamil                                  3.289240      700343
 apply_precond                           3.010668      539603
 map_backward                            2.691642        3446
 depsum                                  2.618037          91
 map_forward                             2.565665        3104
 acc_init_cublas                         2.441392           1
 m_alltoallv_z                           2.163514        3661
 map_scatter                             1.690282        3661
 map_gather                              1.363915        3661
 fordep                                  1.185935           1
 fornlr                                  1.168773           1
 potlok                                  1.052032          92
 brmix                                   0.967449          90
 acc_init_cusolver                       0.794296           1
 broyd                                   0.620447          90
 orthch                                  0.476901           1
 sphpro_fast                             0.432895           2
 rspher_all                              0.336841          14
 proall                                  0.310515           1
 fft_gq                                  0.241016          91
 lincom                                  0.139712        3610
 acc_cufft_makeplans                     0.131108           3
 acc_cufft_makeplan                      0.131096          19
 setg0                                   0.125571          92
 brget                                   0.125100       16257
 truncate_high_frequency_w1              0.067670      861083
 brsav                                   0.033499        4400
 stufak                                  0.019702           1
 choleski                                0.017165          38
 pothar                                  0.010457          93
 inisym                                  0.004358           1
 brpre                                   0.003751         180
 strelo                                  0.002643           1
 fewald                                  0.002521           1
 strkin                                  0.002389           1
 forhar                                  0.002277           2
 strehar                                 0.001937           1
 forloc                                  0.001639           1
 rsp                                     0.001274           1
 chggra                                  0.000854           1
 set_dd_magatom                          0.000421          92
 vectorpot                               0.000376          91
 brgrid                                  0.000263           1
 rcp                                     0.000045           1
 crpa_reader                             0.000027           1
 posmap                                  0.000026           2
 potlok_metagga                          0.000011          91
 rotate_active_occupied_orbital          0.000000           1
 redis_pw_over_bands                     0.000000           1

Profiling took   4.426421  2.126046  0.003317  0.003216 seconds
Profiling took   2.750712 seconds