 vasp.6.3.2 27Jun22 (build Jul  3 2023 11:46:21) complex
 executed on    LinuxNV_CrayMPICH date 2024.05.12  15:18:39

 INCAR:
   ADDGRID = True
   ALGO = Normal
   EDIFF = 0.0002
   ENCUT = 520.0
   IBRION = -1
   ICHARG = 0
   ISIF = 3
   ISMEAR = 0
   ISPIN = 2
   ISTART = 1
   KPOINT_BSE = -1 0 0 0
   LAECHG = True
   LASPH = True
   LCHARG = True
   LELF = True
   LORBIT = 11
   LREAL = Auto
   LVHAR = True
   LWAVE = False
   MAGMOM = 1*0.6 1*7.0 2*0.6
   NELM = 1000
   NUPDOWN = 0
   NSW = 0
   PREC = accurate
   SIGMA = 0.05

 POTCAR:    PAW_PBE Sm_3 07Sep2000
 POTCAR:    PAW_PBE Gd 23Dec2003
 POTCAR:    PAW_PBE In_d 06Sep2000
 POTCAR:    PAW_PBE Sm_3 07Sep2000
   VRHFIN =Sm : [core=Xe4]

   TITEL  = PAW_PBE Sm_3 07Sep2000
   POMASS =  150.360; ZVAL   =   11.000    mass and valenz
   ENMAX  =  177.087; ENMIN  =  132.815 eV

   TITEL  = PAW_PBE Gd 23Dec2003
   POMASS =  157.250; ZVAL   =   18.000    mass and valenz
   ENMAX  =  256.472; ENMIN  =  192.354 eV

   TITEL  = PAW_PBE In_d 06Sep2000
   POMASS =  114.820; ZVAL   =   13.000    mass and valenz
   ENMAX  =  239.211; ENMIN  =  179.409 eV

 Optimization of the real space projectors (new method)

 maximal supplied QI-value         = 13.23
 optimisation between [QCUT,QGAM] = [ 11.64, 23.28] = [ 37.95,151.78] Ry
 Optimized for a Real-space Cutoff    1.73 Angstroem

   l    n(q)    QCUT    max X(q) W(low)/X(q) W(high)/X(q)  e(spline)
   0     12    11.641     6.970    0.78E-05    0.65E-05    0.89E-07
   0     12    11.641    24.042    0.34E-04    0.17E-04    0.22E-06
   1     12    11.641     4.424    0.60E-05    0.14E-05    0.11E-06
   1     12    11.641     4.788    0.21E-04    0.27E-04    0.77E-06
   2     11    11.641    33.680    0.13E-03    0.27E-03    0.15E-05
   2     11    11.641    27.971    0.12E-03    0.25E-03    0.14E-05
 Optimization of the real space projectors (new method)

[...]

   l    n(q)    QCUT    max X(q) W(low)/X(q) W(high)/X(q)  e(spline)
   0     11    11.673    10.501    0.14E-04    0.17E-05    0.21E-07
   0     11    11.673     9.148    0.21E-04    0.32E-05    0.45E-07
   1     11    11.673     4.035    0.33E-05    0.11E-04    0.84E-07
   1     11    11.673     4.388    0.11E-04    0.47E-04    0.34E-06
   2     10    11.673    20.656    0.12E-04    0.28E-04    0.54E-06
   2     10    11.673    12.651    0.11E-04    0.26E-04    0.51E-06
   3     10    11.673    61.921    0.19E-03    0.22E-03    0.23E-06
   3     10    11.673    48.328    0.20E-03    0.23E-03    0.23E-06
 Optimization of the real space projectors (new method)

 maximal supplied QI-value         = 15.12
 optimisation between [QCUT,QGAM] = [ 11.64, 23.28] = [ 37.95,151.78] Ry
 Optimized for a Real-space Cutoff    1.36 Angstroem

   l    n(q)    QCUT    max X(q) W(low)/X(q) W(high)/X(q)  e(spline)
   2      9    11.641     4.551    0.57E-04    0.17E-03    0.81E-07
   2      9    11.641     8.525    0.12E-03    0.33E-04    0.17E-06
   0      9    11.641   208.283    0.14E-03    0.45E-04    0.94E-07
   0      9    11.641   161.407    0.13E-03    0.44E-04    0.93E-07
   1      9    11.641   122.126    0.23E-03    0.20E-03    0.21E-06
   1      9    11.641    62.412    0.22E-03    0.19E-03    0.20E-06
  PAW_PBE Sm_3 07Sep2000                :
  PAW_PBE Gd 23Dec2003                  :
  PAW_PBE In_d 06Sep2000                :

 POSCAR: Sm1 Gd1 In2
  positions in direct lattice
 exchange correlation table for  LEXCH =        8
   RHO(1)=    0.500       N(1)  =     2000
   RHO(2)=  100.500       N(2)  =     4000

 VTST: version 4.2, (08/11/21)

 CHAIN: initializing optimizer

 OPT: Using VASP Dynamics algorithm
 CHAIN: Read ICHAIN             0

 POSCAR: Sm1 Gd1 In2
  positions in direct lattice

 ion  position               nearest neighbor table
   1  0.000  0.000  0.000-   3 3.31   4 3.31   3 3.31   3 3.31   4 3.31   4 3.31   4 3.31   3 3.31

   2  0.500  0.500  0.500-   4 3.31   3 3.31   4 3.31   3 3.31   4 3.31   3 3.31   3 3.31   4 3.31

   3  0.750  0.750  0.750-   2 3.31   1 3.31   2 3.31   1 3.31   2 3.31   1 3.31   1 3.31   2 3.31
                             4 3.82   4 3.82   4 3.82   4 3.82   4 3.82   4 3.82
   4  0.250  0.250  0.250-   1 3.31   2 3.31   1 3.31   1 3.31   2 3.31   2 3.31   2 3.31   1 3.31
                             3 3.82   3 3.82   3 3.82   3 3.82   3 3.82   3 3.82

  LATTYP: Found a face centered cubic cell.
 ALAT       =     7.6418120000

  Lattice vectors:

 A1 = (   0.0000000000,   3.8209060000,   3.8209060000)
 A2 = (   3.8209060000,   0.0000000000,   3.8209060000)
 A3 = (   3.8209060000,   3.8209060000,   0.0000000000)

Analysis of symmetry for initial positions (statically):
 Subroutine PRICEL returns:
 Original cell was already a primitive cell.

 Routine SETGRP: Setting up the symmetry group for a
 face centered cubic supercell.

 Subroutine GETGRP returns: Found 48 space group operations
 (whereof 48 operations were pure point group operations)
 out of a pool of 48 trial point group operations.

The static configuration has the point symmetry O_h .

Analysis of symmetry for dynamics (positions and initial velocities):
 Subroutine PRICEL returns:
 Original cell was already a primitive cell.

[...]

The dynamic configuration has the point symmetry O_h .

Analysis of structural, dynamic, and magnetic symmetry:
 Subroutine PRICEL returns:
 Original cell was already a primitive cell.

 Routine SETGRP: Setting up the symmetry group for a
 face centered cubic supercell.

 Subroutine GETGRP returns: Found 48 space group operations
 (whereof 48 operations were pure point group operations)
 out of a pool of 48 trial point group operations.

The overall configuration has the point symmetry O_h .

 Subroutine INISYM returns: Found 48 space group operations
 (whereof 48 operations are pure point group operations),
 and found     1 'primitive' translations

                                     Primitive cell

  volume of cell :     111.5653

  direct lattice vectors                    reciprocal lattice vectors
     0.000000000  3.820906000  3.820906000    -0.130859016  0.130859016  0.130859016
     3.820906000  0.000000000  3.820906000     0.130859016 -0.130859016  0.130859016
     3.820906000  3.820906000  0.000000000     0.130859016  0.130859016 -0.130859016

  length of vectors
     5.403577086  5.403577086  5.403577086     0.226654465  0.226654465  0.226654465

  position of ions in fractional coordinates (direct lattice)
     0.000000000  0.000000000  0.000000000
     0.500000000  0.500000000  0.500000000
     0.750000000  0.750000000  0.750000000
     0.250000000  0.250000000  0.250000000

  ion indices of the primitive-cell ions
   primitive index   ion index
                 1           1
                 2           2
                 3           3
                 4           4

 KPOINTS: Kpoints from vasprun.xml

Automatic generation of k-mesh.
 Grid dimensions read from file:
 generate k-points for:    6    6    6

 Generating k-lattice:

  Cartesian coordinates                     Fractional coordinates (reciprocal lattice)
    -0.021809836  0.021809836  0.021809836     0.166666667  0.000000000  0.000000000
     0.021809836 -0.021809836  0.021809836     0.000000000  0.166666667 -0.000000000
     0.021809836  0.021809836 -0.021809836    -0.000000000 -0.000000000  0.166666667

  Length of vectors
     0.037775744  0.037775744  0.037775744

  Shift w.r.t. Gamma in fractional coordinates (k-lattice)
     0.000000000  0.000000000  0.000000000

 Subroutine IBZKPT returns following result:

 Found     16 irreducible k-points:

 Following reciprocal coordinates:
            Coordinates               Weight
  0.000000  0.000000  0.000000      1.000000
  0.166667  0.000000  0.000000      8.000000
  0.333333  0.000000  0.000000      8.000000
  0.500000  0.000000  0.000000      4.000000
  0.166667  0.166667  0.000000      6.000000
  0.333333  0.166667  0.000000     24.000000
  0.500000  0.166667  0.000000     24.000000
 -0.333333  0.166667  0.000000     24.000000
 -0.166667  0.166667  0.000000     12.000000
  0.333333  0.333333  0.000000      6.000000
  0.500000  0.333333  0.000000     24.000000
 -0.333333  0.333333  0.000000     12.000000
  0.500000  0.500000  0.000000      3.000000
  0.500000  0.333333  0.166667     24.000000
 -0.333333  0.333333  0.166667     24.000000
 -0.333333  0.500000  0.166667     12.000000

 Following cartesian coordinates:
            Coordinates               Weight
  0.000000  0.000000  0.000000      1.000000
 -0.021810  0.021810  0.021810      8.000000
 -0.043620  0.043620  0.043620      8.000000
 -0.065430  0.065430  0.065430      4.000000
  0.000000  0.000000  0.043620      6.000000
 -0.021810  0.021810  0.065430     24.000000
 -0.043620  0.043620  0.087239     24.000000
  0.065430 -0.065430 -0.021810     24.000000
  0.043620 -0.043620  0.000000     12.000000
  0.000000  0.000000  0.087239      6.000000
 -0.021810  0.021810  0.109049     24.000000
  0.087239 -0.087239  0.000000     12.000000
  0.000000  0.000000  0.130859      3.000000
  0.000000  0.043620  0.087239     24.000000
  0.109049 -0.065430 -0.021810     24.000000
  0.130859 -0.087239  0.000000     12.000000

 SYSTEM =  unknown system
 POSCAR =  Sm1 Gd1 In2

 Startparameter for this run:
   NWRITE =      2    write-flag & timer
   PREC   = accura    normal or accurate (medium, high low for compatibility)
   ISTART =      0    job   : 0-new  1-cont  2-samecut
   ICHARG =      2    charge: 1-file 2-atom 10-const
   ISPIN  =      2    spin polarized calculation?
   LNONCOLLINEAR =      F non collinear calculations
   LSORBIT =      F    spin-orbit coupling
   INIWAV =      1    electr: 0-lowe 1-rand  2-diag
   LASPH  =      T    aspherical Exc in radial PAW
 Electronic Relaxation 1
   ENCUT  =  520.0 eV  38.22 Ry    6.18 a.u.  10.05 10.05 10.05*2*pi/ulx,y,z
   ENINI  =  520.0     initial cutoff
   ENAUG  =  537.2 eV  augmentation charge cutoff
   NELM   =   1000;   NELMIN=  2; NELMDL=  0     # of ELM steps
   EDIFF  = 0.2E-03   stopping-criterion for ELM
   LREAL  =      T    real-space projection
   NLSPLINE    = F    spline interpolate recip. space projectors
   LCOMPAT=      F    compatible to vasp.4.4
   GGA_COMPAT  = T    GGA compatible to vasp.4.4-vasp.4.6
   LMAXPAW     = -100 max onsite density
   LMAXMIX     =    2 max onsite mixed and CHGCAR
   VOSKOWN=      0    Vosko Wilk Nusair interpolation
   ROPT   =   -0.00025  -0.00025  -0.00025
 Ionic relaxation
   EDIFFG = 0.2E-02   stopping-criterion for IOM
   NSW    =      0    number of steps for IOM
   NBLOCK =      1;   KBLOCK =      1    inner block; outer block
   IBRION =     -1    ionic relax: 0-MD 1-quasi-New 2-CG
   NFREE  =      0    steps in history (QN), initial steepest desc. (CG)
   ISIF   =      3    stress and relaxation
   IWAVPR =     10    prediction:  0-non 1-charg 2-wave 3-comb
   ISYM   =      2    0-nonsym 1-usesym 2-fastsym
   LCORR  =      T    Harris-Foulkes like correction to forces

   POTIM  = 0.5000    time-step for ionic-motion
   TEIN   =    0.0    initial temperature
   TEBEG  =    0.0;   TEEND  =   0.0 temperature during run
   SMASS  =  -3.00    Nose mass-parameter (am)
[...]
  292                  map_gather                            0.000041                  2   8
  293                  m_alltoallv_z                         0.000023                  2   8
  294                  map_scatter                           0.000089                  2   8
  295                map_backward                          0.000076                    2   7
  296                  map_gather                            0.000019                  1   8
  297                  m_alltoallv_z                         0.000011                  1   8
  298                  map_scatter                           0.000032                  1   8
  299          m_sumb_d                              0.000009                          2   4
  300          pothar                                0.000073                          1   4
  301            m_sumb_d                              0.000007                        1   5
  302        brmix                                 0.004889                            1   3
  303          m_sumb_d                              0.000025                          6   4
  304          brpre                                 0.000018                          2   4
  305          setg0                                 0.000447                          1   4
  306          broyd                                 0.003852                          1   4
  307            m_sumb_d                              0.000417                       48   5
  308            brget                                 0.000685                      214   5
  309            brsav                                 0.000148                       46   5
  310        m_bcast_d                             0.000016                            2   3
  311      potlok                                0.018887                              2   2
  312        fft3d_mpi                             0.012392                           36   3
  313          fftbrc_mpi                            0.010604                         36   4
  314            fftbas_plan_mpi                       0.010591                       36   5
  315              map_forward                           0.003030                     40   6
  316                map_gather                            0.001017                   24   7
  317                m_alltoallv_z                         0.000898                   24   7
  318                map_scatter                           0.000934                   24   7
  319              map_backward                          0.002609                     32   6
  320                map_gather                            0.000809                   16   7
  321                m_alltoallv_z                         0.000777                   16   7
  322                map_scatter                           0.000846                   16   7
  323              dfftw_execute                         0.003338                     30   6
  324        m_sumb_d                              0.000021                            5   3
  325        pothar                                0.000751                            2   3
  326          m_sumb_d                              0.000048                          2   4
  327        m_bcast_d                             0.001107                            4   3
  328      potlok_metagga                        0.000000                              1   2
  329      set_dd_magatom                        0.000004                              1   2
  330      set_dd_paw                            0.923350                              1   2
  331        m_sumb_d                              0.439653                            7   3
  332      augmentation_charge                   0.066172                              1   2
  333        fft3d_mpi                             0.016436                            2   3
  334          fftbrc_mpi                            0.014460                          2   4
  335            fftbas_plan_mpi                       0.014457                        2   5
  336              dfftw_execute                         0.008879                      6   6
  337              map_backward                          0.005441                      4   6
  338                map_gather                            0.001385                    2   7
  339                m_alltoallv_z                         0.002838                    2   7
  340                map_scatter                           0.001211                    2   7
  341      fftwav_mpi                            0.433477                            960   2
  342        fftwav                                0.432318                          960   3
  343          fft3d                                 0.412842                        960   4
  344      densta                                0.001117                              1   2
  345        m_sumb_d                              0.000670                           76   3

 Flat profile

 m_sumb_d                               31.934775      105111
 set_dd_paw                             26.328524          54
 eddav                                  14.619412          56
 lapack                                 14.076829       31529
 init_acc                               11.986379           1
 raccmu_                                 9.153780       31529
 total_time                              6.814782           1
 redis_pw                                5.776858      174902
 setdij_                                 3.682327          80
 m_alltoall_d                            3.315661      460926
 augmentation_charge                     2.689783          53
 phaser                                  2.460273        2000
 fft3d                                   1.815193      189210
 dfftw_execute                           1.704507        1728
 eccp                                    1.538431       17920
 redis_proj                              1.485667      220072
 fftwav                                  1.246250      126152
 orth1                                   1.022485       94651
 soft_charge                             0.956548          52
 w1_copy                                 0.926814      189174
 racc0mu_acc                             0.918705       31529
 overl                                   0.893926      108228
 rpromu_acc                              0.845874       23817
 m_bcast_z                               0.662615       32809
 hamiltmu                                0.662554       31529
 setup_precond                           0.648499       17920
 m_alltoallv_z                           0.630949        2211
 acc_init_cublas                         0.602959           1
 m_bcast_d                               0.535822       63171
 overl_mu                                0.488388       31529
 ggemm                                   0.423740       40489
 fft3d_mpi                               0.368641       65037
 pw_charge                               0.333966       12836
 newband                                 0.301070       33321
 vhamil                                  0.292521       63058
 kinhamil                                0.288255       63058
 depsum                                  0.272505          52
 set_charge                              0.269243          52
 fftext_mpi                              0.268196       63058
 map_scatter                             0.263127        2211
 rpro_isp                                0.257925         208
 map_gather                              0.254275        2211
 apply_precond                           0.248200       45138
 fftwav_mpi                              0.167550      126152
 potlok                                  0.147349          54
 fftbas_plan_mpi                         0.109529        1979
 rspher_all                              0.091170          14
 acc_init_cusolver                       0.065980           1
 broyd                                   0.065390          52
 acc_cufft_makeplan                      0.057336          19
 lincom                                  0.055661        1824
 proall                                  0.042250           1
 elmin                                   0.031164           1
 brmix                                   0.029478          52
 setg0                                   0.024439          54
 sphpro_fast                             0.024255           2
 w1_projall                              0.024241       22569
 brget                                   0.021746        7189
 densta                                  0.015848          57
 map_backward                            0.010176        2070
 map_forward                             0.009789        1888
 orthch                                  0.007631           1
 force_and_stress                        0.007571           1
 truncate_high_frequency_w1              0.006450       80978
 brsav                                   0.005405        1785
 inisym                                  0.004575           1
 pothar                                  0.004502          55
 strnlr                                  0.004150           1
 choleski                                0.003842          32
 stufak                                  0.001991           1
 fft_gq                                  0.001617          52
 fornlr                                  0.001441           1
 forhar                                  0.001268           2
 fftbrc_mpi                              0.001180        1979
 strelo                                  0.001158           1
 brpre                                   0.001029         104
 strehar                                 0.000774           1
 forloc                                  0.000689           1
 fewald                                  0.000328           1
 strkin                                  0.000234           1
 set_dd_magatom                          0.000233          54
 vectorpot                               0.000226          53
 chggra                                  0.000217           1
 brgrid                                  0.000109           1
 rsp                                     0.000048           1
 fordep                                  0.000041           1
 posmap                                  0.000032           2
 crpa_reader                             0.000027           1
 rcp                                     0.000011           1
 acc_cufft_makeplans                     0.000009           3
 potlok_metagga                          0.000004          53
 rotate_active_occupied_orbital          0.000000           1
 redis_pw_over_bands                     0.000000           1
  summed up times     155.3173739910126

 Accumulative profile

 total_time                            155.317374           1
 elmin                                 129.941503           1
 eddav                                  71.248844          56
 set_dd_paw                             50.364295          54
 m_sumb_d                               31.934775      105111
 lapack                                 14.076829       31529
 hamiltmu                               12.541127       31529
 init_acc                               11.986379           1
 raccmu_                                10.560873       31529
 redis_pw                                7.360261      174902
 set_charge                              5.945824          52
 setdij_                                 5.616600          80
 newband                                 3.819823       33321
 fft3d_mpi                               3.801755       65037
 force_and_stress                        3.778618           1
 augmentation_charge                     3.629658          53
 m_alltoall_d                            3.315661      460926
 redis_proj                              3.217924      220072
 fftbrc_mpi                              2.983531        1979
 fftbas_plan_mpi                         2.982352        1979
 fftwav_mpi                              2.779410      126152
 fftwav                                  2.611860      126152
 phaser                                  2.460273        2000
 fft3d                                   1.815193      189210
 soft_charge                             1.800306          52
 dfftw_execute                           1.704507        1728
 eccp                                    1.538431       17920
 kinhamil                                1.025178       63058
 orth1                                   1.022485       94651
 w1_copy                                 0.926814      189174
 racc0mu_acc                             0.918705       31529
 overl                                   0.893926      108228
 rpromu_acc                              0.845874       23817
 fftext_mpi                              0.736924       63058
 w1_projall                              0.674552       22569
 strnlr                                  0.666128           1
 m_bcast_z                               0.662615       32809
 setup_precond                           0.648499       17920
 map_forward                             0.641767        1888
 m_alltoallv_z                           0.630949        2211
 acc_init_cublas                         0.602959           1
 rpro_isp                                0.578160         208
 m_bcast_d                               0.535822       63171
 map_backward                            0.526549        2070
 potlok                                  0.494523          54
 overl_mu                                0.488388       31529
 ggemm                                   0.423740       40489
 fordep                                  0.422679           1
 pw_charge                               0.333966       12836
 vhamil                                  0.292521       63058
 depsum                                  0.275625          52
 map_scatter                             0.263127        2211
 map_gather                              0.254275        2211
 apply_precond                           0.248200       45138
 fornlr                                  0.221663           1
 orthch                                  0.185308           1
 brmix                                   0.164260          52
 broyd                                   0.107084          52
 rspher_all                              0.091170          14
 proall                                  0.081436           1
 acc_init_cusolver                       0.065980           1
 acc_cufft_makeplans                     0.057345           3
 acc_cufft_makeplan                      0.057336          19
 lincom                                  0.055661        1824
 fft_gq                                  0.053375          52
 densta                                  0.038009          57
 sphpro_fast                             0.024896           2
 setg0                                   0.024439          54
 brget                                   0.021746        7189
 truncate_high_frequency_w1              0.006450       80978
 brsav                                   0.005405        1785
 pothar                                  0.004967          55
 inisym                                  0.004607           1
 choleski                                0.003842          32
 stufak                                  0.001991           1
 forhar                                  0.001287           2
 strelo                                  0.001165           1
 brpre                                   0.001029         104
 strehar                                 0.000867           1
 forloc                                  0.000754           1
 chggra                                  0.000732           1
 fewald                                  0.000491           1
 strkin                                  0.000250           1
 set_dd_magatom                          0.000233          54
 vectorpot                               0.000226          53
 brgrid                                  0.000109           1
 rsp                                     0.000048           1
 posmap                                  0.000032           2
 crpa_reader                             0.000027           1
 rcp                                     0.000011           1
 potlok_metagga                          0.000004          53
 rotate_active_occupied_orbital          0.000000           1
 redis_pw_over_bands                     0.000000           1

Profiling took   0.409594  0.201208  0.003404  0.003319 seconds
Profiling took   0.258975 seconds