 vasp.6.3.2 27Jun22 (build Jul  3 2023 11:46:21) complex
 executed on    LinuxNV_CrayMPICH date 2024.04.22  04:00:18

 INCAR:
   ADDGRID = True
   ALGO = Normal
   EDIFF = 0.0007
   ENCUT = 520.0
   IBRION = -1
   ICHARG = 0
   ISIF = 3
   ISMEAR = -5
   ISPIN = 2
   KPOINT_BSE = -1 0 0 0
   LAECHG = True
   LASPH = True
   LCHARG = True
   LELF = True
   LORBIT = 11
   LREAL = Auto
   LVHAR = True
   LWAVE = False
   MAGMOM = 4*0.6 2*7.0 8*0.6
   NELM = 1000
   NSW = 0
   PREC = accurate
   SIGMA = 0.05

 POTCAR:    PAW_PBE Yb_2 06Sep2000
 POTCAR:    PAW_PBE Eu 23Dec2003
 POTCAR:    PAW_PBE S 06Sep2000
 POTCAR:    PAW_PBE Yb_2 06Sep2000
   VRHFIN =Yb : [core=Xe4]

   TITEL  = PAW_PBE Yb_2 06Sep2000
   POMASS =  173.040; ZVAL   =    8.000    mass and valenz
   ENMAX  =  112.578; ENMIN  =   84.433 eV

   TITEL  = PAW_PBE Eu 23Dec2003
   POMASS =  151.965; ZVAL   =   17.000    mass and valenz
   ENMAX  =  249.668; ENMIN  =  187.251 eV

   TITEL  = PAW_PBE S 06Sep2000
   POMASS =   32.066; ZVAL   =    6.000    mass and valenz
   ENMAX  =  258.689; ENMIN  =  194.016 eV

 Optimization of the real space projectors (new method)

 maximal supplied QI-value         = 12.09
 optimisation between [QCUT,QGAM] = [ 11.61, 23.34] = [ 37.75,152.57] Ry
 Optimized for a Real-space Cutoff    1.89 Angstroem

   l    n(q)    QCUT    max X(q) W(low)/X(q) W(high)/X(q)  e(spline)
   0     13    11.610    37.655    0.45E-04    0.19E-04    0.34E-06
   0     13    11.610    17.791    0.29E-04    0.15E-04    0.27E-06
   1     13    11.610    36.143    0.15E-04    0.51E-06    0.99E-06
   1     13    11.610    36.445    0.16E-04    0.54E-06    0.10E-05
   2     12    11.610    14.662    0.21E-03    0.42E-03    0.57E-05
   2     12    11.610    15.811    0.17E-03    0.35E-03    0.47E-05
 Optimization of the real space projectors (new method)

[...]

   l    n(q)    QCUT    max X(q) W(low)/X(q) W(high)/X(q)  e(spline)
   0     11    11.673    10.400    0.14E-04    0.18E-05    0.24E-07
   0     11    11.673    10.768    0.21E-04    0.32E-05    0.49E-07
   1     11    11.673     4.094    0.40E-05    0.13E-04    0.93E-07
   1     11    11.673     4.009    0.11E-04    0.46E-04    0.33E-06
   2     10    11.673    29.030    0.79E-04    0.60E-04    0.70E-06
   2     10    11.673    19.941    0.80E-04    0.60E-04    0.71E-06
   3     10    11.673    88.889    0.23E-03    0.29E-03    0.30E-06
   3     10    11.673    76.102    0.23E-03    0.30E-03    0.30E-06
 Optimization of the real space projectors (new method)

 maximal supplied QI-value         = 19.84
 optimisation between [QCUT,QGAM] = [ 11.51, 23.22] = [ 37.09,150.92] Ry
 Optimized for a Real-space Cutoff    1.21 Angstroem

   l    n(q)    QCUT    max X(q) W(low)/X(q) W(high)/X(q)  e(spline)
   0      8    11.508   187.594    0.96E-04    0.18E-03    0.54E-07
   0      8    11.508   164.243    0.96E-04    0.18E-03    0.54E-07
   1      8    11.508    67.533    0.18E-03    0.65E-04    0.94E-07
   1      8    11.508    50.729    0.18E-03    0.63E-04    0.92E-07
  PAW_PBE Yb_2 06Sep2000                :
  PAW_PBE Eu 23Dec2003                  :
  PAW_PBE S 06Sep2000                   :

 POSCAR: Yb4 Eu2 S8
  positions in direct lattice
 exchange correlation table for  LEXCH =        8
   RHO(1)=    0.500       N(1)  =     2000
   RHO(2)=  100.500       N(2)  =     4000

 VTST: version 4.2, (08/11/21)

 CHAIN: initializing optimizer

 OPT: Using VASP Dynamics algorithm
 CHAIN: Read ICHAIN             0

 POSCAR: Yb4 Eu2 S8
  positions in direct lattice

 ion  position               nearest neighbor table
   1  0.375  0.000  0.125-   7 2.86  14 2.86  13 2.87  10 2.87   9 2.87  12 2.87  11 2.87   8 2.87
                             4 3.88   4 3.88   2 3.88   2 3.88
   2  0.750  0.625  0.625-  13 2.86   9 2.86  11 2.87  14 2.87   7 2.87   8 2.87  10 2.87  12 2.87
                             3 3.88   1 3.88   3 3.88   1 3.88
   3  0.875  0.250  0.875-   8 2.86  11 2.86   9 2.87  12 2.87  10 2.87  13 2.87   7 2.87  14 2.87
                             2 3.88   4 3.88   4 3.88   2 3.88
   4  1.000  0.125  0.375-  12 2.86  10 2.86   7 2.87   8 2.87  11 2.87  14 2.87  13 2.87   9 2.87
                             1 3.88   3 3.88   3 3.88   1 3.88
   5  0.250  0.750  0.500-   8 2.86   9 2.86  10 2.86  14 2.86  11 2.88  12 2.88  13 2.88   7 2.88

   6  0.500  0.500  0.000-   7 2.86  11 2.86  12 2.86  13 2.86   8 2.88   9 2.88  10 2.88  14 2.88

   7  0.625  0.875  0.415-   6 2.86   1 2.86   4 2.87   2 2.87   3 2.87   5 2.88
   8  0.290  0.375  0.250-   5 2.86   3 2.86   4 2.87   2 2.87   1 2.87   6 2.88
   9  0.625  0.875  0.915-   5 2.86   2 2.86   3 2.87   1 2.87   4 2.87   6 2.88
  10  0.960  0.710  0.085-   5 2.86   4 2.86   1 2.87   3 2.87   2 2.87   6 2.88
  11  0.460  0.210  0.585-   6 2.86   3 2.86   2 2.87   4 2.87   1 2.87   5 2.88
  12  0.125  0.540  0.750-   6 2.86   4 2.86   3 2.87   1 2.87   2 2.87   5 2.88
  13  0.790  0.375  0.250-   6 2.86   2 2.86   1 2.87   3 2.87   4 2.87   5 2.88
  14  0.125  0.040  0.750-   5 2.86   1 2.86   2 2.87   4 2.87   3 2.87   6 2.88

  LATTYP: Found a body centered tetragonal cell.
 ALAT       =     8.2860340000
 C/A-ratio  =     1.0018522734

  Lattice vectors:

 A1 = (  -4.1430170000,   4.1430170000,   4.1506910000)
 A2 = (   4.1430170000,  -4.1430170000,   4.1506910000)
 A3 = (   4.1430170000,   4.1430170000,  -4.1506910000)

Analysis of symmetry for initial positions (statically):
 Subroutine PRICEL returns:
 Original cell was already a primitive cell.

 Routine SETGRP: Setting up the symmetry group for a
 body centered tetragonal supercell.

 Subroutine GETGRP returns: Found  8 space group operations
 (whereof  4 operations were pure point group operations)
 out of a pool of 16 trial point group operations.

The static configuration has the point symmetry S_4 .
 The point group associated with its full space group is D_2d.

Analysis of symmetry for dynamics (positions and initial velocities):
 Subroutine PRICEL returns:
 Original cell was already a primitive cell.

[...]

The dynamic configuration has the point symmetry S_4 .
 The point group associated with its full space group is D_2d.

Analysis of structural, dynamic, and magnetic symmetry:
 Subroutine PRICEL returns:
 Original cell was already a primitive cell.

 Routine SETGRP: Setting up the symmetry group for a
 body centered tetragonal supercell.

 Subroutine GETGRP returns: Found  8 space group operations
 (whereof  4 operations were pure point group operations)
 out of a pool of 16 trial point group operations.

The overall configuration has the point symmetry S_4 .
 The point group associated with its full space group is D_2d.

 Subroutine INISYM returns: Found  8 space group operations
 (whereof  4 operations are pure point group operations),
 and found     1 'primitive' translations

                                     Primitive cell

  volume of cell :     284.9796

  direct lattice vectors                    reciprocal lattice vectors
    -4.143017000  4.143017000  4.150691000     0.000000000  0.120684998  0.120461870
     4.143017000 -4.143017000  4.150691000     0.120684998  0.000000000  0.120461870
     4.143017000  4.143017000 -4.150691000     0.120684998  0.120684998  0.000000000

  length of vectors
     7.180349260  7.180349260  7.180349260     0.170516659  0.170516659  0.170674362

  position of ions in fractional coordinates (direct lattice)
     0.375000000  0.000036000  0.125036000
     0.750036000  0.625000000  0.625036000
     0.875000000  0.249964000  0.874964000
     0.999964000  0.125000000  0.374964000
     0.250000000  0.750000000  0.500000000
     0.500000000  0.500000000  0.000000000
     0.624792000  0.874769000  0.415240000
     0.290471000  0.375231000  0.250023000
     0.624769000  0.874792000  0.915240000
     0.959552000  0.709529000  0.084760000
     0.459529000  0.209552000  0.584760000
     0.125231000  0.540471000  0.750023000
     0.790448000  0.375208000  0.249977000
     0.125208000  0.040448000  0.749977000

  ion indices of the primitive-cell ions
   primitive index   ion index
                 1           1
                 2           2
                 3           3
                 4           4
                 5           5
                 6           6
                 7           7
                 8           8
                 9           9
                10          10
                11          11
                12          12
                13          13
                14          14

 KPOINTS: Kpoints from vasprun.xml

Automatic generation of k-mesh.
 Grid dimensions read from file:
 generate k-points for:    4    4    4

 Generating k-lattice:

  Cartesian coordinates                     Fractional coordinates (reciprocal lattice)
     0.000000000  0.030171250  0.030115468     0.250000000  0.000000000 -0.000000000
     0.030171250  0.000000000  0.030115468     0.000000000  0.250000000 -0.000000000
     0.030171250  0.030171250  0.000000000     0.000000000 -0.000000000  0.250000000

  Length of vectors
     0.042629165  0.042629165  0.042668590

  Shift w.r.t. Gamma in fractional coordinates (k-lattice)
     0.000000000  0.000000000  0.000000000

 TETIRR: Found     80 inequivalent tetrahedra from      384

 Subroutine IBZKPT returns following result:

 Found     13 irreducible k-points:

 Following reciprocal coordinates:
            Coordinates               Weight
  0.000000  0.000000  0.000000      1.000000
  0.250000  0.000000  0.000000      8.000000
  0.500000  0.000000  0.000000      4.000000
  0.250000  0.250000  0.000000      8.000000
  0.500000  0.250000  0.000000     16.000000
 -0.250000  0.250000  0.000000      4.000000
  0.500000  0.500000  0.000000      2.000000
  0.250000  0.250000  0.250000      2.000000
 -0.250000  0.250000  0.250000      4.000000
  0.500000  0.500000  0.250000      4.000000
 -0.250000  0.500000  0.250000      8.000000
 -0.250000 -0.250000  0.250000      2.000000
  0.500000  0.500000  0.500000      1.000000

 Following cartesian coordinates:
            Coordinates               Weight
  0.000000  0.000000  0.000000      1.000000
  0.000000  0.030171  0.030115      8.000000
  0.000000  0.060342  0.060231      4.000000
  0.030171  0.030171  0.060231      8.000000
  0.030171  0.060342  0.090346     16.000000
  0.030171 -0.030171  0.000000      4.000000
  0.060342  0.060342  0.120462      2.000000
  0.060342  0.060342  0.060231      2.000000
  0.060342  0.000000  0.000000      4.000000
  0.090514  0.090514  0.120462      4.000000
  0.090514  0.000000  0.030115      8.000000
  0.000000  0.000000 -0.060231      2.000000
  0.120685  0.120685  0.120462      1.000000

 SYSTEM =  unknown system
 POSCAR =  Yb4 Eu2 S8

 Startparameter for this run:
   NWRITE =      2    write-flag & timer
   PREC   = accura    normal or accurate (medium, high low for compatibility)
   ISTART =      0    job   : 0-new  1-cont  2-samecut
   ICHARG =      0    charge: 1-file 2-atom 10-const
   ISPIN  =      2    spin polarized calculation?
   LNONCOLLINEAR =      F non collinear calculations
   LSORBIT =      F    spin-orbit coupling
   INIWAV =      1    electr: 0-lowe 1-rand  2-diag
[...]
  318                map_forward                           0.000208                    4   7
  319                  map_gather                            0.000046                  2   8
  320                  m_alltoallv_z                         0.000025                  2   8
  321                  map_scatter                           0.000106                  2   8
  322                map_backward                          0.000096                    2   7
  323                  map_gather                            0.000024                  1   8
  324                  m_alltoallv_z                         0.000011                  1   8
  325                  map_scatter                           0.000039                  1   8
  326          m_sumb_d                              0.000008                          2   4
  327          pothar                                0.000091                          1   4
  328            m_sumb_d                              0.000013                        1   5
  329        brmix                                 0.009510                            1   3
  330          m_sumb_d                              0.000040                          6   4
  331          brpre                                 0.000031                          2   4
  332          setg0                                 0.001166                          1   4
  333          broyd                                 0.006920                          1   4
  334            m_sumb_d                              0.000618                       49   5
  335            brget                                 0.001419                      219   5
  336            brsav                                 0.000299                       47   5
  337        m_bcast_d                             0.000022                            2   3
  338      potlok                                0.038224                              2   2
  339        fft3d_mpi                             0.024918                           36   3
  340          fftbrc_mpi                            0.021557                         36   4
  341            fftbas_plan_mpi                       0.021536                       36   5
  342              map_forward                           0.006243                     40   6
  343                map_gather                            0.002048                   24   7
  344                m_alltoallv_z                         0.002214                   24   7
  345                map_scatter                           0.001778                   24   7
  346              map_backward                          0.005152                     32   6
  347                map_gather                            0.001735                   16   7
  348                m_alltoallv_z                         0.001732                   16   7
  349                map_scatter                           0.001490                   16   7
  350              dfftw_execute                         0.008560                     30   6
  351        m_sumb_d                              0.000022                            5   3
  352        pothar                                0.001573                            2   3
  353          m_sumb_d                              0.000104                          2   4
  354        m_bcast_d                             0.002615                            4   3
  355      potlok_metagga                        0.000000                              1   2
  356      set_dd_magatom                        0.000005                              1   2
  357      set_dd_paw                            1.879552                              1   2
  358        m_sumb_d                              0.944891                            7   3
  359      augmentation_charge                   0.156962                              1   2
  360        fft3d_mpi                             0.056000                            2   3
  361          fftbrc_mpi                            0.050517                          2   4
  362            fftbas_plan_mpi                       0.050515                        2   5
  363              dfftw_execute                         0.034970                      6   6
  364              map_backward                          0.015244                      4   6
  365                map_gather                            0.004336                    2   7
  366                m_alltoallv_z                         0.005976                    2   7
  367                map_scatter                           0.004922                    2   7
  368      fftwav_mpi                            1.694140                           1560   2
  369        fftwav                                1.692162                         1560   3
  370          fft3d                                 1.568874                       1560   4
  371      densta                                1.132866                              1   2

 Flat profile

 m_sumb_d                              241.971551      588007
 set_dd_paw                            163.033666         180
 raccmu_                               111.575315      189476
 eddav                                  98.504948         182
 lapack                                 89.041739      189476
 redis_pw                               41.576155     1051732
 phaser                                 20.220786        4901
 setdij_                                19.470213         206
 m_alltoall_d                           19.155477     2749904
 augmentation_charge                    18.076082         180
 dfftw_execute                          15.583214        4764
 total_time                             12.442068           1
 init_acc                               11.699084           1
 fft3d                                  10.285922     1119307
 densta                                  9.762808         183
 eccp                                    9.511891       94640
 redis_proj                              8.963649     1336070
 fftwav                                  7.078009      740355
 orth1                                   6.121431      568506
 racc0mu_acc                             5.579210      189476
 overl                                   5.552315      663290
 w1_copy                                 5.472872     1136856
 hamiltmu                                5.282803      189476
 rpromu_acc                              4.498219      143846
 soft_charge                             4.435089         179
 m_bcast_z                               4.213047      191556
 ggemm                                   3.740936      236796
 setup_precond                           3.431799       94640
 m_bcast_d                               3.294227      379317
 m_alltoallv_z                           3.079161        7005
 overl_mu                                2.932406      189476
 map_scatter                             2.702612        7005
 fft3d_mpi                               2.511374      385219
 acc_init_cublas                         2.427579           1
 pw_charge                               2.169943       68771
 set_charge                              2.146055         179
 map_gather                              1.851820        7005
 vhamil                                  1.758776      378952
 kinhamil                                1.724581      378952
 fftext_mpi                              1.629522      378952
 apply_precond                           1.540072      284312
 depsum                                  1.514485         179
 newband                                 1.475017      194208
 fftwav_mpi                              1.001922      740355
 broyd                                   0.795691         178
 acc_init_cusolver                       0.791073           1
 potlok                                  0.776966         180
 rpro_isp                                0.376522         169
 brmix                                   0.344893         178
 elmin                                   0.338085           1
 fftbas_plan_mpi                         0.328707        6267
 rspher_all                              0.255479          14
 brget                                   0.244973       37620
 setg0                                   0.201878         180
 lincom                                  0.169888        4758
 w1_projall                              0.145305      142156
 acc_cufft_makeplan                      0.117998          19
 sphpro_fast                             0.067822           2
 brsav                                   0.066940       10657
 proall                                  0.052531           1
 map_forward                             0.038497        5920
 truncate_high_frequency_w1              0.037613      473592
 map_backward                            0.037465        6614
 fft_gq                                  0.017626         179
 orthch                                  0.015794           1
 pothar                                  0.015784         181
 force_and_stress                        0.013606           1
 choleski                                0.008489          26
 stufak                                  0.007674           1
 brpre                                   0.006390         356
 inisym                                  0.004770           1
 strnlr                                  0.003961           1
 fftbrc_mpi                              0.003690        6267
 strelo                                  0.002090           1
 forhar                                  0.001831           2
 strehar                                 0.001615           1
 fornlr                                  0.001388           1
 forloc                                  0.000983           1
 set_dd_magatom                          0.000818         180
 vectorpot                               0.000772         179
 strkin                                  0.000543           1
 rsp                                     0.000339           1
 fewald                                  0.000337           1
 chggra                                  0.000241           1
 brgrid                                  0.000216           1
 fordep                                  0.000071           1
 posmap                                  0.000033           2
 crpa_reader                             0.000029           1
 rcp                                     0.000025           1
 potlok_metagga                          0.000020         179
 acc_cufft_makeplans                     0.000011           3
 rotate_active_occupied_orbital          0.000001           1
 redis_pw_over_bands                     0.000000           1
  summed up times     995.3373210430145

 Accumulative profile

 total_time                            995.337321           1
 elmin                                 952.820274           1
 eddav                                 545.200060         182
 set_dd_paw                            328.303485         180
 m_sumb_d                              241.971551      588007
 hamiltmu                              133.303807      189476
 raccmu_                               120.086930      189476
 lapack                                 89.041739      189476
 redis_pw                               51.065355     1051732
 set_charge                             42.518393         179
 setdij_                                33.465419         206
 fft3d_mpi                              28.844669      385219
 augmentation_charge                    28.544987         180
 fftbrc_mpi                             23.625166        6267
 fftbas_plan_mpi                        23.621476        6267
 newband                                21.807195      194208
 phaser                                 20.220786        4901
 m_alltoall_d                           19.155477     2749904
 redis_proj                             18.629926     1336070
 fftwav_mpi                             15.657723      740355
 dfftw_execute                          15.583214        4764
 fftwav                                 14.655802      740355
 init_acc                               11.699084           1
 fft3d                                  10.285922     1119307
 soft_charge                            10.125733         179
 densta                                  9.762808         183
 eccp                                    9.511891       94640
 force_and_stress                        8.124885           1
 kinhamil                                6.175297      378952
 orth1                                   6.121431      568506
 racc0mu_acc                             5.579210      189476
 overl                                   5.552315      663290
 w1_copy                                 5.472872     1136856
 rpromu_acc                              4.498219      143846
 fftext_mpi                              4.450715      378952
 w1_projall                              4.300188      142156
 m_bcast_z                               4.213047      191556
 map_backward                            3.994480        6614
 ggemm                                   3.740936      236796
 map_forward                             3.715075        5920
 setup_precond                           3.431799       94640
 m_bcast_d                               3.294227      379317
 m_alltoallv_z                           3.079161        7005
 overl_mu                                2.932406      189476
 map_scatter                             2.702612        7005
 acc_init_cublas                         2.427579           1
 pw_charge                               2.169943       68771
 map_gather                              1.851820        7005
 potlok                                  1.802768         180
 vhamil                                  1.758776      378952
 brmix                                   1.741581         178
 depsum                                  1.549987         179
 apply_precond                           1.540072      284312
 strnlr                                  1.344676           1
 broyd                                   1.168898         178
 fordep                                  0.972850           1
 rpro_isp                                0.925534         169
 acc_init_cusolver                       0.791073           1
 fft_gq                                  0.465539         179
 fornlr                                  0.448875           1
 rspher_all                              0.255479          14
 orthch                                  0.254376           1
 brget                                   0.244973       37620
 setg0                                   0.201878         180
 lincom                                  0.169888        4758
 proall                                  0.135596           1
 acc_cufft_makeplans                     0.118009           3
 acc_cufft_makeplan                      0.117998          19
 sphpro_fast                             0.070456           2
 brsav                                   0.066940       10657
 truncate_high_frequency_w1              0.037613      473592
 pothar                                  0.017391         181
 choleski                                0.008489          26
 stufak                                  0.007674           1
 brpre                                   0.006390         356
 inisym                                  0.004803           1
 strelo                                  0.002167           1
 forhar                                  0.001874           2
 strehar                                 0.001650           1
 fewald                                  0.001361           1
 forloc                                  0.001024           1
 chggra                                  0.000837           1
 set_dd_magatom                          0.000818         180
 vectorpot                               0.000772         179
 strkin                                  0.000554           1
 rsp                                     0.000339           1
 brgrid                                  0.000216           1
 posmap                                  0.000033           2
 crpa_reader                             0.000029           1
 rcp                                     0.000025           1
 potlok_metagga                          0.000020         179
 rotate_active_occupied_orbital          0.000001           1
 redis_pw_over_bands                     0.000000           1

Profiling took   2.328882  1.155377  0.003237  0.003124 seconds
Profiling took   1.479199 seconds