 vasp.6.3.2 27Jun22 (build Jul  3 2023 11:46:21) complex
 executed on    LinuxNV_CrayMPICH date 2024.04.21  00:28:57

 INCAR:
   ALGO = Normal
   AMIX = 0.2
   AMIX_MAG = 0.8
   BMIX = 0.001
   BMIX_MAG = 0.001
   EDIFF = 1.4e-05
   EFIELD_PEAD = 0.0 0.0 0.0
   ENCUT = 520.0
   IBRION = -1
   ICHARG = 0
   ISIF = 3
   ISMEAR = -5
   ISPIN = 2
   LAECHG = True
   LCALCEPS = False
   LCALCPOL = False
   LCHARG = True
   LEFG = False
   LORBIT = 11
   LPEAD = False
   LREAL = Auto
   LWAVE = False
   MAGMOM = 2*7.0 12*0.6
   NELM = 1000
   NELMDL = 6
   NELMIN = 3
   NSW = 0
   PREC = accurate
   SIGMA = 0.2
   SYSTEM = Rubyvaspy :: c n s eu

 POTCAR:    PAW_PBE Eu 23Dec2003
 POTCAR:    PAW_PBE C 08Apr2002
 POTCAR:    PAW_PBE S 06Sep2000
 POTCAR:    PAW_PBE N 08Apr2002
 POTCAR:    PAW_PBE Eu 23Dec2003
   VRHFIN =Eu : [core=Kr4d]

   TITEL  = PAW_PBE Eu 23Dec2003
   POMASS =  151.965; ZVAL   =   17.000    mass and valenz
   ENMAX  =  249.668; ENMIN  =  187.251 eV

   TITEL  = PAW_PBE C 08Apr2002
   POMASS =   12.011; ZVAL   =    4.000    mass and valenz
   ENMAX  =  400.000; ENMIN  =  300.000 eV

   TITEL  = PAW_PBE S 06Sep2000
   POMASS =   32.066; ZVAL   =    6.000    mass and valenz
   ENMAX  =  258.689; ENMIN  =  194.016 eV

   TITEL  = PAW_PBE N 08Apr2002
   POMASS =   14.001; ZVAL   =    5.000    mass and valenz
   ENMAX  =  400.000; ENMIN  =  300.000 eV

 Optimization of the real space projectors (new method)

 maximal supplied QI-value         = 13.42
 optimisation between [QCUT,QGAM] = [ 11.67, 23.35] = [ 38.16,152.62] Ry
 Optimized for a Real-space Cutoff    1.63 Angstroem

   l    n(q)    QCUT    max X(q) W(low)/X(q) W(high)/X(q)  e(spline)
   0     11    11.673    10.400    0.14E-04    0.18E-05    0.24E-07
   0     11    11.673    10.768    0.21E-04    0.32E-05    0.49E-07
   1     11    11.673     4.094    0.40E-05    0.13E-04    0.93E-07
   1     11    11.673     4.009    0.11E-04    0.46E-04    0.33E-06
   2     10    11.673    29.030    0.79E-04    0.60E-04    0.70E-06
   2     10    11.673    19.941    0.80E-04    0.60E-04    0.71E-06
   3     10    11.673    88.889    0.23E-03    0.29E-03    0.30E-06
   3     10    11.673    76.102    0.23E-03    0.30E-03    0.30E-06
 Optimization of the real space projectors (new method)

[...]

   l    n(q)    QCUT    max X(q) W(low)/X(q) W(high)/X(q)  e(spline)
   0      8    11.508   187.594    0.96E-04    0.18E-03    0.54E-07
   0      8    11.508   164.243    0.96E-04    0.18E-03    0.54E-07
   1      8    11.508    67.533    0.18E-03    0.65E-04    0.94E-07
   1      8    11.508    50.729    0.18E-03    0.63E-04    0.92E-07
 Optimization of the real space projectors (new method)

 maximal supplied QI-value         = 25.13
 optimisation between [QCUT,QGAM] = [ 11.56, 23.12] = [ 37.43,149.72] Ry
 Optimized for a Real-space Cutoff    1.40 Angstroem

   l    n(q)    QCUT    max X(q) W(low)/X(q) W(high)/X(q)  e(spline)
   0     10    11.561    79.467    0.46E-04    0.78E-04    0.61E-06
   0     10    11.561    66.151    0.45E-04    0.77E-04    0.61E-06
   1      9    11.561    18.886    0.22E-03    0.13E-03    0.12E-05
   1      9    11.561    13.488    0.23E-03    0.13E-03    0.12E-05
  PAW_PBE Eu 23Dec2003                  :
  PAW_PBE C 08Apr2002                   :
  PAW_PBE S 06Sep2000                   :
  PAW_PBE N 08Apr2002                   :

 POSCAR: Eu2 C4 S4 N4
  positions in direct lattice
 exchange correlation table for  LEXCH =        8
   RHO(1)=    0.500       N(1)  =     2000
   RHO(2)=  100.500       N(2)  =     4000

 VTST: version 4.2, (08/11/21)

 CHAIN: initializing optimizer

 OPT: Using VASP Dynamics algorithm
 CHAIN: Read ICHAIN             0

 POSCAR: Eu2 C4 S4 N4
  positions in direct lattice

 ion  position               nearest neighbor table
   1  0.912  0.088  0.750-  11 2.64  13 2.64  12 2.65  14 2.65   7 3.13   8 3.13
   2  0.088  0.912  0.250-  12 2.64  14 2.64  13 2.65  11 2.65  10 3.13   9 3.13
   3  0.513  0.248  0.102-  11 1.19   9 1.62
   4  0.248  0.513  0.602-  12 1.19   8 1.62
   5  0.487  0.752  0.898-  14 1.19   7 1.62
   6  0.752  0.487  0.398-  13 1.19  10 1.62
   7  0.765  0.640  0.827-   5 1.62   1 3.13
   8  0.360  0.235  0.673-   4 1.62   1 3.13
   9  0.235  0.360  0.173-   3 1.62   2 3.13
  10  0.640  0.765  0.327-   6 1.62   2 3.13
  11  0.719  0.162  0.050-   3 1.19   1 2.64   2 2.65
  12  0.162  0.719  0.550-   4 1.19   2 2.64   1 2.65
  13  0.838  0.281  0.450-   6 1.19   1 2.64   2 2.65
  14  0.281  0.838  0.950-   5 1.19   2 2.64   1 2.65

  LATTYP: Found a base centered monoclinic cell.
 ALAT       =    10.2260540000
 B/A-ratio  =     0.6303985878
 C/A-ratio  =     0.7941273037
 COS(beta)  =    -0.0206324787

  Lattice vectors:

 A1 = (  -3.2232450000,  -5.1130270000,   0.0000000000)
 A2 = (   3.2232450000,  -5.1130270000,   0.0000000000)
 A3 = (   0.0000000000,   0.1675520000,   8.1190600000)

Analysis of symmetry for initial positions (statically):
 Subroutine PRICEL returns:
 Original cell was already a primitive cell.

 Routine SETGRP: Setting up the symmetry group for a
 base centered monoclinic supercell.

 Subroutine GETGRP returns: Found  4 space group operations
 (whereof  2 operations were pure point group operations)
 out of a pool of  4 trial point group operations.

The static configuration has the point symmetry S_2 .
 The point group associated with its full space group is C_2h.

Analysis of symmetry for dynamics (positions and initial velocities):
 Subroutine PRICEL returns:
 Original cell was already a primitive cell.

[...]

The dynamic configuration has the point symmetry S_2 .
 The point group associated with its full space group is C_2h.

Analysis of structural, dynamic, and magnetic symmetry:
 Subroutine PRICEL returns:
 Original cell was already a primitive cell.

 Routine SETGRP: Setting up the symmetry group for a
 base centered monoclinic supercell.

 Subroutine GETGRP returns: Found  4 space group operations
 (whereof  2 operations were pure point group operations)
 out of a pool of  4 trial point group operations.

The overall configuration has the point symmetry S_2 .
 The point group associated with its full space group is C_2h.

 Subroutine INISYM returns: Found  4 space group operations
 (whereof  2 operations are pure point group operations),
 and found     1 'primitive' translations

                                     Primitive cell

  volume of cell :     267.6130

  direct lattice vectors                    reciprocal lattice vectors
     3.223245000  5.113027000  0.000000000     0.155123176  0.097789431 -0.002018068
    -3.223245000  5.113027000  0.000000000    -0.155123176  0.097789431 -0.002018068
     0.000000000  0.167552000  8.119060000     0.000000000 -0.000000000  0.123166968

  length of vectors
     6.044199983  6.044199983  8.120788691     0.183384964  0.183384964  0.123166968

  position of ions in fractional coordinates (direct lattice)
     0.912175000  0.087825000  0.750000000
     0.087825000  0.912175000  0.250000000
     0.513295000  0.247956000  0.101540000
     0.247956000  0.513295000  0.601540000
     0.486705000  0.752044000  0.898460000
     0.752044000  0.486705000  0.398460000
     0.765054000  0.640100000  0.826646000
     0.359900000  0.234946000  0.673354000
     0.234946000  0.359900000  0.173354000
     0.640100000  0.765054000  0.326646000
     0.719241000  0.161694000  0.050016000
     0.161694000  0.719241000  0.550016000
     0.838306000  0.280759000  0.449984000
     0.280759000  0.838306000  0.949984000

  ion indices of the primitive-cell ions
   primitive index   ion index
                 1           1
                 2           2
                 3           3
                 4           4
                 5           5
                 6           6
                 7           7
                 8           8
                 9           9
                10          10
                11          11
                12          12
                13          13
                14          14

 KPOINTS: Kpoints from vasprun.xml

Automatic generation of k-mesh.
 Grid dimensions read from file:
 generate k-points for:    6    6    4

 Generating k-lattice:

  Cartesian coordinates                     Fractional coordinates (reciprocal lattice)
     0.025853863  0.016298238 -0.000336345     0.166666667  0.000000000 -0.000000000
    -0.025853863  0.016298238 -0.000336345     0.000000000  0.166666667 -0.000000000
     0.000000000 -0.000000000  0.030791742     0.000000000  0.000000000  0.250000000

  Length of vectors
     0.030564161  0.030564161  0.030791742

  Shift w.r.t. Gamma in fractional coordinates (k-lattice)
     0.500000000  0.500000000  0.500000000

 TETIRR: Found    222 inequivalent tetrahedra from      864

 Subroutine IBZKPT returns following result:

 Found     42 irreducible k-points:

 Following reciprocal coordinates:
            Coordinates               Weight
  0.083333  0.083333  0.125000      2.000000
  0.250000  0.083333  0.125000      4.000000
  0.416667  0.083333  0.125000      4.000000
 -0.416667  0.083333  0.125000      4.000000
 -0.250000  0.083333  0.125000      4.000000
 -0.083333  0.083333  0.125000      4.000000
  0.250000  0.250000  0.125000      2.000000
  0.416667  0.250000  0.125000      4.000000
 -0.416667  0.250000  0.125000      4.000000
 -0.250000  0.250000  0.125000      4.000000
 -0.083333  0.250000  0.125000      4.000000
  0.416667  0.416667  0.125000      2.000000
 -0.416667  0.416667  0.125000      4.000000
 -0.250000  0.416667  0.125000      4.000000
 -0.083333  0.416667  0.125000      4.000000
 -0.416667 -0.416667  0.125000      2.000000
 -0.250000 -0.416667  0.125000      4.000000
 -0.083333 -0.416667  0.125000      4.000000
 -0.250000 -0.250000  0.125000      2.000000
 -0.083333 -0.250000  0.125000      4.000000
 -0.083333 -0.083333  0.125000      2.000000
  0.083333  0.083333  0.375000      2.000000
  0.250000  0.083333  0.375000      4.000000
  0.416667  0.083333  0.375000      4.000000
 -0.416667  0.083333  0.375000      4.000000
 -0.250000  0.083333  0.375000      4.000000
 -0.083333  0.083333  0.375000      4.000000
  0.250000  0.250000  0.375000      2.000000
  0.416667  0.250000  0.375000      4.000000
 -0.416667  0.250000  0.375000      4.000000
 -0.250000  0.250000  0.375000      4.000000
 -0.083333  0.250000  0.375000      4.000000
  0.416667  0.416667  0.375000      2.000000
 -0.416667  0.416667  0.375000      4.000000
 -0.250000  0.416667  0.375000      4.000000
 -0.083333  0.416667  0.375000      4.000000
 -0.416667 -0.416667  0.375000      2.000000
 -0.250000 -0.416667  0.375000      4.000000
 -0.083333 -0.416667  0.375000      4.000000
 -0.250000 -0.250000  0.375000      2.000000
 -0.083333 -0.250000  0.375000      4.000000
 -0.083333 -0.083333  0.375000      2.000000

 Following cartesian coordinates:
            Coordinates               Weight
  0.000000  0.016298  0.015060      2.000000
  0.025854  0.032596  0.014723      4.000000
  0.051708  0.048895  0.014387      4.000000
 -0.077562 -0.032596  0.016069      4.000000
 -0.051708 -0.016298  0.015732      4.000000
 -0.025854  0.000000  0.015396      4.000000
[...]
  266        chggra                                0.001012                            1   3
  267          fft3d_mpi                             0.000619                          3   4
  268            fftbrc_mpi                            0.000491                        3   5
  269              fftbas_plan_mpi                       0.000489                      3   6
  270                map_forward                           0.000263                    4   7
  271                  map_gather                            0.000045                  2   8
  272                  m_alltoallv_z                         0.000028                  2   8
  273                  map_scatter                           0.000158                  2   8
  274                map_backward                          0.000111                    2   7
  275                  map_gather                            0.000024                  1   8
  276                  m_alltoallv_z                         0.000020                  1   8
  277                  map_scatter                           0.000047                  1   8
  278          m_sumb_d                              0.000009                          2   4
  279          pothar                                0.000102                          1   4
  280            m_sumb_d                              0.000007                        1   5
  281        brmix                                 0.015503                            1   3
  282          m_sumb_d                              0.000030                          6   4
  283          brpre                                 0.000047                          2   4
  284          setg0                                 0.002210                          1   4
  285          broyd                                 0.011675                          1   4
  286            brget                                 0.002786                      326   5
  287            brsav                                 0.001236                      163   5
  288            m_sumb_d                              0.000244                       47   5
  289        m_bcast_d                             0.000024                            2   3
  290      potlok                                0.007970                              1   2
  291        fft3d_mpi                             0.005214                           26   3
  292          fftbrc_mpi                            0.004000                         26   4
  293            fftbas_plan_mpi                       0.003979                       26   5
  294              map_forward                           0.001579                     28   6
  295                map_gather                            0.000381                   16   7
  296                m_alltoallv_z                         0.000290                   16   7
  297                map_scatter                           0.000692                   16   7
  298              map_backward                          0.001292                     24   6
  299                map_gather                            0.000303                   12   7
  300                m_alltoallv_z                         0.000260                   12   7
  301                map_scatter                           0.000499                   12   7
  302        m_sumb_d                              0.000037                            5   3
  303        pothar                                0.000104                            1   3
  304          m_sumb_d                              0.000007                          1   4
  305        m_bcast_d                             0.000041                            2   3
  306      potlok_metagga                        0.000000                              1   2
  307      set_dd_magatom                        0.000007                              1   2
  308      set_dd_paw                            0.021629                              1   2
  309        m_sumb_d                              0.000315                            7   3
  310      augmentation_charge                   0.014857                              1   2
  311        fft3d_mpi                             0.007114                            2   3
  312          fftbrc_mpi                            0.006432                          2   4
  313            fftbas_plan_mpi                       0.006430                        2   5
  314              dfftw_execute                         0.004054                      6   6
  315              map_backward                          0.001958                      4   6
  316                map_gather                            0.000671                    2   7
  317                m_alltoallv_z                         0.000665                    2   7
  318                map_scatter                           0.000615                    2   7
  319      densta                                9.331246                              1   2

 Flat profile

 eddav                                 618.372780         341
 lapack                                598.463936     1111733
 m_sumb_d                              485.134647     3390902
 raccmu_                               427.068192     1111733
 m_alltoall_d                          198.273578    15068480
 redis_pw                              192.754507     5816676
 phaser                                134.164714       29190
 redis_proj                             86.559766     7411868
 fft3d                                  79.409490     6120515
 orth1                                  65.556587     3335451
 fftwav                                 63.708836     4038459
 densta                                 62.424342         342
 overl                                  56.460924     3677248
 racc0mu_acc                            52.899688     1111733
 w1_copy                                52.772922     6246168
 eccp                                   50.556640      486948
 rpromu_acc                             44.457624      859397
 ggemm                                  36.642189     1369529
 soft_charge                            32.703371         337
 m_bcast_z                              31.235216     1117445
 overl_mu                               30.945446     1111733
 hamiltmu                               23.153783     1111733
 setup_precond                          21.250380      486948
 m_bcast_d                              19.635372     2224145
 vhamil                                 17.846561     2082056
 kinhamil                               17.436074     2082056
 fftext_mpi                             16.281596     2082056
 apply_precond                          16.233074     1595108
 newband                                13.325136     1140377
 total_time                             12.522233           1
 pw_charge                              11.055162      342731
 init_acc                               10.634046           1
 fftwav_mpi                             10.608059     4038459
 depsum                                 10.174946         337
 set_dd_paw                              6.487277         338
 set_charge                              5.679524         337
 augmentation_charge                     3.580757         338
 setdij_                                 3.486550         364
 acc_init_cublas                         2.537514           1
 fft3d_mpi                               2.433093     2092209
 broyd                                   2.340319         336
 lincom                                  1.764622       28728
 dfftw_execute                           1.717134        4098
 w1_projall                              1.662105      853937
 potlok                                  1.491912         337
 rpro_isp                                1.295023         546
 acc_init_cusolver                       0.802571           1
 map_scatter                             0.733433       11501
 brmix                                   0.730880         336
 m_alltoallv_z                           0.695743       11501
 brget                                   0.669960       75971
 elmin                                   0.660500           1
 setg0                                   0.645830         338
 fftbas_plan_mpi                         0.603328       10153
 map_gather                              0.572225       11501
 truncate_high_frequency_w1              0.399101     2569004
 sphpro_fast                             0.336746           2
 rspher_all                              0.254221          14
 brsav                                   0.182945       21860
 acc_cufft_makeplan                      0.163127          19
 proall                                  0.094330           1
 map_backward                            0.082207       10826
 map_forward                             0.075001        9480
 orthch                                  0.049624           1
 fft_gq                                  0.041233         337
 choleski                                0.038418          84
 pothar                                  0.032410         338
 force_and_stress                        0.021609           1
 strnlr                                  0.016516           1
 brpre                                   0.015146         672
 stufak                                  0.014942           1
 fftbrc_mpi                              0.008466       10153
 fornlr                                  0.005800           1
 inisym                                  0.004243           1
 forhar                                  0.003217           2
 vectorpot                               0.002372         337
 set_dd_magatom                          0.002172         338
 strelo                                  0.002057           1
 forloc                                  0.001573           1
 strehar                                 0.001541           1
 strkin                                  0.001310           1
 fewald                                  0.000703           1
 rsp                                     0.000574           1
 chggra                                  0.000282           1
 brgrid                                  0.000204           1
 fordep                                  0.000065           1
 potlok_metagga                          0.000046         337
 rcp                                     0.000043           1
 crpa_reader                             0.000030           1
 posmap                                  0.000021           2
 acc_cufft_makeplans                     0.000015           3
 rotate_active_occupied_orbital          0.000000           1
 redis_pw_over_bands                     0.000000           1
  summed up times     3643.164426803589

 Accumulative profile

 total_time                           3643.164427           1
 elmin                                3596.637282           1
 eddav                                3441.121347         341
 hamiltmu                              611.653123     1111733
 lapack                                598.463936     1111733
 raccmu_                               510.913326     1111733
 m_sumb_d                              485.134647     3390902
 redis_pw                              290.815849     5816676
 m_alltoall_d                          198.273578    15068480
 redis_proj                            186.772002     7411868
 newband                               142.919211     1140377
 phaser                                134.164714       29190
 fftwav_mpi                            128.937866     4038459
 fftwav                                118.329807     4038459
 set_charge                             86.508854         337
 fft3d                                  79.409490     6120515
 orth1                                  65.556587     3335451
 soft_charge                            63.894373         337
 densta                                 62.424342         342
 kinhamil                               59.739452     2082056
 overl                                  56.460924     3677248
 racc0mu_acc                            52.899688     1111733
 w1_copy                                52.772922     6246168
 eccp                                   50.556640      486948
 w1_projall                             45.014651      853937
 rpromu_acc                             44.457624      859397
 fftext_mpi                             42.303378     2082056
 ggemm                                  36.642189     1369529
 fft3d_mpi                              31.709148     2092209
 m_bcast_z                              31.235216     1117445
 overl_mu                               30.945446     1111733
 setup_precond                          21.250380      486948
 m_bcast_d                              19.635372     2224145
 vhamil                                 17.846561     2082056
 apply_precond                          16.233074     1595108
 pw_charge                              11.055162      342731
 init_acc                               10.634046           1
 depsum                                 10.253242         337
 set_dd_paw                              6.631335         338
 force_and_stress                        6.362611           1
 augmentation_charge                     6.017015         338
 brmix                                   4.712463         336
 fftbrc_mpi                              4.487536       10153
 fftbas_plan_mpi                         4.479070       10153
 strnlr                                  4.308724           1
 setdij_                                 3.577386         364
 potlok                                  3.460215         337
 broyd                                   3.306103         336
 rpro_isp                                3.227458         546
 acc_init_cublas                         2.537514           1
 lincom                                  1.764622       28728
 dfftw_execute                           1.717134        4098
 fornlr                                  1.463876           1
 map_backward                            1.447217       10826
 fft_gq                                  1.311083         337
 acc_init_cusolver                       0.802571           1
 map_scatter                             0.733433       11501
 map_forward                             0.711392        9480
 m_alltoallv_z                           0.695743       11501
 brget                                   0.669960       75971
 setg0                                   0.645830         338
 map_gather                              0.572225       11501
 orthch                                  0.487940           1
 truncate_high_frequency_w1              0.399101     2569004
 proall                                  0.358830           1
 sphpro_fast                             0.345910           2
 rspher_all                              0.254221          14
 brsav                                   0.182945       21860
 acc_cufft_makeplans                     0.163142           3
 acc_cufft_makeplan                      0.163127          19
 fordep                                  0.058819           1
 choleski                                0.038418          84
 pothar                                  0.035185         338
 brpre                                   0.015146         672
 stufak                                  0.014942           1
 inisym                                  0.004264           1
 forhar                                  0.003293           2
 strelo                                  0.002573           1
 vectorpot                               0.002372         337
 set_dd_magatom                          0.002172         338
 forloc                                  0.001612           1
 strehar                                 0.001544           1
 fewald                                  0.001449           1
 strkin                                  0.001317           1
 chggra                                  0.001012           1
 rsp                                     0.000574           1
 brgrid                                  0.000204           1
 potlok_metagga                          0.000046         337
 rcp                                     0.000043           1
 crpa_reader                             0.000030           1
 posmap                                  0.000021           2
 rotate_active_occupied_orbital          0.000000           1
 redis_pw_over_bands                     0.000000           1

Profiling took  27.019782 12.844143  0.003490  0.003361 seconds
Profiling took  16.884064 seconds