 vasp.6.3.2 27Jun22 (build Jul  3 2023 11:46:21) complex
 executed on    LinuxNV_CrayMPICH date 2024.05.14  19:10:44

 INCAR:
   ADDGRID = True
   ALGO = Normal
   EDIFF = 0.001
   ENCUT = 520.0
   IBRION = -1
   ICHARG = 0
   ISIF = 3
   ISMEAR = -5
   ISPIN = 2
   KPOINT_BSE = -1 0 0 0
   LAECHG = True
   LASPH = True
   LCHARG = True
   LELF = True
   LORBIT = 11
   LREAL = Auto
   LVHAR = True
   LWAVE = False
   MAGMOM = 6*0.6 2*7.0 12*0.6
   NUPDOWN = 10
   NELM = 1000
   NSW = 0
   PREC = accurate
   SIGMA = 0.05

 POTCAR:    PAW_PBE Na_pv 19Sep2006
 POTCAR:    PAW_PBE Gd 23Dec2003
 POTCAR:    PAW_PBE Br 06Sep2000
 POTCAR:    PAW_PBE Na_pv 19Sep2006
   VRHFIN =Na: p6s1

   TITEL  = PAW_PBE Na_pv 19Sep2006
   POMASS =   22.990; ZVAL   =    7.000    mass and valenz
   ENMAX  =  259.561; ENMIN  =  194.671 eV

   TITEL  = PAW_PBE Gd 23Dec2003
   POMASS =  157.250; ZVAL   =   18.000    mass and valenz
   ENMAX  =  256.472; ENMIN  =  192.354 eV

   TITEL  = PAW_PBE Br 06Sep2000
   POMASS =   79.904; ZVAL   =    7.000    mass and valenz
   ENMAX  =  216.285; ENMIN  =  162.214 eV

 Optimization of the real space projectors (new method)

 maximal supplied QI-value         = 17.01
 optimisation between [QCUT,QGAM] = [ 11.57, 23.30] = [ 37.45,152.03] Ry
 Optimized for a Real-space Cutoff    1.45 Angstroem

   l    n(q)    QCUT    max X(q) W(low)/X(q) W(high)/X(q)  e(spline)
   1     10    11.565     4.940    0.87E-04    0.13E-03    0.13E-06
   1     10    11.565     6.253    0.13E-03    0.19E-03    0.20E-06
   0     10    11.565    37.438    0.53E-04    0.73E-05    0.79E-07
   0     10    11.565     9.606    0.27E-04    0.60E-05    0.56E-07
 Optimization of the real space projectors (new method)

[...]

   l    n(q)    QCUT    max X(q) W(low)/X(q) W(high)/X(q)  e(spline)
   0     11    11.673    10.501    0.14E-04    0.17E-05    0.21E-07
   0     11    11.673     9.148    0.21E-04    0.32E-05    0.45E-07
   1     11    11.673     4.035    0.33E-05    0.11E-04    0.84E-07
   1     11    11.673     4.388    0.11E-04    0.47E-04    0.34E-06
   2     10    11.673    20.656    0.12E-04    0.28E-04    0.54E-06
   2     10    11.673    12.651    0.11E-04    0.26E-04    0.51E-06
   3     10    11.673    61.921    0.19E-03    0.22E-03    0.23E-06
   3     10    11.673    48.328    0.20E-03    0.23E-03    0.23E-06
 Optimization of the real space projectors (new method)

 maximal supplied QI-value         = 17.95
 optimisation between [QCUT,QGAM] = [ 11.67, 23.34] = [ 38.13,152.52] Ry
 Optimized for a Real-space Cutoff    1.25 Angstroem

   l    n(q)    QCUT    max X(q) W(low)/X(q) W(high)/X(q)  e(spline)
   0      9    11.669   175.082    0.16E-03    0.51E-04    0.68E-07
   0      9    11.669   174.004    0.15E-03    0.49E-04    0.66E-07
   1      8    11.669    54.315    0.23E-03    0.36E-03    0.10E-06
   1      8    11.669    42.441    0.23E-03    0.35E-03    0.10E-06
   2      8    11.669     3.596    0.17E-03    0.59E-04    0.54E-07
  PAW_PBE Na_pv 19Sep2006               :
  PAW_PBE Gd 23Dec2003                  :
  PAW_PBE Br 06Sep2000                  :

 POSCAR: Na6 Gd2 Br12
  positions in direct lattice
 exchange correlation table for  LEXCH =        8
   RHO(1)=    0.500       N(1)  =     2000
   RHO(2)=  100.500       N(2)  =     4000

 VTST: version 4.2, (08/11/21)

 CHAIN: initializing optimizer

 OPT: Using VASP Dynamics algorithm
 CHAIN: Read ICHAIN             0

 POSCAR: Na6 Gd2 Br12
  positions in direct lattice

 ion  position               nearest neighbor table
   1  0.919  0.709  0.267-
   2  0.081  0.291  0.733-
   3  0.581  0.709  0.767-
   4  0.000  0.500  0.000-
   5  0.500  0.500  0.500-
   6  0.419  0.291  0.233-
   7  0.500  0.000  0.000-  10 2.82  13 2.82  12 2.85  17 2.85  15 2.85  11 2.85
   8  0.000  0.000  0.500-   9 2.82  19 2.82  16 2.85  14 2.85  18 2.85  20 2.85
   9  0.819  0.615  0.566-   8 2.82
  10  0.319  0.385  0.934-   7 2.82
  11  0.565  0.900  0.239-   7 2.85
  12  0.191  0.749  0.080-   7 2.85
  13  0.681  0.615  0.066-   7 2.82
  14  0.691  0.251  0.420-   8 2.85
  15  0.435  0.100  0.761-   7 2.85
  16  0.309  0.749  0.580-   8 2.85
  17  0.809  0.251  0.920-   7 2.85
  18  0.065  0.100  0.261-   8 2.85
  19  0.181  0.385  0.434-   8 2.82
  20  0.935  0.900  0.739-   8 2.85

  LATTYP: Found a simple monoclinic cell.
 ALAT       =     7.3154130000
 B/A-ratio  =     1.0612616130
 C/A-ratio  =     1.5023099962
 COS(beta)  =    -0.0044959890

  Lattice vectors:

 A1 = (   0.0000000000,   7.3154130000,   0.0000000000)
 A2 = (  -7.7635670000,   0.0000000000,   0.0000000000)
 A3 = (   0.0000000000,  -0.0494110000,  10.9899070000)

Analysis of symmetry for initial positions (statically):
 Subroutine PRICEL returns:
 Original cell was already a primitive cell.

 Routine SETGRP: Setting up the symmetry group for a
 simple monoclinic supercell.

 Subroutine GETGRP returns: Found  4 space group operations
 (whereof  2 operations were pure point group operations)
 out of a pool of  4 trial point group operations.

The static configuration has the point symmetry S_2 .
 The point group associated with its full space group is C_2h.

Analysis of symmetry for dynamics (positions and initial velocities):
 Subroutine PRICEL returns:
 Original cell was already a primitive cell.

[...]

The dynamic configuration has the point symmetry S_2 .
 The point group associated with its full space group is C_2h.

Analysis of structural, dynamic, and magnetic symmetry:
 Subroutine PRICEL returns:
 Original cell was already a primitive cell.

 Routine SETGRP: Setting up the symmetry group for a
 simple monoclinic supercell.

 Subroutine GETGRP returns: Found  4 space group operations
 (whereof  2 operations were pure point group operations)
 out of a pool of  4 trial point group operations.

The overall configuration has the point symmetry S_2 .
 The point group associated with its full space group is C_2h.

 Subroutine INISYM returns: Found  4 space group operations
 (whereof  2 operations are pure point group operations),
 and found     1 'primitive' translations

                                     Primitive cell

  volume of cell :     624.1575

  direct lattice vectors                    reciprocal lattice vectors
     7.763567000  0.000000000  0.000000000     0.128806771  0.000000000  0.000000000
     0.000000000  7.315413000  0.000000000     0.000000000  0.136697682 -0.090377983
     0.000000000  7.266002000 10.989907000     0.000000000  0.000000000  0.090992581

  length of vectors
     7.763567000  7.315413000 13.174704586     0.128806771  0.163873232  0.090992581

  position of ions in fractional coordinates (direct lattice)
     0.919362000  0.708571000  0.266655000
     0.080638000  0.291429000  0.733345000
     0.580638000  0.708571000  0.766655000
     0.000000000  0.500000000  0.000000000
     0.500000000  0.500000000  0.500000000
     0.419362000  0.291429000  0.233345000
     0.500000000  0.000000000  0.000000000
     0.000000000  0.000000000  0.500000000
     0.818810000  0.614624000  0.566094000
     0.318810000  0.385376000  0.933906000
     0.565136000  0.900311000  0.238642000
     0.191012000  0.748772000  0.080254000
     0.681190000  0.614624000  0.066094000
     0.691012000  0.251228000  0.419746000
     0.434864000  0.099689000  0.761358000
     0.308988000  0.748772000  0.580254000
     0.808988000  0.251228000  0.919746000
     0.065136000  0.099689000  0.261358000
     0.181190000  0.385376000  0.433906000
     0.934864000  0.900311000  0.738642000

  ion indices of the primitive-cell ions
   primitive index   ion index
                 1           1
                 2           2
                 3           3
                 4           4
                 5           5
                 6           6
                 7           7
                 8           8
                 9           9
                10          10
                11          11
                12          12
                13          13
                14          14
                15          15
                16          16
                17          17
                18          18
                19          19
                20          20

 KPOINTS: Kpoints from vasprun.xml

Automatic generation of k-mesh.
 Grid dimensions read from file:
 generate k-points for:    3    4    2

 Generating k-lattice:

  Cartesian coordinates                     Fractional coordinates (reciprocal lattice)
     0.042935590  0.000000000  0.000000000     0.333333333  0.000000000  0.000000000
     0.000000000  0.034174421 -0.022594496     0.000000000  0.250000000  0.000000000
     0.000000000  0.000000000  0.045496290     0.000000000  0.000000000  0.500000000

  Length of vectors
     0.042935590  0.040968308  0.045496290

  Shift w.r.t. Gamma in fractional coordinates (k-lattice)
     0.000000000  0.000000000  0.000000000

 TETIRR: Found     72 inequivalent tetrahedra from      144

 Subroutine IBZKPT returns following result:

 Found     12 irreducible k-points:

 Following reciprocal coordinates:
            Coordinates               Weight
  0.000000  0.000000  0.000000      1.000000
  0.333333  0.000000  0.000000      2.000000
  0.000000  0.250000  0.000000      2.000000
  0.333333  0.250000  0.000000      4.000000
  0.000000  0.500000  0.000000      1.000000
  0.333333  0.500000  0.000000      2.000000
  0.000000  0.000000  0.500000      1.000000
  0.333333  0.000000  0.500000      2.000000
  0.000000  0.250000  0.500000      2.000000
  0.333333  0.250000  0.500000      4.000000
  0.000000  0.500000  0.500000      1.000000
  0.333333  0.500000  0.500000      2.000000

 Following cartesian coordinates:
            Coordinates               Weight
  0.000000  0.000000  0.000000      1.000000
  0.042936  0.000000  0.000000      2.000000
  0.000000  0.034174 -0.022594      2.000000
  0.042936  0.034174 -0.022594      4.000000
  0.000000  0.068349 -0.045189      1.000000
  0.042936  0.068349 -0.045189      2.000000
  0.000000  0.000000  0.045496      1.000000
  0.042936  0.000000  0.045496      2.000000
  0.000000  0.034174  0.022902      2.000000
  0.042936  0.034174  0.022902      4.000000
  0.000000  0.068349  0.000307      1.000000
  0.042936  0.068349  0.000307      2.000000

 SYSTEM =  unknown system
 POSCAR =  Na6 Gd2 Br12

 Startparameter for this run:
   NWRITE =      2    write-flag & timer
   PREC   = accura    normal or accurate (medium, high low for compatibility)
   ISTART =      0    job   : 0-new  1-cont  2-samecut
   ICHARG =      0    charge: 1-file 2-atom 10-const
   ISPIN  =      2    spin polarized calculation?
   LNONCOLLINEAR =      F non collinear calculations
   LSORBIT =      F    spin-orbit coupling
   INIWAV =      1    electr: 0-lowe 1-rand  2-diag
   LASPH  =      T    aspherical Exc in radial PAW
 Electronic Relaxation 1
   ENCUT  =  520.0 eV  38.22 Ry    6.18 a.u.  14.44 13.60 24.50*2*pi/ulx,y,z
   ENINI  =  520.0     initial cutoff
   ENAUG  =  537.2 eV  augmentation charge cutoff
   NELM   =   1000;   NELMIN=  2; NELMDL= -5     # of ELM steps
   EDIFF  = 0.1E-02   stopping-criterion for ELM
   LREAL  =      T    real-space projection
[...]
  318                map_forward                           0.000331                    4   7
  319                  map_gather                            0.000055                  2   8
  320                  m_alltoallv_z                         0.000028                  2   8
  321                  map_scatter                           0.000211                  2   8
  322                map_backward                          0.000138                    2   7
  323                  map_gather                            0.000029                  1   8
  324                  m_alltoallv_z                         0.000013                  1   8
  325                  map_scatter                           0.000069                  1   8
  326          m_sumb_d                              0.000009                          2   4
  327          pothar                                0.000096                          1   4
  328            m_sumb_d                              0.000014                        1   5
  329        brmix                                 0.017946                            1   3
  330          m_sumb_d                              0.000024                          6   4
  331          brpre                                 0.000058                          2   4
  332          setg0                                 0.002195                          1   4
  333          broyd                                 0.012938                          1   4
  334            m_sumb_d                              0.000584                       50   5
  335            brget                                 0.002677                      224   5
  336            brsav                                 0.000574                       48   5
  337        m_bcast_d                             0.000065                            2   3
  338      potlok                                0.072899                              2   2
  339        fft3d_mpi                             0.046326                           36   3
  340          fftbrc_mpi                            0.039506                         36   4
  341            fftbas_plan_mpi                       0.039485                       36   5
  342              map_forward                           0.010655                     40   6
  343                map_gather                            0.003111                   24   7
  344                m_alltoallv_z                         0.004271                   24   7
  345                map_scatter                           0.003043                   24   7
  346              map_backward                          0.008843                     32   6
  347                map_gather                            0.002750                   16   7
  348                m_alltoallv_z                         0.003148                   16   7
  349                map_scatter                           0.002621                   16   7
  350              dfftw_execute                         0.017885                     30   6
  351        m_sumb_d                              0.000031                            5   3
  352        pothar                                0.003345                            2   3
  353          m_sumb_d                              0.000139                          2   4
  354        m_bcast_d                             0.005206                            4   3
  355      potlok_metagga                        0.000000                              1   2
  356      set_dd_magatom                        0.000005                              1   2
  357      set_dd_paw                            2.655254                              1   2
  358        m_sumb_d                              0.000295                            7   3
  359      augmentation_charge                   0.237329                              1   2
  360        fft3d_mpi                             0.135162                            2   3
  361          fftbrc_mpi                            0.115719                          2   4
  362            fftbas_plan_mpi                       0.115716                        2   5
  363              dfftw_execute                         0.074088                      6   6
  364              map_backward                          0.041301                      4   6
  365                map_gather                            0.014340                    2   7
  366                m_alltoallv_z                         0.012912                    2   7
  367                map_scatter                           0.014035                    2   7
  368      fftwav_mpi                            4.282385                           2016   2
  369        fftwav                                4.279762                         2016   3
  370          fft3d                                 3.955881                       2016   4
  371      densta                                1.968797                              1   2

 Flat profile

 set_dd_paw                            403.935054         156
 eddav                                 110.424804         158
 raccmu_                               103.017068      205829
 lapack                                 95.567945      205829
 redis_pw                               49.168390     1136430
 m_sumb_d                               42.783771      635285
 dfftw_execute                          26.425789        4188
 m_alltoall_d                           21.991865     2991142
 total_time                             18.532506           1
 setdij_                                17.454139         182
 fft3d                                  16.346978     1216570
 augmentation_charge                    15.850124         156
 phaser                                 14.214066        3948
 eccp                                   12.915720      106176
 init_acc                               11.306182           1
 orth1                                  10.294978      617583
 redis_proj                              9.742603     1441936
 hamiltmu                                9.245841      205829
 densta                                  8.649129         159
 fftwav                                  8.088324      804912
 fft3d_mpi                               7.042537      417109
 w1_copy                                 6.135140     1234974
 racc0mu_acc                             6.072026      205829
 overl                                   5.907959      717164
 rpromu_acc                              4.990834      154925
 m_alltoallv_z                           4.974030        6093
 map_gather                              4.901223        6093
 map_scatter                             4.846999        6093
 m_bcast_z                               4.817909      208517
 soft_charge                             4.707192         155
 setup_precond                           3.889789      106176
 ggemm                                   3.534680      258917
 pw_charge                               3.445328       77020
 m_bcast_d                               3.415421      411975
 set_charge                              3.216841         155
 overl_mu                                3.213307      205829
 acc_init_cublas                         2.426873           1
 vhamil                                  1.880831      411658
 kinhamil                                1.854677      411658
 depsum                                  1.728211         155
 fftext_mpi                              1.723272      411658
 apply_precond                           1.686920      305482
 newband                                 1.681576      209621
 potlok                                  1.118456         156
 broyd                                   1.112078         154
 fftwav_mpi                              1.086569      804912
 acc_init_cusolver                       0.788096           1
 brmix                                   0.558498         154
 rpro_isp                                0.535184         156
 brget                                   0.385773       31784
 elmin                                   0.378552           1
 fftbas_plan_mpi                         0.358023        5451
 setg0                                   0.346389         156
 rspher_all                              0.205679          14
 w1_projall                              0.157369      152741
 lincom                                  0.143967        3816
 sphpro_fast                             0.115127           2
 acc_cufft_makeplan                      0.113790          19
 brsav                                   0.104524        8940
 proall                                  0.078071           1
 map_backward                            0.054514        5750
 truncate_high_frequency_w1              0.043414      517834
 map_forward                             0.037935        5152
 orthch                                  0.033280           1
 fft_gq                                  0.029556         155
 force_and_stress                        0.025128           1
 stufak                                  0.020446           1
 pothar                                  0.017719         157
 brpre                                   0.009695         308
 choleski                                0.009390          24
 inisym                                  0.004497           1
 forhar                                  0.004135           2
 strnlr                                  0.004133           1
 fftbrc_mpi                              0.003945        5451
 strelo                                  0.003726           1
 strehar                                 0.003003           1
 forloc                                  0.002141           1
 strkin                                  0.001812           1
 fornlr                                  0.001477           1
 set_dd_magatom                          0.000720         156
 vectorpot                               0.000632         155
 rsp                                     0.000577           1
 brgrid                                  0.000389           1
 fewald                                  0.000341           1
 chggra                                  0.000277           1
 fordep                                  0.000091           1
 posmap                                  0.000032           2
 crpa_reader                             0.000028           1
 rcp                                     0.000027           1
 acc_cufft_makeplans                     0.000014           3
 potlok_metagga                          0.000011         155
 rotate_active_occupied_orbital          0.000000           1
 redis_pw_over_bands                     0.000000           1
  summed up times     1101.948080062866

 Accumulative profile

 total_time                           1101.948080           1
 elmin                                1044.899839           1
 eddav                                 542.777073         158
 set_dd_paw                            405.362936         156
 hamiltmu                              130.812685      205829
 raccmu_                               112.302401      205829
 lapack                                 95.567945      205829
 redis_pw                               60.521170     1136430
 set_charge                             56.009635         155
 fft3d_mpi                              52.324864      417109
 m_sumb_d                               42.783771      635285
 setdij_                                42.355452         182
 fftbrc_mpi                             41.602458        5451
 fftbas_plan_mpi                        41.598513        5451
 augmentation_charge                    37.274090         156
 newband                                27.189122      209621
 dfftw_execute                          26.425789        4188
 m_alltoall_d                           21.991865     2991142
 fftwav_mpi                             21.842001      804912
 fftwav                                 20.755432      804912
 redis_proj                             20.381688     1441936
 fft3d                                  16.346978     1216570
 phaser                                 14.214066        3948
 soft_charge                            13.477678         155
 eccp                                   12.915720      106176
 init_acc                               11.306182           1
 force_and_stress                       11.033438           1
 orth1                                  10.294978      617583
 densta                                  8.649129         159
 map_backward                            7.948276        5750
 kinhamil                                7.383613      411658
 map_forward                             6.866424        5152
 w1_copy                                 6.135140     1234974
 racc0mu_acc                             6.072026      205829
 overl                                   5.907959      717164
 fftext_mpi                              5.528936      411658
 rpromu_acc                              4.990834      154925
 m_alltoallv_z                           4.974030        6093
 map_gather                              4.901223        6093
 map_scatter                             4.846999        6093
 m_bcast_z                               4.817909      208517
 w1_projall                              4.628726      152741
 setup_precond                           3.889789      106176
 ggemm                                   3.534680      258917
 pw_charge                               3.445328       77020
 m_bcast_d                               3.415421      411975
 overl_mu                                3.213307      205829
 brmix                                   2.661719         154
 acc_init_cublas                         2.426873           1
 potlok                                  2.248263         156
 vhamil                                  1.880831      411658
 depsum                                  1.763497         155
 broyd                                   1.730643         154
 apply_precond                           1.686920      305482
 strnlr                                  1.524967           1
 fordep                                  1.385098           1
 rpro_isp                                1.349834         156
 acc_init_cusolver                       0.788096           1
 fft_gq                                  0.746910         155
 fornlr                                  0.509160           1
 brget                                   0.385773       31784
 setg0                                   0.346389         156
 orthch                                  0.275909           1
 rspher_all                              0.205679          14
 proall                                  0.158471           1
 lincom                                  0.143967        3816
 sphpro_fast                             0.119611           2
 acc_cufft_makeplans                     0.113804           3
 acc_cufft_makeplan                      0.113790          19
 brsav                                   0.104524        8940
 truncate_high_frequency_w1              0.043414      517834
 stufak                                  0.020446           1
 pothar                                  0.019209         157
 brpre                                   0.009695         308
 choleski                                0.009390          24
 inisym                                  0.004529           1
 forhar                                  0.004183           2
 strelo                                  0.003924           1
 strehar                                 0.003007           1
 forloc                                  0.002874           1
 strkin                                  0.001828           1
 fewald                                  0.001520           1
 chggra                                  0.001111           1
 set_dd_magatom                          0.000720         156
 vectorpot                               0.000632         155
 rsp                                     0.000577           1
 brgrid                                  0.000389           1
 posmap                                  0.000032           2
 crpa_reader                             0.000028           1
 rcp                                     0.000027           1
 potlok_metagga                          0.000011         155
 rotate_active_occupied_orbital          0.000000           1
 redis_pw_over_bands                     0.000000           1

Profiling took   2.624839  1.256350  0.003268  0.003164 seconds
Profiling took   1.703580 seconds