 vasp.6.3.2 27Jun22 (build Jul  3 2023 11:46:21) complex
 executed on    LinuxNV_CrayMPICH date 2024.04.21  23:00:31

 INCAR:
   ALGO = Normal
   AMIX_MAG = 0.8
   BMIX = 0.001
   BMIX_MAG = 0.001
   EDIFF = 0.00085
   EFIELD_PEAD = 0.0 0.0 0.0
   ENCUT = 520.0
   IBRION = 2
   ICHARG = 1
   ISIF = 3
   ISMEAR = 0
   ISPIN = 2
   ISTART = 1
   ISYM = 0
   LCALCEPS = False
   LCALCPOL = False
   LEFG = False
   LORBIT = 11
   LPEAD = False
   LREAL = Auto
   LWAVE = False
   MAGMOM = 1*7.0 16*0.6
   NELM = 1000
   NELMDL = 6
   NSW = 99
   PREC = accurate
   SIGMA = 0.2

 POTCAR:    PAW_PBE Eu 23Dec2003
 POTCAR:    PAW_PBE Sb 06Sep2000
 POTCAR:    PAW_PBE Os_pv 20Jan2003
 POTCAR:    PAW_PBE Eu 23Dec2003
   VRHFIN =Eu : [core=Kr4d]

   TITEL  = PAW_PBE Eu 23Dec2003
   POMASS =  151.965; ZVAL   =   17.000    mass and valenz
   ENMAX  =  249.668; ENMIN  =  187.251 eV

   TITEL  = PAW_PBE Sb 06Sep2000
   POMASS =  121.750; ZVAL   =    5.000    mass and valenz
   ENMAX  =  172.069; ENMIN  =  129.052 eV

   TITEL  = PAW_PBE Os_pv 20Jan2003
   POMASS =  190.200; ZVAL   =   14.000    mass and valenz
   ENMAX  =  228.022; ENMIN  =  171.017 eV

 Optimization of the real space projectors (new method)

 maximal supplied QI-value         = 13.42
 optimisation between [QCUT,QGAM] = [ 11.67, 23.35] = [ 38.16,152.62] Ry
 Optimized for a Real-space Cutoff    1.63 Angstroem

   l    n(q)    QCUT    max X(q) W(low)/X(q) W(high)/X(q)  e(spline)
   0     11    11.673    10.400    0.14E-04    0.18E-05    0.24E-07
   0     11    11.673    10.768    0.21E-04    0.32E-05    0.49E-07
   1     11    11.673     4.094    0.40E-05    0.13E-04    0.93E-07
   1     11    11.673     4.009    0.11E-04    0.46E-04    0.33E-06
   2     10    11.673    29.030    0.79E-04    0.60E-04    0.70E-06
   2     10    11.673    19.941    0.80E-04    0.60E-04    0.71E-06
   3     10    11.673    88.889    0.23E-03    0.29E-03    0.30E-06
   3     10    11.673    76.102    0.23E-03    0.30E-03    0.30E-06
 Optimization of the real space projectors (new method)

[...]

   l    n(q)    QCUT    max X(q) W(low)/X(q) W(high)/X(q)  e(spline)
   0      9    11.539    19.000    0.40E-04    0.50E-04    0.84E-07
   0      9    11.539     9.057    0.48E-04    0.60E-04    0.10E-06
   1      9    11.539   125.345    0.24E-03    0.13E-04    0.15E-06
   1      9    11.539    79.963    0.24E-03    0.12E-04    0.14E-06
   2      9    11.539     6.963    0.31E-04    0.10E-03    0.57E-07
 Optimization of the real space projectors (new method)

 maximal supplied QI-value         = 15.12
 optimisation between [QCUT,QGAM] = [ 11.64, 23.28] = [ 37.95,151.78] Ry
 Optimized for a Real-space Cutoff    1.58 Angstroem

   l    n(q)    QCUT    max X(q) W(low)/X(q) W(high)/X(q)  e(spline)
   1     11    11.641     4.891    0.34E-04    0.44E-05    0.10E-06
   1     11    11.641     5.413    0.55E-04    0.39E-05    0.21E-06
   2     10    11.641   152.724    0.79E-04    0.37E-03    0.14E-05
   2     10    11.641   145.932    0.79E-04    0.37E-03    0.14E-05
   0     11    11.641    72.123    0.49E-04    0.38E-04    0.23E-06
   0     11    11.641    43.545    0.42E-04    0.35E-04    0.22E-06
  PAW_PBE Eu 23Dec2003                  :
  PAW_PBE Sb 06Sep2000                  :
  PAW_PBE Os_pv 20Jan2003               :

 POSCAR: Eu1 Sb12 Os4
  positions in direct lattice
 exchange correlation table for  LEXCH =        8
   RHO(1)=    0.500       N(1)  =     2000
   RHO(2)=  100.500       N(2)  =     4000

 VTST: version 4.2, (08/11/21)

 CHAIN: initializing optimizer

 OPT: Using VASP Conjugate-Gradient optimizer
 CHAIN: Read ICHAIN             0

 POSCAR: Eu1 Sb12 Os4
  positions in direct lattice

 ion  position               nearest neighbor table
   1  0.000  0.000  0.000-  12 3.65   7 3.65  10 3.65   5 3.65   2 3.65   9 3.65   6 3.65  13 3.65
                             3 3.65   4 3.65  11 3.66   8 3.66
   2  0.497  0.340  0.157-  14 2.75  17 2.75   3 3.07   4 3.13   1 3.65  13 3.69  11 3.70   7 3.70
                            10 3.70
   3  0.183  0.340  0.843-  15 2.74  16 2.75   2 3.07   9 3.13   1 3.65   8 3.69   6 3.70  10 3.70
                             7 3.70
   4  0.817  0.660  0.157-  15 2.74  16 2.75   9 3.07   2 3.13   1 3.65  11 3.69  13 3.70   5 3.70
                            12 3.70
   5  0.157  0.817  0.661-  17 2.75  15 2.75   7 3.06  12 3.13   1 3.65  11 3.70   6 3.70   4 3.70
                             9 3.70
   6  0.340  0.157  0.497-  15 2.75  14 2.75   8 3.06  11 3.13   1 3.65   9 3.69   3 3.70   7 3.70
                             5 3.70
   7  0.843  0.504  0.660-  16 2.75  14 2.75   5 3.06  10 3.13   1 3.65   6 3.70  11 3.70   2 3.70
                             3 3.70
   8  0.340  0.843  0.183-  16 2.75  17 2.75   6 3.06  13 3.13   1 3.66   3 3.69  10 3.70   9 3.70
                            12 3.70
   9  0.503  0.660  0.843-  14 2.75  17 2.75   4 3.07   3 3.13   1 3.65   6 3.69   8 3.70  12 3.70
                             5 3.70
  10  0.843  0.183  0.339-  17 2.75  15 2.75  12 3.06   7 3.13   1 3.65   8 3.70  13 3.70   3 3.70
                             2 3.70
  11  0.660  0.157  0.817-  16 2.75  17 2.75  13 3.06   6 3.13   1 3.66   4 3.69   5 3.70   2 3.70
                             7 3.70
  12  0.157  0.496  0.340-  16 2.75  14 2.75  10 3.06   5 3.13   1 3.65  13 3.70   8 3.70   9 3.70
                             4 3.70
  13  0.660  0.843  0.503-  15 2.75  14 2.75  11 3.06   8 3.13   1 3.65   2 3.69   4 3.70  12 3.70
                            10 3.70
  14  0.500  0.500  0.500-   2 2.75   9 2.75   6 2.75  13 2.75   7 2.75  12 2.75
  15  1.000  1.000  0.500-   4 2.74   3 2.74  13 2.75   6 2.75   5 2.75  10 2.75
  16  1.000  0.500  1.000-  11 2.75   8 2.75   4 2.75   3 2.75  12 2.75   7 2.75
  17  0.500  0.000  0.000-  10 2.75   5 2.75   2 2.75   9 2.75   8 2.75  11 2.75

IMPORTANT INFORMATION: All symmetrisations will be switched off!
NOSYMM: (Re-)initialisation of all symmetry stuff for point group C_1.

                                     Primitive cell

  volume of cell :     465.5111

  direct lattice vectors                    reciprocal lattice vectors
     7.980207320 -0.001728610 -2.817446910     0.125336056  0.072543384  0.000029217
    -3.993937430  6.901620140 -2.824099330     0.000066345  0.144972407  0.000098971
     0.001370510 -0.005773600  8.456221020     0.041781672  0.072586041  0.118298921

  length of vectors
     8.462961594  8.459280926  8.456223102     0.144815988  0.144972456  0.144945080

  position of ions in fractional coordinates (direct lattice)
     0.000000380  0.000000460  0.000000270
     0.496519890  0.339688810  0.156778840
     0.182786520  0.339643890  0.843134380
     0.817213430  0.660356020  0.156865510
     0.157049320  0.817401090  0.660562950
     0.339606610  0.156781960  0.496552320
     0.842984660  0.503545130  0.660403420
     0.339577240  0.843021240  0.182817870
     0.503480120  0.660311160  0.843221200
     0.842950560  0.182598830  0.339436960
     0.660422750  0.156978680  0.817182100
     0.157015280  0.496454890  0.339596590
     0.660393390  0.843218050  0.503447700
     0.499999960  0.499999920  0.499999940
     0.999999930  0.999999930  0.499999950
     0.999999970  0.499999960  0.999999980
     0.500000000  1.000000000  0.000000020

  ion indices of the primitive-cell ions
   primitive index   ion index
                 1           1
                 2           2
                 3           3
                 4           4
                 5           5
                 6           6
                 7           7
                 8           8
                 9           9
                10          10
                11          11
                12          12
                13          13
                14          14
                15          15
                16          16
                17          17

 KPOINTS: Kpoints from vasprun.xml

Automatic generation of k-mesh.
 Grid dimensions read from file:
 generate k-points for:    4    4    4

 Generating k-lattice:

  Cartesian coordinates                     Fractional coordinates (reciprocal lattice)
     0.031334014  0.018135846  0.000007304     0.250000000 -0.000000000  0.000000000
     0.000016586  0.036243102  0.000024743    -0.000000000  0.250000000  0.000000000
     0.010445418  0.018146510  0.029574730    -0.000000000 -0.000000000  0.250000000

  Length of vectors
     0.036203997  0.036243114  0.036236270

  Shift w.r.t. Gamma in fractional coordinates (k-lattice)
     0.500000000  0.500000000  0.500000000

 Subroutine IBZKPT returns following result:

 Found     32 irreducible k-points:

 Following reciprocal coordinates:
            Coordinates               Weight
  0.125000  0.125000  0.125000      2.000000
  0.375000  0.125000  0.125000      2.000000
 -0.375000  0.125000  0.125000      2.000000
 -0.125000  0.125000  0.125000      2.000000
  0.125000  0.375000  0.125000      2.000000
  0.375000  0.375000  0.125000      2.000000
 -0.375000  0.375000  0.125000      2.000000
 -0.125000  0.375000  0.125000      2.000000
  0.125000 -0.375000  0.125000      2.000000
  0.375000 -0.375000  0.125000      2.000000
 -0.375000 -0.375000  0.125000      2.000000
 -0.125000 -0.375000  0.125000      2.000000
  0.125000 -0.125000  0.125000      2.000000
  0.375000 -0.125000  0.125000      2.000000
 -0.375000 -0.125000  0.125000      2.000000
 -0.125000 -0.125000  0.125000      2.000000
  0.125000  0.125000  0.375000      2.000000
  0.375000  0.125000  0.375000      2.000000
 -0.375000  0.125000  0.375000      2.000000
 -0.125000  0.125000  0.375000      2.000000
  0.125000  0.375000  0.375000      2.000000
  0.375000  0.375000  0.375000      2.000000
 -0.375000  0.375000  0.375000      2.000000
 -0.125000  0.375000  0.375000      2.000000
  0.125000 -0.375000  0.375000      2.000000
  0.375000 -0.375000  0.375000      2.000000
 -0.375000 -0.375000  0.375000      2.000000
 -0.125000 -0.375000  0.375000      2.000000
  0.125000 -0.125000  0.375000      2.000000
  0.375000 -0.125000  0.375000      2.000000
 -0.375000 -0.125000  0.375000      2.000000
 -0.125000 -0.125000  0.375000      2.000000

 Following cartesian coordinates:
            Coordinates               Weight
  0.020898  0.036263  0.014803      2.000000
  0.052232  0.054399  0.014811      2.000000
 -0.041770 -0.000009  0.014789      2.000000
 -0.010436  0.018127  0.014796      2.000000
  0.020915  0.072506  0.014828      2.000000
  0.052249  0.090642  0.014835      2.000000
 -0.041753  0.036234  0.014814      2.000000
 -0.010419  0.054370  0.014821      2.000000
  0.020865 -0.036223  0.014754      2.000000
  0.052199 -0.018088  0.014761      2.000000
 -0.041803 -0.072495  0.014739      2.000000
 -0.010469 -0.054359  0.014747      2.000000
  0.020881  0.000020  0.014779      2.000000
  0.052215  0.018155  0.014786      2.000000
 -0.041787 -0.036252  0.014764      2.000000
 -0.010453 -0.018116  0.014771      2.000000
  0.031343  0.054409  0.044378      2.000000
  0.062677  0.072545  0.044385      2.000000
 -0.031325  0.018138  0.044364      2.000000
  0.000009  0.036273  0.044371      2.000000
  0.031360  0.090652  0.044403      2.000000
[...]
  223                map_gather                            0.001975                   72   7
  224                m_alltoallv_z                         0.000827                   72   7
  225                map_scatter                           0.004845                   72   7
  226        m_sumb_d                              0.000186                           30   3
  227        forhar                                0.024195                           12   3
  228          m_sumb_d                              0.000304                         12   4
  229        strehar                               0.015502                            6   3
  230          m_sumb_d                              0.000024                          6   4
  231        chggra                                0.005681                            6   3
  232          fft3d_mpi                             0.003553                         18   4
  233            fftbrc_mpi                            0.002886                       18   5
  234              fftbas_plan_mpi                       0.002876                     18   6
  235                map_forward                           0.001534                   24   7
  236                  map_gather                            0.000301                 12   8
  237                  m_alltoallv_z                         0.000156                 12   8
  238                  map_scatter                           0.000865                 12   8
  239                map_backward                          0.000837                   12   7
  240                  map_gather                            0.000162                  6   8
  241                  m_alltoallv_z                         0.000066                  6   8
  242                  map_scatter                           0.000511                  6   8
  243          m_sumb_d                              0.000064                         12   4
  244          pothar                                0.000555                          6   4
  245            m_sumb_d                              0.000087                        6   5
  246        brmix                                 0.046221                            6   3
  247          m_sumb_d                              0.000392                         36   4
  248          brpre                                 0.000267                         12   4
  249          setg0                                 0.011455                          6   4
  250          broyd                                 0.020040                          6   4
  251            m_sumb_d                              0.003261                      146   5
  252            brget                                 0.004815                      574   5
  253            brsav                                 0.001130                      135   5
  254        m_bcast_d                             0.000165                           12   3
  255      potlok                                0.047961                              6   2
  256        fft3d_mpi                             0.029585                          156   3
  257          fftbrc_mpi                            0.023313                        156   4
  258            fftbas_plan_mpi                       0.023233                      156   5
  259              map_forward                           0.010367                    168   6
  260                map_gather                            0.002247                   96   7
  261                m_alltoallv_z                         0.001094                   96   7
  262                map_scatter                           0.005782                   96   7
  263              map_backward                          0.008164                    144   6
  264                map_gather                            0.001986                   72   7
  265                m_alltoallv_z                         0.000816                   72   7
  266                map_scatter                           0.004212                   72   7
  267        m_sumb_d                              0.000149                           30   3
  268        pothar                                0.000564                            6   3
  269          m_sumb_d                              0.000046                          6   4
  270        m_bcast_d                             0.000145                           12   3
  271      potlok_metagga                        0.000001                              6   2
  272      set_dd_magatom                        0.000021                              6   2
  273      set_dd_paw                            0.101029                              6   2
  274        m_sumb_d                              0.024074                           42   3
  275      wavpre_noio                           0.318652                              5   2
  276        stufak                                0.072738                            5   3
  277      densta                                0.017480                              1   2
  278        m_sumb_d                              0.001118                           40   3

 Flat profile

 raccmu_                               203.819457      351030
 eddav                                 181.420429         140
 lapack                                162.172202      351030
 redis_pw                               84.324198     1927748
 m_sumb_d                               65.918480     1074257
 phaser                                 55.099294       11456
 m_alltoall_d                           36.458088     5153780
 eccp                                   21.723576      197120
 orth1                                  17.263208     1054242
 redis_proj                             16.504241     2433072
 fft3d                                  15.875473     2142342
 fftwav                                 14.952217     1440282
 rpromu_acc                             14.212605      282422
 hamiltmu                               10.988944      351030
 w1_copy                                10.374662     2106180
 racc0mu_acc                            10.263231      351030
 init_acc                               10.034832           1
 overl                                   9.955094     1207384
 total_time                              9.275540           1
 m_bcast_z                               8.092015      356662
 soft_charge                             7.163470         110
 setup_precond                           7.129162      197120
 rpro_isp                                6.316079        2496
 m_bcast_d                               5.863759      702317
 ggemm                                   5.614130      449590
 overl_mu                                5.452667      351030
 setdij_                                 4.531247         273
 pw_charge                               4.446892      123458
 acc_init_cublas                         3.878577           1
 vhamil                                  3.213307      702060
 kinhamil                                3.188237      702060
 newband                                 2.935942      359990
 fftext_mpi                              2.920449      702060
 apply_precond                           2.780573      504940
 depsum                                  2.530496         110
 augmentation_charge                     1.980435         110
 fftwav_mpi                              1.899753     1440282
 rspher_all                              1.607190          79
 set_dd_paw                              1.585059         122
 fft3d_mpi                               1.475464      705676
 acc_init_cusolver                       1.128097           1
 potlok                                  0.705669         116
 elmin                                   0.602639           6
 m_alltoallv_z                           0.444645        4068
 dfftw_execute                           0.418884        1350
 proall                                  0.345567           6
 orthch                                  0.334189           6
 lincom                                  0.329597        9344
 map_scatter                             0.319683        4068
 sphpro_fast                             0.301035           7
 densta                                  0.251940         141
 map_gather                              0.249252        4068
 wavpre_noio                             0.245914           5
 brmix                                   0.244258         110
 acc_cufft_makeplan                      0.244087          19
 w1_projall                              0.240539      252470
 setg0                                   0.212637         122
 force_and_stress                        0.185495           6
 broyd                                   0.146448         110
 fftbas_plan_mpi                         0.129721        3616
 stufak                                  0.088137           6
 choleski                                0.086578         384
 truncate_high_frequency_w1              0.069943      899180
 brget                                   0.061602        7619
 set_charge                              0.056570         110
 strnlr                                  0.055728           6
 map_forward                             0.026232        3412
 map_backward                            0.024868        3820
 forhar                                  0.023891          12
 strelo                                  0.019310           6
 fornlr                                  0.019205           6
 fft_gq                                  0.015729         110
 strehar                                 0.015478           6
 brsav                                   0.015321        1901
 strkin                                  0.012971           6
 forloc                                  0.012134           6
 pothar                                  0.010565         122
 brpre                                   0.005102         220
 rsp                                     0.003070           6
 fftbrc_mpi                              0.001974        3616
 chggra                                  0.001509           6
 set_dd_magatom                          0.000502         122
 vectorpot                               0.000448         111
 fewald                                  0.000369           6
 brgrid                                  0.000360           1
 fordep                                  0.000356           6
 rcp                                     0.000157           6
 crpa_reader                             0.000031           1
 acc_cufft_makeplans                     0.000011           3
 potlok_metagga                          0.000004         116
 redis_pw_over_bands                     0.000001           6
 rotate_active_occupied_orbital          0.000001           6
  summed up times     1042.949129819870

 Accumulative profile

 total_time                           1042.949130           1
 elmin                                 980.013511           6
 eddav                                 951.749966         140
 hamiltmu                              245.045251      351030
 raccmu_                               219.535356      351030
 lapack                                162.172202      351030
 redis_pw                              102.393147     1927748
 m_sumb_d                               65.918480     1074257
 phaser                                 55.099294       11456
 newband                                47.640073      359990
 m_alltoall_d                           36.458088     5153780
 redis_proj                             34.893380     2433072
 force_and_stress                       33.463244           6
 fftwav_mpi                             27.740491     1440282
 fftwav                                 25.840738     1440282
 set_charge                             22.773222         110
 strnlr                                 21.920617           6
 eccp                                   21.723576      197120
 soft_charge                            17.344453         110
 orth1                                  17.263208     1054242
 rpro_isp                               16.593067        2496
 fft3d                                  15.875473     2142342
 rpromu_acc                             14.212605      282422
 kinhamil                               11.307645      702060
 w1_copy                                10.374662     2106180
 racc0mu_acc                            10.263231      351030
 init_acc                               10.034832           1
 overl                                   9.955094     1207384
 fftext_mpi                              8.119408      702060
 m_bcast_z                               8.092015      356662
 fft3d_mpi                               8.077675      705676
 w1_projall                              7.585350      252470
 fornlr                                  7.260742           6
 setup_precond                           7.129162      197120
 m_bcast_d                               5.863759      702317
 ggemm                                   5.614130      449590
 overl_mu                                5.452667      351030
 setdij_                                 4.626674         273
 pw_charge                               4.446892      123458
 acc_init_cublas                         3.878577           1
 vhamil                                  3.213307      702060
 augmentation_charge                     2.819427         110
 apply_precond                           2.780573      504940
 depsum                                  2.552772         110
 set_dd_paw                              2.056740         122
 proall                                  1.677007           6
 fftbrc_mpi                              1.615258        3616
 fftbas_plan_mpi                         1.613284        3616
 rspher_all                              1.607190          79
 orthch                                  1.503771           6
 potlok                                  1.434357         116
 fft_gq                                  1.271064         110
 acc_init_cusolver                       1.128097           1
 brmix                                   0.732117         110
 map_backward                            0.708399        3820
 fordep                                  0.611481           6
 m_alltoallv_z                           0.444645        4068
 dfftw_execute                           0.418884        1350
 map_forward                             0.356280        3412
 lincom                                  0.329597        9344
 map_scatter                             0.319683        4068
 wavpre_noio                             0.318652           5
 sphpro_fast                             0.310787           7
 densta                                  0.285819         141
 broyd                                   0.262609         110
 map_gather                              0.249252        4068
 acc_cufft_makeplans                     0.244098           3
 acc_cufft_makeplan                      0.244087          19
 setg0                                   0.212637         122
 stufak                                  0.088137           6
 choleski                                0.086578         384
 truncate_high_frequency_w1              0.069943      899180
 brget                                   0.061602        7619
 forhar                                  0.024195          12
 strelo                                  0.020029           6
 strehar                                 0.015502           6
 brsav                                   0.015321        1901
 forloc                                  0.013063           6
 strkin                                  0.013024           6
 pothar                                  0.011690         122
 chggra                                  0.005681           6
 brpre                                   0.005102         220
 fewald                                  0.004657           6
 rsp                                     0.003070           6
 set_dd_magatom                          0.000502         122
 vectorpot                               0.000448         111
 brgrid                                  0.000360           1
 rcp                                     0.000157           6
 crpa_reader                             0.000031           1
 potlok_metagga                          0.000004         116
 redis_pw_over_bands                     0.000001           6
 rotate_active_occupied_orbital          0.000001           6

Profiling took   4.346011  2.228712  0.003208  0.003130 seconds
Profiling took   2.800623 seconds