 vasp.6.3.2 27Jun22 (build Jul  3 2023 11:46:21) complex
 executed on    LinuxNV_CrayMPICH date 2024.04.20  14:44:43

 INCAR:
   ALGO = Normal
   EDIFF = 0.0014
   EDIFFG = 0.007
   ENCUT = 520.0
   IBRION = 2
   ICHARG = 1
   ISIF = 3
   ISMEAR = -5
   ISPIN = 2
   ISTART = 1
   KPOINT_BSE = -1 0 0 0
   LORBIT = 11
   LREAL = Auto
   LWAVE = False
   MAGMOM = 4*7.0 24*0.6
   NELM = 1000
   NSW = 99
   POTIM = 0.125
   PREC = accurate
   SIGMA = 0.05

 POTCAR:    PAW_PBE Gd 23Dec2003
 POTCAR:    PAW_PBE Al 04Jan2001
 POTCAR:    PAW_PBE Rh_pv 25Jan2005
 POTCAR:    PAW_PBE Gd 23Dec2003
   VRHFIN =Gd : [core=Xe4]

   TITEL  = PAW_PBE Gd 23Dec2003
   POMASS =  157.250; ZVAL   =   18.000    mass and valenz
   ENMAX  =  256.472; ENMIN  =  192.354 eV

   TITEL  = PAW_PBE Al 04Jan2001
   POMASS =   26.981; ZVAL   =    3.000    mass and valenz
   ENMAX  =  240.300; ENMIN  =  180.225 eV

   TITEL  = PAW_PBE Rh_pv 25Jan2005
   POMASS =  102.906; ZVAL   =   15.000    mass and valenz
   ENMAX  =  247.408; ENMIN  =  185.556 eV

 Optimization of the real space projectors (new method)

 maximal supplied QI-value         = 13.42
 optimisation between [QCUT,QGAM] = [ 11.67, 23.35] = [ 38.16,152.62] Ry
 Optimized for a Real-space Cutoff    1.63 Angstroem

   l    n(q)    QCUT    max X(q) W(low)/X(q) W(high)/X(q)  e(spline)
   0     11    11.673    10.501    0.14E-04    0.17E-05    0.21E-07
   0     11    11.673     9.148    0.21E-04    0.32E-05    0.45E-07
   1     11    11.673     4.035    0.33E-05    0.11E-04    0.84E-07
   1     11    11.673     4.388    0.11E-04    0.47E-04    0.34E-06
   2     10    11.673    20.656    0.12E-04    0.28E-04    0.54E-06
   2     10    11.673    12.651    0.11E-04    0.26E-04    0.51E-06
   3     10    11.673    61.921    0.19E-03    0.22E-03    0.23E-06
   3     10    11.673    48.328    0.20E-03    0.23E-03    0.23E-06
 Optimization of the real space projectors (new method)

[...]

   l    n(q)    QCUT    max X(q) W(low)/X(q) W(high)/X(q)  e(spline)
   0      8    11.508   176.870    0.11E-03    0.16E-03    0.40E-07
   0      8    11.508   105.762    0.11E-03    0.16E-03    0.39E-07
   1      8    11.508    55.370    0.23E-03    0.10E-03    0.75E-07
   1      8    11.508    20.208    0.21E-03    0.91E-04    0.68E-07
 Optimization of the real space projectors (new method)

 maximal supplied QI-value         = 15.68
 optimisation between [QCUT,QGAM] = [ 11.61, 23.21] = [ 37.72,150.90] Ry
 Optimized for a Real-space Cutoff    1.45 Angstroem

   l    n(q)    QCUT    max X(q) W(low)/X(q) W(high)/X(q)  e(spline)
   1     10    11.607     3.143    0.27E-04    0.48E-04    0.10E-06
   1     10    11.607     5.034    0.71E-04    0.17E-03    0.32E-06
   2      9    11.607    64.180    0.22E-03    0.59E-04    0.28E-06
   2      9    11.607    61.342    0.22E-03    0.61E-04    0.29E-06
   0     10    11.607    55.593    0.52E-04    0.32E-04    0.17E-06
   0     10    11.607    26.178    0.47E-04    0.29E-04    0.15E-06
  PAW_PBE Gd 23Dec2003                  :
  PAW_PBE Al 04Jan2001                  :
  PAW_PBE Rh_pv 25Jan2005               :

 POSCAR: Gd4 Al18 Rh6
  positions in direct lattice
 exchange correlation table for  LEXCH =        8
   RHO(1)=    0.500       N(1)  =     2000
   RHO(2)=  100.500       N(2)  =     4000

 VTST: version 4.2, (08/11/21)

 CHAIN: initializing optimizer

 OPT: Using VASP Conjugate-Gradient optimizer
 CHAIN: Read ICHAIN             0

 POSCAR: Gd4 Al18 Rh6
  positions in direct lattice

 ion  position               nearest neighbor table
   1  0.673  0.669  0.250-   7 3.06  11 3.06  10 3.06  14 3.06  21 3.07   8 3.07   9 3.07   5 3.09
                            17 3.11  16 3.11  19 3.14  27 3.44  28 3.44  24 3.45  25 3.45
   2  0.327  0.331  0.750-   8 3.06   9 3.06  12 3.06  13 3.06  22 3.07  11 3.07   7 3.07   6 3.09
                            18 3.11  15 3.11  20 3.14  27 3.44  28 3.44  23 3.45  26 3.45
   3  0.327  0.996  0.250-  10 3.06  14 3.06  11 3.06   7 3.06  19 3.07  12 3.07  13 3.07   5 3.09
                            17 3.11  16 3.11  21 3.14  27 3.44  28 3.44  23 3.45  26 3.45
   4  0.673  0.004  0.750-  12 3.06  13 3.06   8 3.06   9 3.06  20 3.07  14 3.07  10 3.07   6 3.09
                            18 3.11  15 3.11  22 3.14  27 3.44  28 3.44  24 3.45  25 3.45
   5  0.000  0.126  0.250-  27 2.56  28 2.56  10 2.77  14 2.77  11 2.77   7 2.77  21 2.77  19 2.77
                             3 3.09   1 3.09  15 3.29  18 3.29
   6  0.000  0.874  0.750-  27 2.56  28 2.56  12 2.77  13 2.77   8 2.77   9 2.77  22 2.77  20 2.77
                             4 3.09   2 3.09  16 3.29  17 3.29
   7  0.333  0.334  0.073-  23 2.57  27 2.62  24 2.62   5 2.77  18 2.79  19 2.80   8 2.88  13 2.92
                             1 3.06   3 3.06   2 3.07
   8  0.667  0.666  0.927-  24 2.57  27 2.62  23 2.62   6 2.77  17 2.79  20 2.80   7 2.88  14 2.92
                             2 3.06   4 3.06   1 3.07
   9  0.667  0.666  0.573-  25 2.57  28 2.62  26 2.62   6 2.77  16 2.79  20 2.80  11 2.88  10 2.92
                             2 3.06   4 3.06   1 3.07
  10  0.667  0.002  0.427-  25 2.57  28 2.62  26 2.62   5 2.77  15 2.79  21 2.80  12 2.88   9 2.92
                             3 3.06   1 3.06   4 3.07
  11  0.333  0.334  0.427-  26 2.57  28 2.62  25 2.62   5 2.77  15 2.79  19 2.80   9 2.88  12 2.92
                             1 3.06   3 3.06   2 3.07
  12  0.333  0.998  0.573-  26 2.57  28 2.62  25 2.62   6 2.77  16 2.79  22 2.80  10 2.88  11 2.92
                             4 3.06   2 3.06   3 3.07
  13  0.333  0.998  0.927-  23 2.57  27 2.62  24 2.62   6 2.77  17 2.79  22 2.80  14 2.88   7 2.92
                             4 3.06   2 3.06   3 3.07
  14  0.667  0.002  0.073-  24 2.57  27 2.62  23 2.62   5 2.77  18 2.79  21 2.80  13 2.88   8 2.92
                             3 3.06   1 3.06   4 3.07
  15  0.000  0.334  0.553-  28 2.60  26 2.62  25 2.62  16 2.72  11 2.79  10 2.79  20 2.88  22 2.88
                             2 3.11   4 3.11   5 3.29  21 3.30  19 3.30
  16  0.000  0.666  0.447-  28 2.60  25 2.62  26 2.62  15 2.72   9 2.79  12 2.79  19 2.88  21 2.88
                             1 3.11   3 3.11   6 3.29  22 3.30  20 3.30
  17  0.000  0.666  0.053-  27 2.60  24 2.62  23 2.62  18 2.72   8 2.79  13 2.79  19 2.88  21 2.88
                             1 3.11   3 3.11   6 3.29  22 3.30  20 3.30
  18  0.000  0.334  0.947-  27 2.60  23 2.62  24 2.62  17 2.72   7 2.79  14 2.79  20 2.88  22 2.88
                             2 3.11   4 3.11   5 3.29  21 3.30  19 3.30
  19  0.210  0.547  0.250-  24 2.57  25 2.57  21 2.74   5 2.77  11 2.80   7 2.80  17 2.88  16 2.88
                             3 3.07   1 3.14  18 3.30  15 3.30
  20  0.790  0.453  0.750-  23 2.57  26 2.57  22 2.74   6 2.77   9 2.80   8 2.80  18 2.88  15 2.88
                             4 3.07   2 3.14  16 3.30  17 3.30
  21  0.790  0.337  0.250-  23 2.57  26 2.57  19 2.74   5 2.77  14 2.80  10 2.80  17 2.88  16 2.88
                             1 3.07   3 3.14  18 3.30  15 3.30
  22  0.210  0.663  0.750-  24 2.57  25 2.57  20 2.74   6 2.77  13 2.80  12 2.80  18 2.88  15 2.88
                             2 3.07   4 3.14  16 3.30  17 3.30
  23  0.657  0.328  0.000-   7 2.57  13 2.57  21 2.57  20 2.57  18 2.62  17 2.62   8 2.62  14 2.62
                             2 3.45   3 3.45
  24  0.343  0.672  0.000-   8 2.57  14 2.57  22 2.57  19 2.57  17 2.62  18 2.62   7 2.62  13 2.62
                             1 3.45   4 3.45
  25  0.343  0.672  0.500-   9 2.57  10 2.57  22 2.57  19 2.57  16 2.62  15 2.62  11 2.62  12 2.62
                             1 3.45   4 3.45
  26  0.657  0.328  0.500-  11 2.57  12 2.57  21 2.57  20 2.57  15 2.62  16 2.62   9 2.62  10 2.62
                             2 3.45   3 3.45
  27  0.000  0.000  0.000-   5 2.56   6 2.56  17 2.60  18 2.60  13 2.62  14 2.62   7 2.62   8 2.62
                             3 3.44   4 3.44   1 3.44   2 3.44
  28  0.000  0.000  0.500-   5 2.56   6 2.56  15 2.60  16 2.60  10 2.62  12 2.62  11 2.62   9 2.62
                             3 3.44   4 3.44   1 3.44   2 3.44

  LATTYP: Found a base centered orthorhombic cell.
 ALAT       =     7.6179628600
 B/A-ratio  =     1.7140752285
 C/A-ratio  =     1.2486247760

  Lattice vectors:

 A1 = (   6.5288807100,   3.8089819200,   0.0000000000)
 A2 = (  -6.5288807200,   3.8089809400,   0.0000000000)
 A3 = (   0.0000000000,   0.0000000000,   9.5119771700)

Analysis of symmetry for initial positions (statically):
 Subroutine PRICEL returns:
 Original cell was already a primitive cell.

 Routine SETGRP: Setting up the symmetry group for a
 base centered orthorhombic supercell.

 Subroutine GETGRP returns: Found  8 space group operations
 (whereof  4 operations were pure point group operations)
 out of a pool of  8 trial point group operations.

The static configuration has the point symmetry C_2h.
 The point group associated with its full space group is D_2h.

Analysis of symmetry for dynamics (positions and initial velocities):
 Subroutine PRICEL returns:
 Original cell was already a primitive cell.

[...]

The dynamic configuration has the point symmetry C_2h.
 The point group associated with its full space group is D_2h.

Analysis of structural, dynamic, and magnetic symmetry:
 Subroutine PRICEL returns:
 Original cell was already a primitive cell.

 Routine SETGRP: Setting up the symmetry group for a
 base centered orthorhombic supercell.

 Subroutine GETGRP returns: Found  8 space group operations
 (whereof  4 operations were pure point group operations)
 out of a pool of  8 trial point group operations.

The overall configuration has the point symmetry C_2h.
 The point group associated with its full space group is D_2h.

 Subroutine INISYM returns: Found  8 space group operations
 (whereof  4 operations are pure point group operations),
 and found     1 'primitive' translations

                                     Primitive cell

  volume of cell :     473.0950

  direct lattice vectors                    reciprocal lattice vectors
     6.528880720 -3.808980940  0.000000000     0.153165610  0.000000000 -0.000000000
    -0.000000010  7.617962860  0.000000000     0.076582795  0.131268689 -0.000000000
     0.000000000  0.000000000  9.511977170    -0.000000000 -0.000000000  0.105130614

  length of vectors
     7.558744556  7.617962860  9.511977170     0.153165610  0.151974976  0.105130614

  position of ions in fractional coordinates (direct lattice)
     0.673233970  0.668746570  0.250000000
     0.326766030  0.331253430  0.750000000
     0.326766030  0.995512600  0.250000000
     0.673233970  0.004487400  0.750000000
     1.000000000  0.125939610  0.250000000
     1.000000000  0.874060390  0.750000000
     0.332551840  0.334479340  0.073077210
     0.667448160  0.665520660  0.926922790
     0.667448160  0.665520660  0.573077210
     0.667448160  0.001927490  0.426922790
     0.332551840  0.334479340  0.426922790
     0.332551840  0.998072510  0.573077210
     0.332551840  0.998072510  0.926922790
     0.667448160  0.001927490  0.073077210
     1.000000000  0.334095270  0.553423360
     1.000000000  0.665904730  0.446576640
     1.000000000  0.665904730  0.053423360
[...]
  228                map_scatter                           0.003352                   48   7
  229        m_sumb_d                              0.000118                           20   3
  230        forhar                                0.015036                            8   3
  231          m_sumb_d                              0.000198                          8   4
  232        strehar                               0.009434                            4   3
  233          m_sumb_d                              0.000015                          4   4
  234        chggra                                0.003624                            4   3
  235          fft3d_mpi                             0.002246                         12   4
  236            fftbrc_mpi                            0.001813                       12   5
  237              fftbas_plan_mpi                       0.001804                     12   6
  238                map_forward                           0.000979                   16   7
  239                  map_gather                            0.000201                  8   8
  240                  m_alltoallv_z                         0.000112                  8   8
  241                  map_scatter                           0.000518                  8   8
  242                map_backward                          0.000475                    8   7
  243                  map_gather                            0.000112                  4   8
  244                  m_alltoallv_z                         0.000051                  4   8
  245                  map_scatter                           0.000251                  4   8
  246          m_sumb_d                              0.000036                          8   4
  247          pothar                                0.000345                          4   4
  248            m_sumb_d                              0.000032                        4   5
  249        brmix                                 0.018706                            4   3
  250          m_sumb_d                              0.000172                         24   4
  251          brpre                                 0.000188                          8   4
  252          setg0                                 0.007027                          4   4
  253          broyd                                 0.003329                          4   4
  254            m_sumb_d                              0.000423                       48   5
  255            brsav                                 0.000351                       41   5
  256            brget                                 0.001216                      136   5
  257        m_bcast_d                             0.000107                            8   3
  258      potlok                                0.032087                              4   2
  259        fft3d_mpi                             0.020351                          104   3
  260          fftbrc_mpi                            0.016281                        104   4
  261            fftbas_plan_mpi                       0.016235                      104   5
  262              map_forward                           0.007073                    112   6
  263                map_gather                            0.001534                   64   7
  264                m_alltoallv_z                         0.000806                   64   7
  265                map_scatter                           0.003855                   64   7
  266              map_backward                          0.005994                     96   6
  267                map_gather                            0.001341                   48   7
  268                m_alltoallv_z                         0.000607                   48   7
  269                map_scatter                           0.003276                   48   7
  270        m_sumb_d                              0.000110                           20   3
  271        pothar                                0.000380                            4   3
  272          m_sumb_d                              0.000035                          4   4
  273        m_bcast_d                             0.000097                            8   3
  274      potlok_metagga                        0.000001                              4   2
  275      set_dd_magatom                        0.000015                              4   2
  276      set_dd_paw                            0.090293                              4   2
  277        m_sumb_d                              0.001372                           28   3
  278      wavpre_noio                           0.136402                              3   2
  279        stufak                                0.063241                            3   3
  280      densta                                2.023978                              1   2

 Flat profile

 eddav                                  16.428701          28
 raccmu_                                15.464695       31637
 lapack                                 14.644551       31637
 init_acc                               11.723488           1
 total_time                              8.047468           1
 redis_pw                                7.723261      173822
 m_sumb_d                                6.578515       97353
 phaser                                  4.089212         864
 m_alltoall_d                            3.418898      472102
 acc_init_cublas                         3.395341           1
 densta                                  3.323261          29
 rpromu_acc                              2.703297       31445
 setdij_                                 1.929598         133
 fftwav                                  1.849397      151708
 eccp                                    1.814287       17024
 orth1                                   1.718290       95231
 rpro_isp                                1.651640         416
 fft3d                                   1.580794      214982
 redis_proj                              1.490168      220136
 rspher_all                              1.112488          53
 acc_init_cusolver                       1.092038           1
 hamiltmu                                0.961139       31637
 m_bcast_z                               0.949755       34069
 racc0mu_acc                             0.943519       31637
 w1_copy                                 0.937802      189822
 overl                                   0.923743      109588
 set_dd_paw                              0.712144          32
 soft_charge                             0.638569          24
 setup_precond                           0.630706       17024
 m_bcast_d                               0.504168       63347
 overl_mu                                0.500002       31637
 ggemm                                   0.498830       40149
 augmentation_charge                     0.401371          24
 set_charge                              0.361616          24
 pw_charge                               0.347556       10568
 acc_cufft_makeplan                      0.319252          19
 vhamil                                  0.292171       63274
 newband                                 0.290473       32085
 kinhamil                                0.284059       63274
 fftext_mpi                              0.272122       63274
 apply_precond                           0.255727       46250
 depsum                                  0.241626          24
 fftwav_mpi                              0.201148      151708
 m_alltoallv_z                           0.189134        1036
 elmin                                   0.185611           4
 proall                                  0.172254           4
 sphpro_fast                             0.171925           5
 potlok                                  0.164009          28
 fft3d_mpi                               0.099763       64206
 dfftw_execute                           0.094218         312
 orthch                                  0.091400           4
 stufak                                  0.084302           4
 map_scatter                             0.082891        1036
 force_and_stress                        0.077000           4
 wavpre_noio                             0.073161           3
 map_gather                              0.061487        1036
 brmix                                   0.046449          24
 setg0                                   0.041518          32
 fftbas_plan_mpi                         0.037818         932
 choleski                                0.023944          64
 w1_projall                              0.023157       23125
 lincom                                  0.019416         512
 forhar                                  0.014838           8
 strnlr                                  0.013953           4
 broyd                                   0.013457          24
 strelo                                  0.011814           4
 strehar                                 0.009419           4
 forloc                                  0.007529           4
 map_forward                             0.007150         896
 map_backward                            0.006560         968
 truncate_high_frequency_w1              0.006551       80298
 strkin                                  0.005341           4
 brget                                   0.004948         577
 fornlr                                  0.004745           4
 inisym                                  0.004559           1
 rsp                                     0.003495           4
 fft_gq                                  0.003314          24
 pothar                                  0.002746          32
 brsav                                   0.001698         199
 brpre                                   0.001131          48
 chggra                                  0.000997           4
 fftbrc_mpi                              0.000490         932
 fewald                                  0.000391           4
 fordep                                  0.000355           4
 brgrid                                  0.000300           1
 rcp                                     0.000164           4
 set_dd_magatom                          0.000132          32
 vectorpot                               0.000103          25
 posmap                                  0.000054           2
 crpa_reader                             0.000025           1
 acc_cufft_makeplans                     0.000009           3
 potlok_metagga                          0.000003          28
 redis_pw_over_bands                     0.000001           4
 rotate_active_occupied_orbital          0.000001           4
  summed up times     125.1126151084900

 Accumulative profile

 total_time                            125.112615           1
 elmin                                  86.819060           4
 eddav                                  81.628352          28
 hamiltmu                               19.188140       31637
 raccmu_                                16.908217       31637
 lapack                                 14.644551       31637
 init_acc                               11.723488           1
 force_and_stress                        9.687217           4
 redis_pw                                9.362367      173822
 m_sumb_d                                6.578515       97353
 strnlr                                  5.581577           4
 rpro_isp                                4.655299         416
 newband                                 4.099526       32085
 phaser                                  4.089212         864
 m_alltoall_d                            3.418898      472102
 acc_init_cublas                         3.395341           1
 densta                                  3.323261          29
 redis_proj                              3.269961      220136
 fftwav_mpi                              3.179305      151708
 fftwav                                  2.978157      151708
 set_charge                              2.743371          24
 rpromu_acc                              2.703297       31445
 setdij_                                 1.976947         133
 fornlr                                  1.860070           4
 eccp                                    1.814287       17024
 orth1                                   1.718290       95231
 fft3d                                   1.580794      214982
 soft_charge                             1.508614          24
 rspher_all                              1.112488          53
 acc_init_cusolver                       1.092038           1
 fft3d_mpi                               1.031545       64206
 kinhamil                                1.026613       63274
 m_bcast_z                               0.949755       34069
 racc0mu_acc                             0.943519       31637
 w1_copy                                 0.937802      189822
 overl                                   0.923743      109588
 fftext_mpi                              0.742553       63274
 set_dd_paw                              0.726517          32
 w1_projall                              0.708936       23125
 setup_precond                           0.630706       17024
 orthch                                  0.588334           4
 augmentation_charge                     0.563397          24
 m_bcast_d                               0.504168       63347
 overl_mu                                0.500002       31637
 ggemm                                   0.498830       40149
 fftbrc_mpi                              0.479748         932
 fftbas_plan_mpi                         0.479258         932
 proall                                  0.448503           4
 potlok                                  0.438888          28
 fordep                                  0.359713           4
 pw_charge                               0.347556       10568
 acc_cufft_makeplans                     0.319261           3
 acc_cufft_makeplan                      0.319252          19
 vhamil                                  0.292171       63274
 apply_precond                           0.255727       46250
 depsum                                  0.248985          24
 map_forward                             0.194895         896
 m_alltoallv_z                           0.189134        1036
 sphpro_fast                             0.178480           5
 map_backward                            0.152327         968
 wavpre_noio                             0.136402           3
 brmix                                   0.112669          24
 dfftw_execute                           0.094218         312
 stufak                                  0.084302           4
 map_scatter                             0.082891        1036
 fft_gq                                  0.079202          24
 map_gather                              0.061487        1036
 setg0                                   0.041518          32
 choleski                                0.023944          64
 broyd                                   0.022130          24
 lincom                                  0.019416         512
 forhar                                  0.015036           8
 strelo                                  0.012875           4
 strehar                                 0.009434           4
 forloc                                  0.007641           4
 truncate_high_frequency_w1              0.006551       80298
 strkin                                  0.005368           4
 brget                                   0.004948         577
 fewald                                  0.004715           4
 inisym                                  0.004613           1
 chggra                                  0.003624           4
 rsp                                     0.003495           4
 pothar                                  0.003070          32
 brsav                                   0.001698         199
 brpre                                   0.001131          48
 brgrid                                  0.000300           1
 rcp                                     0.000164           4
 set_dd_magatom                          0.000132          32
 vectorpot                               0.000103          25
 posmap                                  0.000054           2
 crpa_reader                             0.000025           1
 potlok_metagga                          0.000003          28
 redis_pw_over_bands                     0.000001           4
 rotate_active_occupied_orbital          0.000001           4

Profiling took   0.422765  0.202614  0.003176  0.003108 seconds
Profiling took   0.267441 seconds