 vasp.6.3.2 27Jun22 (build Jul  3 2023 11:46:21) complex
 executed on    LinuxNV_CrayMPICH date 2024.04.22  02:54:24

 INCAR:
   ADDGRID = True
   ALGO = Normal
   AMIX_MAG = 0.8
   BMIX = 0.001
   BMIX_MAG = 0.001
   EDIFF = 0.0005
   ENCUT = 520.0
   IBRION = -1
   ICHARG = 0
   ISIF = 3
   ISMEAR = -5
   ISPIN = 2
   ISTART = 1
   ISYM = 0
   LAECHG = True
   LASPH = True
   LCHARG = True
   LORBIT = 11
   LREAL = Auto
   LVHAR = True
   LWAVE = False
   MAGMOM = 2*7.0 2*0.003 4*0.0 2*0.013
   NELM = 1000
   NELMDL = -6
   NSW = 0
   PREC = Accurate
   SIGMA = 0.05

 POTCAR:    PAW_PBE Eu 23Dec2003
 POTCAR:    PAW_PBE Ge_d 03Jul2007
 POTCAR:    PAW_PBE Pt 04Feb2005
 POTCAR:    PAW_PBE Eu 23Dec2003
   VRHFIN =Eu : [core=Kr4d]

   TITEL  = PAW_PBE Eu 23Dec2003
   POMASS =  151.965; ZVAL   =   17.000    mass and valenz
   ENMAX  =  249.668; ENMIN  =  187.251 eV

   TITEL  = PAW_PBE Ge_d 03Jul2007
   POMASS =   72.610; ZVAL   =   14.000    mass and valenz
   ENMAX  =  310.294; ENMIN  =  232.720 eV

   TITEL  = PAW_PBE Pt 04Feb2005
   POMASS =  195.080; ZVAL   =   10.000    mass and valenz
   ENMAX  =  230.283; ENMIN  =  172.712 eV

 Optimization of the real space projectors (new method)

 maximal supplied QI-value         = 13.42
 optimisation between [QCUT,QGAM] = [ 11.67, 23.35] = [ 38.16,152.62] Ry
 Optimized for a Real-space Cutoff    1.63 Angstroem

   l    n(q)    QCUT    max X(q) W(low)/X(q) W(high)/X(q)  e(spline)
   0     11    11.673    10.400    0.14E-04    0.18E-05    0.24E-07
   0     11    11.673    10.768    0.21E-04    0.32E-05    0.49E-07
   1     11    11.673     4.094    0.40E-05    0.13E-04    0.93E-07
   1     11    11.673     4.009    0.11E-04    0.46E-04    0.33E-06
   2     10    11.673    29.030    0.79E-04    0.60E-04    0.70E-06
   2     10    11.673    19.941    0.80E-04    0.60E-04    0.71E-06
   3     10    11.673    88.889    0.23E-03    0.29E-03    0.30E-06
   3     10    11.673    76.102    0.23E-03    0.30E-03    0.30E-06
 Optimization of the real space projectors (new method)

[...]

   l    n(q)    QCUT    max X(q) W(low)/X(q) W(high)/X(q)  e(spline)
   2     10    11.539     8.936    0.13E-03    0.18E-03    0.23E-06
   2     10    11.539     8.183    0.16E-03    0.22E-03    0.28E-06
   0     11    11.539    62.777    0.61E-04    0.20E-04    0.15E-06
   0     11    11.539    50.556    0.58E-04    0.19E-04    0.14E-06
   1     10    11.539    38.422    0.20E-04    0.75E-05    0.16E-06
   1     10    11.539    22.623    0.19E-04    0.69E-05    0.15E-06
 Optimization of the real space projectors (new method)

 maximal supplied QI-value         = 14.36
 optimisation between [QCUT,QGAM] = [ 11.63, 23.27] = [ 37.90,151.59] Ry
 Optimized for a Real-space Cutoff    1.49 Angstroem

   l    n(q)    QCUT    max X(q) W(low)/X(q) W(high)/X(q)  e(spline)
   2      9    11.633    66.195    0.24E-03    0.97E-04    0.19E-06
   2      9    11.633    64.643    0.25E-03    0.98E-04    0.20E-06
   0     10    11.633    95.520    0.71E-04    0.29E-04    0.12E-06
   0     10    11.633    63.403    0.69E-04    0.28E-04    0.12E-06
   1     10    11.633    19.961    0.61E-04    0.16E-03    0.11E-06
   1     10    11.633    13.289    0.50E-04    0.13E-03    0.90E-07
  PAW_PBE Eu 23Dec2003                  :
  PAW_PBE Ge_d 03Jul2007                :
  PAW_PBE Pt 04Feb2005                  :

 POSCAR: Eu2 Ge4 Pt4
  positions in direct lattice
 exchange correlation table for  LEXCH =        8
   RHO(1)=    0.500       N(1)  =     2000
   RHO(2)=  100.500       N(2)  =     4000

 VTST: version 4.2, (08/11/21)

 CHAIN: initializing optimizer

 OPT: Using VASP Dynamics algorithm
 CHAIN: Read ICHAIN             0

 POSCAR: Eu2 Ge4 Pt4
  positions in direct lattice

 ion  position               nearest neighbor table
   1  0.750  0.748  0.253-   8 3.33   8 3.33   8 3.34   8 3.34   9 3.36  10 3.38  10 3.38   9 3.43

   2  0.250  0.252  0.747-   7 3.33   7 3.33   7 3.34   7 3.34  10 3.36   9 3.38   9 3.38  10 3.43

   3  0.750  0.761  0.871-   7 2.49   9 2.54  10 2.56  10 2.56   9 2.57
   4  0.250  0.239  0.129-   8 2.49  10 2.54   9 2.56   9 2.56  10 2.57
   5  0.750  0.254  0.500-   8 2.54   8 2.54   7 2.55   7 2.56
   6  0.250  0.746  0.500-   7 2.54   7 2.54   8 2.55   8 2.56
   7  0.750  0.752  0.627-   3 2.49   6 2.54   6 2.54   5 2.55   5 2.56   2 3.33   2 3.33   2 3.34
                             2 3.34
   8  0.250  0.248  0.373-   4 2.49   5 2.54   5 2.54   6 2.55   6 2.56   1 3.33   1 3.33   1 3.34
                             1 3.34
   9  0.750  0.263  0.999-   3 2.54   4 2.56   4 2.56   3 2.57  10 3.02  10 3.02  10 3.19  10 3.19
                             1 3.36   2 3.38   2 3.38   1 3.43
  10  0.250  0.737  0.001-   4 2.54   3 2.56   3 2.56   4 2.57   9 3.02   9 3.02   9 3.19   9 3.19
                             2 3.36   1 3.38   1 3.38   2 3.43

IMPORTANT INFORMATION: All symmetrisations will be switched off!
NOSYMM: (Re-)initialisation of all symmetry stuff for point group C_1.

                                     Primitive cell

  volume of cell :     196.4800

  direct lattice vectors                    reciprocal lattice vectors
     4.377945000  0.000000000  0.000000000     0.228417671  0.000000000  0.000000000
     0.000000000  4.399545000  0.000000000     0.000000000  0.227296232 -0.001560557
     0.000000000  0.070037000 10.200941000     0.000000000  0.000000000  0.098030172

  length of vectors
     4.377945000  4.399545000 10.201181425     0.228417671  0.227301589  0.098030172

  position of ions in fractional coordinates (direct lattice)
     0.750000000  0.747737000  0.252866000
     0.250000000  0.252263000  0.747134000
     0.750000000  0.761266000  0.871379000
     0.250000000  0.238734000  0.128621000
     0.750000000  0.254202000  0.499760000
     0.250000000  0.745798000  0.500240000
     0.750000000  0.752447000  0.627052000
     0.250000000  0.247553000  0.372948000
     0.750000000  0.262980000  0.999207000
     0.250000000  0.737020000  0.000793000

  ion indices of the primitive-cell ions
   primitive index   ion index
                 1           1
                 2           2
                 3           3
                 4           4
                 5           5
                 6           6
                 7           7
                 8           8
                 9           9
                10          10

 KPOINTS: Kpoints from vasprun.xml

Automatic generation of k-mesh.
 Grid dimensions read from file:
 generate k-points for:    6    6    2

 Generating k-lattice:

  Cartesian coordinates                     Fractional coordinates (reciprocal lattice)
     0.038069612  0.000000000  0.000000000     0.166666667  0.000000000  0.000000000
     0.000000000  0.037882705 -0.000260093     0.000000000  0.166666667 -0.000000000
     0.000000000  0.000000000  0.049015086     0.000000000  0.000000000  0.500000000

  Length of vectors
     0.038069612  0.037883598  0.049015086

  Shift w.r.t. Gamma in fractional coordinates (k-lattice)
     0.500000000  0.500000000  0.500000000

 TETIRR: Found    216 inequivalent tetrahedra from      432

 Subroutine IBZKPT returns following result:

 Found     36 irreducible k-points:

 Following reciprocal coordinates:
            Coordinates               Weight
  0.083333  0.083333  0.250000      2.000000
  0.083333 -0.083333 -0.250000      2.000000
  0.250000  0.083333  0.250000      2.000000
  0.250000 -0.083333 -0.250000      2.000000
  0.416667  0.083333  0.250000      2.000000
  0.416667 -0.083333 -0.250000      2.000000
  0.083333  0.250000  0.250000      2.000000
  0.083333 -0.250000 -0.250000      2.000000
  0.250000  0.250000  0.250000      2.000000
  0.250000 -0.250000 -0.250000      2.000000
  0.416667  0.250000  0.250000      2.000000
  0.416667 -0.250000 -0.250000      2.000000
  0.083333  0.416667  0.250000      2.000000
  0.083333 -0.416667 -0.250000      2.000000
  0.250000  0.416667  0.250000      2.000000
  0.250000 -0.416667 -0.250000      2.000000
  0.416667  0.416667  0.250000      2.000000
  0.416667 -0.416667 -0.250000      2.000000
  0.083333 -0.416667  0.250000      2.000000
  0.083333  0.416667 -0.250000      2.000000
  0.250000 -0.416667  0.250000      2.000000
  0.250000  0.416667 -0.250000      2.000000
  0.416667 -0.416667  0.250000      2.000000
  0.416667  0.416667 -0.250000      2.000000
  0.083333 -0.250000  0.250000      2.000000
  0.083333  0.250000 -0.250000      2.000000
  0.250000 -0.250000  0.250000      2.000000
  0.250000  0.250000 -0.250000      2.000000
  0.416667 -0.250000  0.250000      2.000000
  0.416667  0.250000 -0.250000      2.000000
  0.083333 -0.083333  0.250000      2.000000
  0.083333  0.083333 -0.250000      2.000000
  0.250000 -0.083333  0.250000      2.000000
  0.250000  0.083333 -0.250000      2.000000
  0.416667 -0.083333  0.250000      2.000000
  0.416667  0.083333 -0.250000      2.000000

 Following cartesian coordinates:
            Coordinates               Weight
  0.019035  0.018941  0.024377      2.000000
  0.019035 -0.018941 -0.024377      2.000000
  0.057104  0.018941  0.024377      2.000000
  0.057104 -0.018941 -0.024377      2.000000
  0.095174  0.018941  0.024377      2.000000
  0.095174 -0.018941 -0.024377      2.000000
  0.019035  0.056824  0.024117      2.000000
  0.019035 -0.056824 -0.024117      2.000000
  0.057104  0.056824  0.024117      2.000000
  0.057104 -0.056824 -0.024117      2.000000
  0.095174  0.056824  0.024117      2.000000
  0.095174 -0.056824 -0.024117      2.000000
  0.019035  0.094707  0.023857      2.000000
  0.019035 -0.094707 -0.023857      2.000000
  0.057104  0.094707  0.023857      2.000000
  0.057104 -0.094707 -0.023857      2.000000
  0.095174  0.094707  0.023857      2.000000
  0.095174 -0.094707 -0.023857      2.000000
  0.019035 -0.094707  0.025158      2.000000
  0.019035  0.094707 -0.025158      2.000000
  0.057104 -0.094707  0.025158      2.000000
  0.057104  0.094707 -0.025158      2.000000
  0.095174 -0.094707  0.025158      2.000000
  0.095174  0.094707 -0.025158      2.000000
  0.019035 -0.056824  0.024898      2.000000
  0.019035  0.056824 -0.024898      2.000000
  0.057104 -0.056824  0.024898      2.000000
  0.057104  0.056824 -0.024898      2.000000
  0.095174 -0.056824  0.024898      2.000000
  0.095174  0.056824 -0.024898      2.000000
  0.019035 -0.018941  0.024638      2.000000
  0.019035  0.018941 -0.024638      2.000000
  0.057104 -0.018941  0.024638      2.000000
  0.057104  0.018941 -0.024638      2.000000
  0.095174 -0.018941  0.024638      2.000000
  0.095174  0.018941 -0.024638      2.000000

 SYSTEM =  unknown system
 POSCAR =  Eu2 Ge4 Pt4

 Startparameter for this run:
   NWRITE =      2    write-flag & timer
   PREC   = accura    normal or accurate (medium, high low for compatibility)
   ISTART =      0    job   : 0-new  1-cont  2-samecut
   ICHARG =      2    charge: 1-file 2-atom 10-const
   ISPIN  =      2    spin polarized calculation?
   LNONCOLLINEAR =      F non collinear calculations
   LSORBIT =      F    spin-orbit coupling
   INIWAV =      1    electr: 0-lowe 1-rand  2-diag
   LASPH  =      T    aspherical Exc in radial PAW
 Electronic Relaxation 1
[...]
  280        strehar                               0.001164                            1   3
  281          m_sumb_d                              0.000003                          1   4
  282        chggra                                0.000808                            1   3
  283          fft3d_mpi                             0.000483                          3   4
  284            fftbrc_mpi                            0.000386                        3   5
  285              fftbas_plan_mpi                       0.000384                      3   6
  286                map_forward                           0.000184                    4   7
  287                  map_gather                            0.000042                  2   8
  288                  m_alltoallv_z                         0.000027                  2   8
  289                  map_scatter                           0.000086                  2   8
  290                map_backward                          0.000081                    2   7
  291                  map_gather                            0.000020                  1   8
  292                  m_alltoallv_z                         0.000013                  1   8
  293                  map_scatter                           0.000033                  1   8
  294          m_sumb_d                              0.000009                          2   4
  295          pothar                                0.000081                          1   4
  296            m_sumb_d                              0.000012                        1   5
  297        brmix                                 0.004087                            1   3
  298          m_sumb_d                              0.000024                          6   4
  299          brpre                                 0.000020                          2   4
  300          setg0                                 0.000728                          1   4
  301          broyd                                 0.002487                          1   4
  302            m_sumb_d                              0.000107                       35   5
  303            brget                                 0.000607                      149   5
  304            brsav                                 0.000140                       33   5
  305        m_bcast_d                             0.000018                            2   3
  306      potlok                                0.027589                              2   2
  307        fft3d_mpi                             0.017867                           36   3
  308          fftbrc_mpi                            0.014725                         36   4
  309            fftbas_plan_mpi                       0.014709                       36   5
  310              map_forward                           0.004217                     40   6
  311                map_gather                            0.001428                   24   7
  312                m_alltoallv_z                         0.001443                   24   7
  313                map_scatter                           0.001162                   24   7
  314              map_backward                          0.003640                     32   6
  315                map_gather                            0.001178                   16   7
  316                m_alltoallv_z                         0.001140                   16   7
  317                map_scatter                           0.001150                   16   7
  318              dfftw_execute                         0.005201                     30   6
  319        m_sumb_d                              0.000026                            5   3
  320        pothar                                0.001168                            2   3
  321          m_sumb_d                              0.000081                          2   4
  322        m_bcast_d                             0.001730                            4   3
  323      potlok_metagga                        0.000000                              1   2
  324      set_dd_magatom                        0.000004                              1   2
  325      set_dd_paw                            1.972837                              1   2
  326        m_sumb_d                              0.935835                            7   3
  327      augmentation_charge                   0.109402                              1   2
  328        fft3d_mpi                             0.031068                            2   3
  329          fftbrc_mpi                            0.028159                          2   4
  330            fftbas_plan_mpi                       0.028155                        2   5
  331              dfftw_execute                         0.019581                      6   6
  332              map_backward                          0.008289                      4   6
  333                map_gather                            0.001934                    2   7
  334                m_alltoallv_z                         0.004036                    2   7
  335                map_scatter                           0.002311                    2   7
  336      densta                                5.209116                              1   2

 Flat profile

 m_sumb_d                               63.043162      321293
 eddav                                  51.131082          34
 lapack                                 49.257971      105132
 raccmu_                                44.710379      105132
 set_dd_paw                             32.002389          31
 redis_pw                               22.033147      581976
 init_acc                               11.405081           1
 total_time                             10.943908           1
 m_alltoall_d                           10.775059     1533624
 densta                                 10.258961          35
 phaser                                  7.632673        2916
 eccp                                    5.038542       53856
 redis_proj                              4.820190      738456
 fft3d                                   4.682572      633048
 setdij_                                 4.216751          57
 fftwav                                  4.064370      422784
 orth1                                   3.480248      315612
 rpromu_acc                              3.314557       83820
 racc0mu_acc                             3.029246      105132
 w1_copy                                 3.025998      630792
 overl                                   3.010092      366744
 m_bcast_z                               2.540014      111468
 acc_init_cublas                         2.455979           1
 hamiltmu                                2.373324      105132
 augmentation_charge                     2.358157          30
 soft_charge                             2.091807          29
 dfftw_execute                           2.088008        1116
 setup_precond                           1.929708       53856
 m_bcast_d                               1.773280      210331
 overl_mu                                1.594522      105132
 ggemm                                   1.397896      132060
 rpro_isp                                1.060293         468
 vhamil                                  0.963184      210264
 kinhamil                                0.963173      210264
 pw_charge                               0.944358       35520
 fftext_mpi                              0.875042      210264
 newband                                 0.851517      107580
 apply_precond                           0.847892      156408
 acc_init_cusolver                       0.789440           1
 depsum                                  0.752335          29
 m_alltoallv_z                           0.602809        1297
 fftwav_mpi                              0.552189      422784
 fft3d_mpi                               0.365187      211441
 map_scatter                             0.315641        1297
 acc_cufft_makeplan                      0.260258          19
 map_gather                              0.242342        1297
 rspher_all                              0.188452          14
 sphpro_fast                             0.170602           2
 potlok                                  0.115920          31
 elmin                                   0.088794           1
 lincom                                  0.086732        2520
 fftbas_plan_mpi                         0.082290        1177
 w1_projall                              0.077085       78204
 proall                                  0.065588           1
 broyd                                   0.044495          29
 orthch                                  0.033115           1
 brmix                                   0.025455          29
 choleski                                0.024295          72
 truncate_high_frequency_w1              0.022321      264120
 setg0                                   0.021332          31
 force_and_stress                        0.017159           1
 strnlr                                  0.010084           1
 brget                                   0.009104        2285
 set_charge                              0.007005          29
 map_backward                            0.006184        1230
 map_forward                             0.005790        1124
 stufak                                  0.004426           1
 fornlr                                  0.004112           1
 pothar                                  0.003288          32
 brsav                                   0.002240         556
 forhar                                  0.001592           2
 fft_gq                                  0.001574          29
 strelo                                  0.001563           1
 strehar                                 0.001161           1
 strkin                                  0.001021           1
 forloc                                  0.000859           1
 fftbrc_mpi                              0.000732        1177
 brpre                                   0.000681          58
 fewald                                  0.000372           1
 chggra                                  0.000235           1
 rsp                                     0.000168           1
 brgrid                                  0.000156           1
 set_dd_magatom                          0.000140          31
 vectorpot                               0.000127          30
 fordep                                  0.000084           1
 crpa_reader                             0.000029           1
 rcp                                     0.000020           1
 acc_cufft_makeplans                     0.000012           3
 potlok_metagga                          0.000005          30
 rotate_active_occupied_orbital          0.000001           1
 redis_pw_over_bands                     0.000000           1
  summed up times     383.9911329746246

 Accumulative profile

 total_time                            383.991133           1
 elmin                                 339.985074           1
 eddav                                 266.205203          34
 m_sumb_d                               63.043162      321293
 set_dd_paw                             60.876817          31
 hamiltmu                               56.067058      105132
 raccmu_                                49.334147      105132
 lapack                                 49.257971      105132
 redis_pw                               27.294251      581976
 newband                                11.942277      107580
 init_acc                               11.405081           1
 m_alltoall_d                           10.775059     1533624
 redis_proj                             10.334145      738456
 densta                                 10.258961          35
 force_and_stress                        9.178745           1
 set_charge                              8.195600          29
 fftwav_mpi                              7.803039      422784
 phaser                                  7.632673        2916
 fftwav                                  7.250850      422784
 setdij_                                 6.394771          57
 fft3d_mpi                               5.205075      211441
 eccp                                    5.038542       53856
 fft3d                                   4.682572      633048
 soft_charge                             4.214410          29
 orth1                                   3.480248      315612
 kinhamil                                3.396402      210264
 fftbrc_mpi                              3.343795        1177
 fftbas_plan_mpi                         3.343063        1177
 augmentation_charge                     3.327306          30
 rpromu_acc                              3.314557       83820
 racc0mu_acc                             3.029246      105132
 w1_copy                                 3.025998      630792
 overl                                   3.010092      366744
 strnlr                                  2.993692           1
 rpro_isp                                2.743956         468
 m_bcast_z                               2.540014      111468
 acc_init_cublas                         2.455979           1
 fftext_mpi                              2.433229      210264
 w1_projall                              2.319487       78204
 dfftw_execute                           2.088008        1116
 setup_precond                           1.929708       53856
 m_bcast_d                               1.773280      210331
 overl_mu                                1.594522      105132
 ggemm                                   1.397896      132060
 fornlr                                  0.998959           1
 vhamil                                  0.963184      210264
 pw_charge                               0.944358       35520
 apply_precond                           0.847892      156408
 acc_init_cusolver                       0.789440           1
 depsum                                  0.756280          29
 map_forward                             0.710804        1124
 fordep                                  0.672945           1
 m_alltoallv_z                           0.602809        1297
 map_backward                            0.461961        1230
 orthch                                  0.450878           1
 potlok                                  0.446946          31
 map_scatter                             0.315641        1297
 acc_cufft_makeplans                     0.260270           3
 acc_cufft_makeplan                      0.260258          19
 map_gather                              0.242342        1297
 proall                                  0.240635           1
 rspher_all                              0.188452          14
 sphpro_fast                             0.177854           2
 brmix                                   0.106319          29
 lincom                                  0.086732        2520
 broyd                                   0.057874          29
 fft_gq                                  0.043141          29
 choleski                                0.024295          72
 truncate_high_frequency_w1              0.022321      264120
 setg0                                   0.021332          31
 brget                                   0.009104        2285
 stufak                                  0.004426           1
 pothar                                  0.003664          32
 brsav                                   0.002240         556
 strelo                                  0.001638           1
 forhar                                  0.001609           2
 strehar                                 0.001164           1
 strkin                                  0.001036           1
 fewald                                  0.000991           1
 forloc                                  0.000873           1
 chggra                                  0.000808           1
 brpre                                   0.000681          58
 rsp                                     0.000168           1
 brgrid                                  0.000156           1
 set_dd_magatom                          0.000140          31
 vectorpot                               0.000127          30
 crpa_reader                             0.000029           1
 rcp                                     0.000020           1
 potlok_metagga                          0.000005          30
 rotate_active_occupied_orbital          0.000001           1
 redis_pw_over_bands                     0.000000           1

Profiling took   1.294348  0.647276  0.003240  0.003143 seconds
Profiling took   0.823259 seconds