 vasp.6.3.2 27Jun22 (build Jul  3 2023 11:46:21) complex
 executed on    LinuxNV_CrayMPICH date 2024.04.22  03:44:26

 INCAR:
   ADDGRID = True
   ALGO = Normal
   EDIFF = 0.0008
   ENCUT = 520.0
   IBRION = -1
   ICHARG = 0
   ISIF = 3
   ISMEAR = -5
   ISPIN = 2
   KPOINT_BSE = -1 0 0 0
   LAECHG = True
   LASPH = True
   LCHARG = True
   LELF = True
   LORBIT = 11
   LREAL = Auto
   LVHAR = True
   LWAVE = False
   MAGMOM = 4*7.0 12*0.6
   NELM = 1000
   NSW = 0
   PREC = accurate
   SIGMA = 0.05

 POTCAR:    PAW_PBE Eu 23Dec2003
 POTCAR:    PAW_PBE F 08Apr2002
 POTCAR:    PAW_PBE Eu 23Dec2003
   VRHFIN =Eu : [core=Kr4d]

   TITEL  = PAW_PBE Eu 23Dec2003
   POMASS =  151.965; ZVAL   =   17.000    mass and valenz
   ENMAX  =  249.668; ENMIN  =  187.251 eV

   TITEL  = PAW_PBE F 08Apr2002
   POMASS =   18.998; ZVAL   =    7.000    mass and valenz
   ENMAX  =  400.000; ENMIN  =  300.000 eV

 Optimization of the real space projectors (new method)

 maximal supplied QI-value         = 13.42
 optimisation between [QCUT,QGAM] = [ 11.67, 23.35] = [ 38.16,152.62] Ry
 Optimized for a Real-space Cutoff    1.63 Angstroem

   l    n(q)    QCUT    max X(q) W(low)/X(q) W(high)/X(q)  e(spline)
   0     11    11.673    10.400    0.14E-04    0.18E-05    0.24E-07
   0     11    11.673    10.768    0.21E-04    0.32E-05    0.49E-07
   1     11    11.673     4.094    0.40E-05    0.13E-04    0.93E-07
   1     11    11.673     4.009    0.11E-04    0.46E-04    0.33E-06
   2     10    11.673    29.030    0.79E-04    0.60E-04    0.70E-06
   2     10    11.673    19.941    0.80E-04    0.60E-04    0.71E-06
   3     10    11.673    88.889    0.23E-03    0.29E-03    0.30E-06
   3     10    11.673    76.102    0.23E-03    0.30E-03    0.30E-06
 Optimization of the real space projectors (new method)

 maximal supplied QI-value         = 24.76
 optimisation between [QCUT,QGAM] = [ 11.64, 23.27] = [ 37.91,151.63] Ry
 Optimized for a Real-space Cutoff    1.04 Angstroem

   l    n(q)    QCUT    max X(q) W(low)/X(q) W(high)/X(q)  e(spline)
   0      7    11.635    14.049    0.77E-04    0.36E-03    0.13E-06
   0      7    11.635     8.945    0.12E-03    0.48E-03    0.17E-06
   1      7    11.635     7.086    0.24E-03    0.44E-03    0.21E-06
   1      7    11.635     6.747    0.23E-03    0.35E-03    0.19E-06
  PAW_PBE Eu 23Dec2003                  :
  PAW_PBE F 08Apr2002                   :

 POSCAR: Eu4 F12
  positions in direct lattice
 exchange correlation table for  LEXCH =        8
   RHO(1)=    0.500       N(1)  =     2000
   RHO(2)=  100.500       N(2)  =     4000

 VTST: version 4.2, (08/11/21)

 CHAIN: initializing optimizer

 OPT: Using VASP Dynamics algorithm
 CHAIN: Read ICHAIN             0

 POSCAR: Eu4 F12
  positions in direct lattice

 ion  position               nearest neighbor table
   1  0.943  0.634  0.750-  12 2.38   7 2.38  15 2.38  10 2.39  14 2.40   6 2.40   8 2.40  16 2.40
                            12 2.55
   2  0.443  0.866  0.250-  11 2.38   8 2.38  16 2.38   9 2.39  13 2.40   5 2.40  15 2.40   7 2.40
                            11 2.55
   3  0.557  0.134  0.750-  10 2.38   5 2.38  13 2.38  12 2.39   8 2.40  16 2.40  14 2.40   6 2.40
                            10 2.55
   4  0.057  0.366  0.250-   9 2.38   6 2.38  14 2.38  11 2.39   7 2.40  15 2.40   5 2.40  13 2.40
                             9 2.55
   5  0.391  0.165  0.434-   3 2.38   2 2.40   4 2.40
   6  0.891  0.335  0.566-   4 2.38   1 2.40   3 2.40
   7  0.109  0.665  0.066-   1 2.38   4 2.40   2 2.40
   8  0.609  0.835  0.934-   2 2.38   3 2.40   1 2.40
   9  0.578  0.520  0.250-   4 2.38   2 2.39   4 2.55
  10  0.078  0.980  0.750-   3 2.38   1 2.39   3 2.55
  11  0.922  0.020  0.250-   2 2.38   4 2.39   2 2.55
  12  0.422  0.480  0.750-   1 2.38   3 2.39   1 2.55
  13  0.391  0.165  0.066-   3 2.38   2 2.40   4 2.40
  14  0.891  0.335  0.934-   4 2.38   1 2.40   3 2.40
  15  0.109  0.665  0.434-   1 2.38   4 2.40   2 2.40
  16  0.609  0.835  0.566-   2 2.38   3 2.40   1 2.40

  LATTYP: Found a simple orthorhombic cell.
 ALAT       =     4.4696580000
 B/A-ratio  =     1.4952884538
 C/A-ratio  =     1.5941242037

  Lattice vectors:

 A1 = (   4.4696580000,   0.0000000000,   0.0000000000)
 A2 = (   0.0000000000,   6.6834280000,   0.0000000000)
 A3 = (   0.0000000000,   0.0000000000,   7.1251900000)

Analysis of symmetry for initial positions (statically):
 Subroutine PRICEL returns:
 Original cell was already a primitive cell.

 Routine SETGRP: Setting up the symmetry group for a
 simple orthorhombic supercell.

 Subroutine GETGRP returns: Found  8 space group operations
 (whereof  2 operations were pure point group operations)
 out of a pool of  8 trial point group operations.

The static configuration has the point symmetry S_2 .
 The point group associated with its full space group is D_2h.

Analysis of symmetry for dynamics (positions and initial velocities):
 Subroutine PRICEL returns:
 Original cell was already a primitive cell.

[...]

The dynamic configuration has the point symmetry S_2 .
 The point group associated with its full space group is D_2h.

Analysis of structural, dynamic, and magnetic symmetry:
 Subroutine PRICEL returns:
 Original cell was already a primitive cell.

 Routine SETGRP: Setting up the symmetry group for a
 simple orthorhombic supercell.

 Subroutine GETGRP returns: Found  8 space group operations
 (whereof  2 operations were pure point group operations)
 out of a pool of  8 trial point group operations.

The overall configuration has the point symmetry S_2 .
 The point group associated with its full space group is D_2h.

 Subroutine INISYM returns: Found  8 space group operations
 (whereof  2 operations are pure point group operations),
 and found     1 'primitive' translations

                                     Primitive cell

  volume of cell :     212.8482

  direct lattice vectors                    reciprocal lattice vectors
     4.469658000  0.000000000  0.000000000     0.223730764  0.000000000  0.000000000
     0.000000000  6.683428000  0.000000000     0.000000000  0.149623816  0.000000000
     0.000000000  0.000000000  7.125190000     0.000000000  0.000000000  0.140347135

  length of vectors
     4.469658000  6.683428000  7.125190000     0.223730764  0.149623816  0.140347135

  position of ions in fractional coordinates (direct lattice)
     0.942522000  0.633873000  0.750000000
     0.442522000  0.866127000  0.250000000
     0.557478000  0.133873000  0.750000000
     0.057478000  0.366127000  0.250000000
     0.390862000  0.164547000  0.434465000
     0.890862000  0.335453000  0.565535000
     0.109138000  0.664547000  0.065535000
     0.609138000  0.835453000  0.934465000
     0.578404000  0.520413000  0.250000000
     0.078404000  0.979587000  0.750000000
     0.921596000  0.020413000  0.250000000
     0.421596000  0.479587000  0.750000000
     0.390862000  0.164547000  0.065535000
     0.890862000  0.335453000  0.934465000
     0.109138000  0.664547000  0.434465000
     0.609138000  0.835453000  0.565535000

  ion indices of the primitive-cell ions
   primitive index   ion index
                 1           1
                 2           2
                 3           3
                 4           4
                 5           5
                 6           6
                 7           7
                 8           8
                 9           9
                10          10
                11          11
                12          12
                13          13
                14          14
                15          15
                16          16

 KPOINTS: Kpoints from vasprun.xml

Automatic generation of k-mesh.
 Grid dimensions read from file:
 generate k-points for:    6    4    4

 Generating k-lattice:

  Cartesian coordinates                     Fractional coordinates (reciprocal lattice)
     0.037288461  0.000000000  0.000000000     0.166666667  0.000000000  0.000000000
     0.000000000  0.037405954  0.000000000     0.000000000  0.250000000  0.000000000
     0.000000000  0.000000000  0.035086784     0.000000000  0.000000000  0.250000000

  Length of vectors
     0.037288461  0.037405954  0.035086784

  Shift w.r.t. Gamma in fractional coordinates (k-lattice)
     0.000000000  0.000000000  0.000000000

 TETIRR: Found    288 inequivalent tetrahedra from      576

 Subroutine IBZKPT returns following result:

 Found     36 irreducible k-points:

 Following reciprocal coordinates:
            Coordinates               Weight
  0.000000  0.000000  0.000000      1.000000
  0.166667  0.000000  0.000000      2.000000
  0.333333  0.000000  0.000000      2.000000
  0.500000  0.000000  0.000000      1.000000
  0.000000  0.250000  0.000000      2.000000
  0.166667  0.250000  0.000000      4.000000
  0.333333  0.250000  0.000000      4.000000
  0.500000  0.250000  0.000000      2.000000
  0.000000  0.500000  0.000000      1.000000
  0.166667  0.500000  0.000000      2.000000
  0.333333  0.500000  0.000000      2.000000
  0.500000  0.500000  0.000000      1.000000
  0.000000  0.000000  0.250000      2.000000
  0.166667  0.000000  0.250000      4.000000
  0.333333  0.000000  0.250000      4.000000
  0.500000  0.000000  0.250000      2.000000
  0.000000  0.250000  0.250000      4.000000
  0.166667  0.250000  0.250000      8.000000
  0.333333  0.250000  0.250000      8.000000
  0.500000  0.250000  0.250000      4.000000
  0.000000  0.500000  0.250000      2.000000
  0.166667  0.500000  0.250000      4.000000
  0.333333  0.500000  0.250000      4.000000
  0.500000  0.500000  0.250000      2.000000
  0.000000  0.000000  0.500000      1.000000
  0.166667  0.000000  0.500000      2.000000
  0.333333  0.000000  0.500000      2.000000
  0.500000  0.000000  0.500000      1.000000
  0.000000  0.250000  0.500000      2.000000
  0.166667  0.250000  0.500000      4.000000
  0.333333  0.250000  0.500000      4.000000
  0.500000  0.250000  0.500000      2.000000
  0.000000  0.500000  0.500000      1.000000
  0.166667  0.500000  0.500000      2.000000
  0.333333  0.500000  0.500000      2.000000
  0.500000  0.500000  0.500000      1.000000

 Following cartesian coordinates:
            Coordinates               Weight
  0.000000  0.000000  0.000000      1.000000
  0.037288  0.000000  0.000000      2.000000
  0.074577  0.000000  0.000000      2.000000
  0.111865  0.000000  0.000000      1.000000
  0.000000  0.037406  0.000000      2.000000
  0.037288  0.037406  0.000000      4.000000
  0.074577  0.037406  0.000000      4.000000
  0.111865  0.037406  0.000000      2.000000
  0.000000  0.074812  0.000000      1.000000
  0.037288  0.074812  0.000000      2.000000
  0.074577  0.074812  0.000000      2.000000
  0.111865  0.074812  0.000000      1.000000
  0.000000  0.000000  0.035087      2.000000
  0.037288  0.000000  0.035087      4.000000
  0.074577  0.000000  0.035087      4.000000
  0.111865  0.000000  0.035087      2.000000
  0.000000  0.037406  0.035087      4.000000
  0.037288  0.037406  0.035087      8.000000
  0.074577  0.037406  0.035087      8.000000
  0.111865  0.037406  0.035087      4.000000
  0.000000  0.074812  0.035087      2.000000
[...]
  318                map_forward                           0.000188                    4   7
  319                  map_gather                            0.000043                  2   8
  320                  m_alltoallv_z                         0.000031                  2   8
  321                  map_scatter                           0.000085                  2   8
  322                map_backward                          0.000088                    2   7
  323                  map_gather                            0.000020                  1   8
  324                  m_alltoallv_z                         0.000013                  1   8
  325                  map_scatter                           0.000039                  1   8
  326          m_sumb_d                              0.000009                          2   4
  327          pothar                                0.000079                          1   4
  328            m_sumb_d                              0.000007                        1   5
  329        brmix                                 0.006821                            1   3
  330          m_sumb_d                              0.000031                          6   4
  331          brpre                                 0.000020                          2   4
  332          setg0                                 0.000678                          1   4
  333          broyd                                 0.005299                          1   4
  334            m_sumb_d                              0.000200                       50   5
  335            brget                                 0.001082                      224   5
  336            brsav                                 0.000238                       48   5
  337        m_bcast_d                             0.000022                            2   3
  338      potlok                                0.024791                              2   2
  339        fft3d_mpi                             0.016999                           36   3
  340          fftbrc_mpi                            0.014304                         36   4
  341            fftbas_plan_mpi                       0.014284                       36   5
  342              map_forward                           0.004151                     40   6
  343                map_gather                            0.001426                   24   7
  344                m_alltoallv_z                         0.001344                   24   7
  345                map_scatter                           0.001192                   24   7
  346              map_backward                          0.003458                     32   6
  347                map_gather                            0.001154                   16   7
  348                m_alltoallv_z                         0.001081                   16   7
  349                map_scatter                           0.001042                   16   7
  350              dfftw_execute                         0.004949                     30   6
  351        m_sumb_d                              0.000022                            5   3
  352        pothar                                0.001002                            2   3
  353          m_sumb_d                              0.000089                          2   4
  354        m_bcast_d                             0.001616                            4   3
  355      potlok_metagga                        0.000000                              1   2
  356      set_dd_magatom                        0.000004                              1   2
  357      set_dd_paw                            1.571578                              1   2
  358        m_sumb_d                              0.002130                            7   3
  359      augmentation_charge                   0.090281                              1   2
  360        fft3d_mpi                             0.030884                            2   3
  361          fftbrc_mpi                            0.026691                          2   4
  362            fftbas_plan_mpi                       0.026688                        2   5
  363              dfftw_execute                         0.018180                      6   6
  364              map_backward                          0.008255                      4   6
  365                map_gather                            0.002088                    2   7
  366                m_alltoallv_z                         0.004129                    2   7
  367                map_scatter                           0.002029                    2   7
  368      fftwav_mpi                            4.019814                           6048   2
  369        fftwav                                4.012520                         6048   3
  370          fft3d                                 3.828279                       6048   4
  371      densta                               11.041035                              1   2

 Flat profile

 eddav                                 171.253600          98
 lapack                                158.417090      351414
 set_dd_paw                            150.700375          96
 raccmu_                               120.859161      351414
 m_sumb_d                              120.203382     1069480
 redis_pw                               75.403798     1925172
 m_alltoall_d                           35.542956     5127444
 densta                                 26.539226          99
 fft3d                                  20.050104     2073370
 eccp                                   18.733430      197568
 redis_proj                             16.449492     2430504
 phaser                                 14.826473        7524
 fftwav                                 13.102443     1370542
 init_acc                               11.312834           1
 orth1                                  11.283003     1054530
 racc0mu_acc                            10.276725      351414
 w1_copy                                10.212608     2108484
 total_time                             10.166542           1
 overl                                   9.852032     1208160
 hamiltmu                                9.003321      351414
 rpromu_acc                              8.575252      259182
 soft_charge                             8.166894          95
 m_bcast_z                               7.767724      359478
 setup_precond                           7.150674      197568
 setdij_                                 6.727691         122
 ggemm                                   6.241651      450198
 augmentation_charge                     5.749146          96
 m_bcast_d                               5.712529      703025
 overl_mu                                5.406057      351414
 dfftw_execute                           4.726115        2748
 pw_charge                               3.613325      130198
 acc_init_cublas                         3.410975           1
 kinhamil                                3.218751      702828
 vhamil                                  3.172653      702828
 depsum                                  3.102853          95
 fftext_mpi                              2.959706      702828
 newband                                 2.896602      358470
 apply_precond                           2.763528      505260
 fftwav_mpi                              1.831280     1370542
 rpro_isp                                1.321297         468
 m_alltoallv_z                           1.183704        3813
 acc_init_cusolver                       1.031886           1
 fft3d_mpi                               0.948620      706239
 map_scatter                             0.627239        3813
 map_gather                              0.606173        3813
 set_charge                              0.566790          95
 potlok                                  0.316750          96
 sphpro_fast                             0.276174           2
 w1_projall                              0.265028      252630
 acc_cufft_makeplan                      0.263489          19
 lincom                                  0.251561        7128
 broyd                                   0.243545          94
 elmin                                   0.202281           1
 fftbas_plan_mpi                         0.185540        3411
 rspher_all                              0.144861          14
 brmix                                   0.081816          94
 proall                                  0.081601           1
 brget                                   0.077786       17240
 truncate_high_frequency_w1              0.073822      900396
 setg0                                   0.065899          96
 orthch                                  0.041716           1
 choleski                                0.027906          72
 force_and_stress                        0.020830           1
 brsav                                   0.020444        4704
 map_backward                            0.018898        3590
 map_forward                             0.018237        3232
 strnlr                                  0.010963           1
 pothar                                  0.007999          97
 stufak                                  0.006150           1
 inisym                                  0.004424           1
 fornlr                                  0.003782           1
 fft_gq                                  0.003456          95
 brpre                                   0.002232         188
 fftbrc_mpi                              0.001893        3411
 strelo                                  0.001577           1
 strkin                                  0.001389           1
 strehar                                 0.001081           1
 forhar                                  0.001020           2
 forloc                                  0.000564           1
 set_dd_magatom                          0.000422          96
 vectorpot                               0.000418          95
 rsp                                     0.000395           1
 fewald                                  0.000367           1
 chggra                                  0.000245           1
 brgrid                                  0.000158           1
 fordep                                  0.000084           1
 posmap                                  0.000038           2
 crpa_reader                             0.000026           1
 rcp                                     0.000026           1
 acc_cufft_makeplans                     0.000011           3
 potlok_metagga                          0.000007          95
 rotate_active_occupied_orbital          0.000000           1
 redis_pw_over_bands                     0.000000           1
  summed up times     1116.394623041153

 Accumulative profile

 total_time                           1116.394623           1
 elmin                                1061.817443           1
 eddav                                 859.895781          98
 hamiltmu                              160.076976      351414
 lapack                                158.417090      351414
 set_dd_paw                            151.489042          96
 raccmu_                               136.541943      351414
 m_sumb_d                              120.203382     1069480
 redis_pw                               93.092436     1925172
 newband                                43.871351      358470
 m_alltoall_d                           35.542956     5127444
 redis_proj                             34.303810     2430504
 fftwav_mpi                             30.013215     1370542
 set_charge                             29.351367          95
 fftwav                                 28.181935     1370542
 densta                                 26.539226          99
 fft3d                                  20.050104     2073370
 eccp                                   18.733430      197568
 soft_charge                            16.955652          95
 phaser                                 14.826473        7524
 fft3d_mpi                              13.287032      706239
 kinhamil                               11.359059      702828
 init_acc                               11.312834           1
 orth1                                  11.283003     1054530
 setdij_                                11.172790         122
 racc0mu_acc                            10.276725      351414
 w1_copy                                10.212608     2108484
 overl                                   9.852032     1208160
 augmentation_charge                     8.680789          96
 rpromu_acc                              8.575252      259182
 force_and_stress                        8.559515           1
 fftext_mpi                              8.140308      702828
 m_bcast_z                               7.767724      359478
 w1_projall                              7.605279      252630
 fftbrc_mpi                              7.367800        3411
 fftbas_plan_mpi                         7.365906        3411
 setup_precond                           7.150674      197568
 ggemm                                   6.241651      450198
 m_bcast_d                               5.712529      703025
 overl_mu                                5.406057      351414
 dfftw_execute                           4.726115        2748
 pw_charge                               3.613325      130198
 acc_init_cublas                         3.410975           1
 rpro_isp                                3.346334         468
 strnlr                                  3.202098           1
 vhamil                                  3.172653      702828
 depsum                                  3.120489          95
 apply_precond                           2.763528      505260
 map_forward                             1.256012        3232
 map_backward                            1.198239        3590
 m_alltoallv_z                           1.183704        3813
 fornlr                                  1.062500           1
 acc_init_cusolver                       1.031886           1
 potlok                                  0.861086          96
 map_scatter                             0.627239        3813
 map_gather                              0.606173        3813
 orthch                                  0.566191           1
 fordep                                  0.549557           1
 brmix                                   0.511025          94
 broyd                                   0.357462          94
 sphpro_fast                             0.287019           2
 proall                                  0.265359           1
 acc_cufft_makeplans                     0.263500           3
 acc_cufft_makeplan                      0.263489          19
 lincom                                  0.251561        7128
 rspher_all                              0.144861          14
 fft_gq                                  0.133620          95
 brget                                   0.077786       17240
 truncate_high_frequency_w1              0.073822      900396
 setg0                                   0.065899          96
 choleski                                0.027906          72
 brsav                                   0.020444        4704
 pothar                                  0.008983          97
 stufak                                  0.006150           1
 inisym                                  0.004462           1
 brpre                                   0.002232         188
 strelo                                  0.001653           1
 strkin                                  0.001394           1
 strehar                                 0.001096           1
 forhar                                  0.001088           2
 fewald                                  0.000855           1
 chggra                                  0.000803           1
 forloc                                  0.000685           1
 set_dd_magatom                          0.000422          96
 vectorpot                               0.000418          95
 rsp                                     0.000395           1
 brgrid                                  0.000158           1
 posmap                                  0.000038           2
 crpa_reader                             0.000026           1
 rcp                                     0.000026           1
 potlok_metagga                          0.000007          95
 rotate_active_occupied_orbital          0.000000           1
 redis_pw_over_bands                     0.000000           1

Profiling took   4.282201  2.105869  0.003407  0.003311 seconds
Profiling took   2.678736 seconds