 vasp.6.3.2 27Jun22 (build Jul  3 2023 11:46:21) complex
 executed on    LinuxNV_CrayMPICH date 2024.04.21  22:25:37

 INCAR:
   ADDGRID = True
   ALGO = Normal
   EDIFF = 0.0011
   ENCUT = 520.0
   IBRION = -1
   ICHARG = 0
   ISIF = 3
   ISMEAR = -5
   ISPIN = 2
   KPOINT_BSE = -1 0 0 0
   LAECHG = True
   LASPH = True
   LCHARG = True
   LELF = True
   LORBIT = 11
   LREAL = Auto
   LVHAR = True
   LWAVE = False
   MAGMOM = 4*7.0 18*0.6
   NELM = 1000
   NSW = 0
   PREC = accurate
   SIGMA = 0.05

 POTCAR:    PAW_PBE Eu 23Dec2003
 POTCAR:    PAW_PBE Sn_d 06Sep2000
 POTCAR:    PAW_PBE O 08Apr2002
 POTCAR:    PAW_PBE Eu 23Dec2003
   VRHFIN =Eu : [core=Kr4d]

   TITEL  = PAW_PBE Eu 23Dec2003
   POMASS =  151.965; ZVAL   =   17.000    mass and valenz
   ENMAX  =  249.668; ENMIN  =  187.251 eV

   TITEL  = PAW_PBE Sn_d 06Sep2000
   POMASS =  118.710; ZVAL   =   14.000    mass and valenz
   ENMAX  =  241.083; ENMIN  =  180.812 eV

   TITEL  = PAW_PBE O 08Apr2002
   POMASS =   16.000; ZVAL   =    6.000    mass and valenz
   ENMAX  =  400.000; ENMIN  =  300.000 eV

 Optimization of the real space projectors (new method)

 maximal supplied QI-value         = 13.42
 optimisation between [QCUT,QGAM] = [ 11.67, 23.35] = [ 38.16,152.62] Ry
 Optimized for a Real-space Cutoff    1.63 Angstroem

   l    n(q)    QCUT    max X(q) W(low)/X(q) W(high)/X(q)  e(spline)
   0     11    11.673    10.400    0.14E-04    0.18E-05    0.24E-07
   0     11    11.673    10.768    0.21E-04    0.32E-05    0.49E-07
   1     11    11.673     4.094    0.40E-05    0.13E-04    0.93E-07
   1     11    11.673     4.009    0.11E-04    0.46E-04    0.33E-06
   2     10    11.673    29.030    0.79E-04    0.60E-04    0.70E-06
   2     10    11.673    19.941    0.80E-04    0.60E-04    0.71E-06
   3     10    11.673    88.889    0.23E-03    0.29E-03    0.30E-06
   3     10    11.673    76.102    0.23E-03    0.30E-03    0.30E-06
 Optimization of the real space projectors (new method)

[...]

   l    n(q)    QCUT    max X(q) W(low)/X(q) W(high)/X(q)  e(spline)
   2      9    11.641     5.880    0.49E-04    0.15E-04    0.99E-07
   2      9    11.641     7.804    0.17E-03    0.18E-03    0.15E-06
   0      9    11.641    20.557    0.10E-03    0.34E-04    0.76E-07
   0      9    11.641     9.400    0.13E-03    0.43E-04    0.95E-07
   1      9    11.641    94.178    0.25E-03    0.19E-03    0.20E-06
   1      9    11.641    56.401    0.24E-03    0.18E-03    0.20E-06
 Optimization of the real space projectors (new method)

 maximal supplied QI-value         = 24.76
 optimisation between [QCUT,QGAM] = [ 11.64, 23.27] = [ 37.91,151.63] Ry
 Optimized for a Real-space Cutoff    1.14 Angstroem

   l    n(q)    QCUT    max X(q) W(low)/X(q) W(high)/X(q)  e(spline)
   0      8    11.635    20.381    0.10E-03    0.33E-03    0.24E-06
   0      8    11.635    15.268    0.11E-03    0.35E-03    0.26E-06
   1      7    11.635     5.964    0.24E-03    0.31E-03    0.30E-06
   1      7    11.635     5.382    0.22E-03    0.25E-03    0.26E-06
  PAW_PBE Eu 23Dec2003                  :
  PAW_PBE Sn_d 06Sep2000                :
  PAW_PBE O 08Apr2002                   :

 POSCAR: Eu4 Sn4 O14
  positions in direct lattice
 exchange correlation table for  LEXCH =        8
   RHO(1)=    0.500       N(1)  =     2000
   RHO(2)=  100.500       N(2)  =     4000

 VTST: version 4.2, (08/11/21)

 CHAIN: initializing optimizer

 OPT: Using VASP Dynamics algorithm
 CHAIN: Read ICHAIN             0

 POSCAR: Eu4 Sn4 O14
  positions in direct lattice

 ion  position               nearest neighbor table
   1  0.125  0.125  0.125-  21 2.31  22 2.31  13 2.58  15 2.58  16 2.58  19 2.58   9 2.58  10 2.58

   2  0.625  0.125  0.125-  21 2.31  22 2.31  14 2.58  16 2.58  18 2.58  20 2.58  10 2.58  12 2.58

[...]

   5  0.625  0.625  0.625-  11 2.09  12 2.09  14 2.09  17 2.09  18 2.09  20 2.09
   6  0.125  0.625  0.625-   9 2.09  11 2.09  13 2.09  15 2.09  17 2.09  19 2.09
   7  0.625  0.125  0.625-  10 2.09  12 2.09  13 2.09  15 2.09  16 2.09  20 2.09
   8  0.625  0.625  0.125-   9 2.09  10 2.09  14 2.09  16 2.09  18 2.09  19 2.09
   9  0.959  0.541  0.959-   6 2.09   8 2.09   1 2.58   3 2.58
  10  0.709  0.291  0.291-   7 2.09   8 2.09   1 2.58   2 2.58
  11  0.291  0.709  0.709-   5 2.09   6 2.09   3 2.58   4 2.58
  12  0.709  0.291  0.709-   5 2.09   7 2.09   2 2.58   4 2.58
  13  0.291  0.291  0.709-   6 2.09   7 2.09   1 2.58   4 2.58
  14  0.709  0.709  0.291-   5 2.09   8 2.09   2 2.58   3 2.58
  15  0.959  0.959  0.541-   6 2.09   7 2.09   1 2.58   4 2.58
  16  0.541  0.959  0.959-   7 2.09   8 2.09   1 2.58   2 2.58
  17  0.959  0.541  0.541-   5 2.09   6 2.09   3 2.58   4 2.58
  18  0.541  0.541  0.959-   5 2.09   8 2.09   2 2.58   3 2.58
  19  0.291  0.709  0.291-   6 2.09   8 2.09   1 2.58   3 2.58
  20  0.541  0.959  0.541-   5 2.09   7 2.09   2 2.58   4 2.58
  21  0.000  0.000  0.000-   2 2.31   3 2.31   1 2.31   4 2.31
  22  0.250  0.250  0.250-   2 2.31   3 2.31   1 2.31   4 2.31

  LATTYP: Found a face centered cubic cell.
 ALAT       =    10.6572880000

  Lattice vectors:

 A1 = (   0.0000000000,   5.3286440000,   5.3286440000)
 A2 = (   5.3286440000,   0.0000000000,   5.3286440000)
 A3 = (   5.3286440000,   5.3286440000,   0.0000000000)

Analysis of symmetry for initial positions (statically):
 Subroutine PRICEL returns:
 Original cell was already a primitive cell.

 Routine SETGRP: Setting up the symmetry group for a
 face centered cubic supercell.

 Subroutine GETGRP returns: Found 48 space group operations
 (whereof 24 operations were pure point group operations)
 out of a pool of 48 trial point group operations.

The static configuration has the point symmetry T_d .
 The point group associated with its full space group is O_h .

Analysis of symmetry for dynamics (positions and initial velocities):
 Subroutine PRICEL returns:
 Original cell was already a primitive cell.

[...]

The dynamic configuration has the point symmetry T_d .
 The point group associated with its full space group is O_h .

Analysis of structural, dynamic, and magnetic symmetry:
 Subroutine PRICEL returns:
 Original cell was already a primitive cell.

 Routine SETGRP: Setting up the symmetry group for a
 face centered cubic supercell.

 Subroutine GETGRP returns: Found 48 space group operations
 (whereof 24 operations were pure point group operations)
 out of a pool of 48 trial point group operations.

The overall configuration has the point symmetry T_d .
 The point group associated with its full space group is O_h .

 Subroutine INISYM returns: Found 48 space group operations
 (whereof 24 operations are pure point group operations),
 and found     1 'primitive' translations

                                     Primitive cell

  volume of cell :     302.6078

  direct lattice vectors                    reciprocal lattice vectors
     0.000000000  5.328644000  5.328644000    -0.093832502  0.093832502  0.093832502
     5.328644000  0.000000000  5.328644000     0.093832502 -0.093832502  0.093832502
     5.328644000  5.328644000  0.000000000     0.093832502  0.093832502 -0.093832502

  length of vectors
     7.535840614  7.535840614  7.535840614     0.162522661  0.162522661  0.162522661

  position of ions in fractional coordinates (direct lattice)
     0.125000000  0.125000000  0.125000000
     0.625000000  0.125000000  0.125000000
     0.125000000  0.625000000  0.125000000
     0.125000000  0.125000000  0.625000000
     0.625000000  0.625000000  0.625000000
     0.125000000  0.625000000  0.625000000
     0.625000000  0.125000000  0.625000000
     0.625000000  0.625000000  0.125000000
     0.959428000  0.540572000  0.959428000
     0.709428000  0.290572000  0.290572000
     0.290572000  0.709428000  0.709428000
     0.709428000  0.290572000  0.709428000
     0.290572000  0.290572000  0.709428000
     0.709428000  0.709428000  0.290572000
     0.959428000  0.959428000  0.540572000
     0.540572000  0.959428000  0.959428000
     0.959428000  0.540572000  0.540572000
     0.540572000  0.540572000  0.959428000
     0.290572000  0.709428000  0.290572000
     0.540572000  0.959428000  0.540572000
     0.000000000  0.000000000  0.000000000
     0.250000000  0.250000000  0.250000000

  ion indices of the primitive-cell ions
   primitive index   ion index
                 1           1
                 2           2
                 3           3
                 4           4
                 5           5
                 6           6
                 7           7
                 8           8
                 9           9
                10          10
                11          11
                12          12
                13          13
                14          14
                15          15
                16          16
                17          17
                18          18
                19          19
                20          20
                21          21
                22          22

 KPOINTS: Kpoints from vasprun.xml

Automatic generation of k-mesh.
 Grid dimensions read from file:
 generate k-points for:    4    4    4

 Generating k-lattice:

  Cartesian coordinates                     Fractional coordinates (reciprocal lattice)
    -0.023458126  0.023458126  0.023458126     0.250000000 -0.000000000 -0.000000000
     0.023458126 -0.023458126  0.023458126    -0.000000000  0.250000000  0.000000000
     0.023458126  0.023458126 -0.023458126     0.000000000  0.000000000  0.250000000

  Length of vectors
     0.040630665  0.040630665  0.040630665

  Shift w.r.t. Gamma in fractional coordinates (k-lattice)
     0.000000000  0.000000000  0.000000000

 TETIRR: Found      9 inequivalent tetrahedra from      384

 Subroutine IBZKPT returns following result:

 Found      8 irreducible k-points:

 Following reciprocal coordinates:
            Coordinates               Weight
  0.000000  0.000000  0.000000      1.000000
  0.250000  0.000000  0.000000      8.000000
  0.500000  0.000000  0.000000      4.000000
  0.250000  0.250000  0.000000      6.000000
  0.500000  0.250000  0.000000     24.000000
 -0.250000  0.250000  0.000000     12.000000
  0.500000  0.500000  0.000000      3.000000
 -0.250000  0.500000  0.250000      6.000000

 Following cartesian coordinates:
            Coordinates               Weight
  0.000000  0.000000  0.000000      1.000000
 -0.023458  0.023458  0.023458      8.000000
 -0.046916  0.046916  0.046916      4.000000
  0.000000  0.000000  0.046916      6.000000
 -0.023458  0.023458  0.070374     24.000000
  0.046916 -0.046916  0.000000     12.000000
  0.000000  0.000000  0.093833      3.000000
  0.093833 -0.046916  0.000000      6.000000

 SYSTEM =  unknown system
 POSCAR =  Eu4 Sn4 O14

 Startparameter for this run:
   NWRITE =      2    write-flag & timer
   PREC   = accura    normal or accurate (medium, high low for compatibility)
   ISTART =      0    job   : 0-new  1-cont  2-samecut
   ICHARG =      0    charge: 1-file 2-atom 10-const
   ISPIN  =      2    spin polarized calculation?
   LNONCOLLINEAR =      F non collinear calculations
   LSORBIT =      F    spin-orbit coupling
   INIWAV =      1    electr: 0-lowe 1-rand  2-diag
[...]
  318                map_forward                           0.000232                    4   7
  319                  map_gather                            0.000052                  2   8
  320                  m_alltoallv_z                         0.000028                  2   8
  321                  map_scatter                           0.000122                  2   8
  322                map_backward                          0.000096                    2   7
  323                  map_gather                            0.000023                  1   8
  324                  m_alltoallv_z                         0.000013                  1   8
  325                  map_scatter                           0.000043                  1   8
  326          m_sumb_d                              0.000011                          2   4
  327          pothar                                0.000090                          1   4
  328            m_sumb_d                              0.000012                        1   5
  329        brmix                                 0.011877                            1   3
  330          m_sumb_d                              0.000133                          6   4
  331          brpre                                 0.000038                          2   4
  332          setg0                                 0.001245                          1   4
  333          broyd                                 0.008948                          1   4
  334            m_sumb_d                              0.001045                       49   5
  335            brget                                 0.001768                      219   5
  336            brsav                                 0.000388                       47   5
  337        m_bcast_d                             0.000029                            2   3
  338      potlok                                0.042520                              2   2
  339        fft3d_mpi                             0.027215                           36   3
  340          fftbrc_mpi                            0.023382                         36   4
  341            fftbas_plan_mpi                       0.023360                       36   5
  342              map_forward                           0.006447                     40   6
  343                map_gather                            0.001995                   24   7
  344                m_alltoallv_z                         0.002328                   24   7
  345                map_scatter                           0.001927                   24   7
  346              map_backward                          0.005546                     32   6
  347                map_gather                            0.001824                   16   7
  348                m_alltoallv_z                         0.001910                   16   7
  349                map_scatter                           0.001610                   16   7
  350              dfftw_execute                         0.009407                     30   6
  351        m_sumb_d                              0.000030                            5   3
  352        pothar                                0.001767                            2   3
  353          m_sumb_d                              0.000175                          2   4
  354        m_bcast_d                             0.002974                            4   3
  355      potlok_metagga                        0.000000                              1   2
  356      set_dd_magatom                        0.000004                              1   2
  357      set_dd_paw                            2.301025                              1   2
  358        m_sumb_d                              0.219675                            7   3
  359      augmentation_charge                   0.170717                              1   2
  360        fft3d_mpi                             0.056701                            2   3
  361          fftbrc_mpi                            0.050420                          2   4
  362            fftbas_plan_mpi                       0.050417                        2   5
  363              dfftw_execute                         0.029475                      6   6
  364              map_backward                          0.020727                      4   6
  365                map_gather                            0.006233                    2   7
  366                m_alltoallv_z                         0.008370                    2   7
  367                map_scatter                           0.006112                    2   7
  368      fftwav_mpi                            2.108861                           1728   2
  369        fftwav                                2.106638                         1728   3
  370          fft3d                                 1.952897                       1728   4
  371      densta                                0.362873                              1   2

 Flat profile

 set_dd_paw                            339.778841         165
 m_sumb_d                              106.910388      559695
 raccmu_                                98.065032      181102
 eddav                                  93.194264         167
 lapack                                 85.432259      181102
 redis_pw                               41.627400      995796
 setdij_                                20.108297         191
 augmentation_charge                    18.784066         165
 m_alltoall_d                           18.473848     2634500
 total_time                             13.262931           1
 dfftw_execute                          13.084914        4404
 phaser                                 11.576315        2776
 init_acc                               10.941225           1
 fft3d                                  10.412285     1068552
 eccp                                    9.729378       96192
 redis_proj                              8.396774     1261824
 orth1                                   7.549973      543386
 fftwav                                  6.858793      706348
 racc0mu_acc                             5.302597      181102
 w1_copy                                 5.292886     1086612
 overl                                   5.215202      628232
 hamiltmu                                5.008606      181102
 rpromu_acc                              4.312291      134878
 m_bcast_z                               4.065477      183406
 soft_charge                             4.065271         164
 ggemm                                   3.555518      229198
 setup_precond                           3.478213       96192
 m_alltoallv_z                           3.466549        6435
 m_bcast_d                               3.035584      362539
 overl_mu                                2.807254      181102
 map_scatter                             2.759719        6435
 fft3d_mpi                               2.623820      367961
 acc_init_cublas                         2.414322           1
 set_charge                              2.199209         164
 pw_charge                               2.086858       68916
 map_gather                              2.051274        6435
 vhamil                                  1.687153      362204
 densta                                  1.650273         168
 kinhamil                                1.640303      362204
 depsum                                  1.560229         164
 fftext_mpi                              1.532319      362204
 newband                                 1.473748      183774
 apply_precond                           1.452503      266012
 fftwav_mpi                              0.935700      706348
 broyd                                   0.849324         163
 acc_init_cusolver                       0.785722           1
 potlok                                  0.779990         165
 brmix                                   0.385686         163
 rpro_isp                                0.380926         104
 elmin                                   0.336916           1
 fftbas_plan_mpi                         0.310159        5757
 rspher_all                              0.268096          14
 brget                                   0.264724       33984
 setg0                                   0.205349         165
 acc_cufft_makeplan                      0.148516          19
 w1_projall                              0.126585      133006
 sphpro_fast                             0.108592           2
 lincom                                  0.097902        2688
 brsav                                   0.071156        9598
 proall                                  0.056781           1
 truncate_high_frequency_w1              0.035898      458396
 map_backward                            0.035812        6074
 map_forward                             0.033003        5440
 fft_gq                                  0.018471         164
 orthch                                  0.015652           1
 pothar                                  0.015072         166
 force_and_stress                        0.014722           1
 stufak                                  0.012854           1
 choleski                                0.009491          16
 brpre                                   0.006669         326
 inisym                                  0.005551           1
 fftbrc_mpi                              0.003261        5757
 strnlr                                  0.003196           1
 forhar                                  0.002770           2
 strelo                                  0.002435           1
 strehar                                 0.001792           1
 forloc                                  0.001465           1
 fornlr                                  0.001119           1
 strkin                                  0.000896           1
 set_dd_magatom                          0.000805         165
 rsp                                     0.000738           1
 vectorpot                               0.000685         164
 fewald                                  0.000347           1
 brgrid                                  0.000250           1
 chggra                                  0.000245           1
 posmap                                  0.000233           2
 fordep                                  0.000110           1
 rcp                                     0.000038           1
 crpa_reader                             0.000027           1
 potlok_metagga                          0.000014         164
 acc_cufft_makeplans                     0.000012           3
 rotate_active_occupied_orbital          0.000000           1
 redis_pw_over_bands                     0.000000           1
  summed up times     995.2599179744720

 Accumulative profile

 total_time                            995.259918           1
 elmin                                 951.650753           1
 eddav                                 501.275234         167
 set_dd_paw                            380.137118         165
 hamiltmu                              118.738894      181102
 m_sumb_d                              106.910388      559695
 raccmu_                               106.174883      181102
 lapack                                 85.432259      181102
 redis_pw                               50.708725      995796
 set_charge                             42.203683         164
 setdij_                                33.386664         191
 augmentation_charge                    28.445482         165
 fft3d_mpi                              26.954745      367961
 newband                                22.144121      183774
 fftbrc_mpi                             21.744691        5757
 fftbas_plan_mpi                        21.741430        5757
 m_alltoall_d                           18.473848     2634500
 redis_proj                             17.789296     1261824
 fftwav_mpi                             15.620543      706348
 fftwav                                 14.684843      706348
 dfftw_execute                          13.084914        4404
 phaser                                 11.576315        2776
 init_acc                               10.941225           1
 fft3d                                  10.412285     1068552
 soft_charge                             9.799465         164
 eccp                                    9.729378       96192
 force_and_stress                        8.791252           1
 orth1                                   7.549973      543386
 kinhamil                                5.868252      362204
 racc0mu_acc                             5.302597      181102
 w1_copy                                 5.292886     1086612
 overl                                   5.215202      628232
 map_backward                            4.622468        6074
 rpromu_acc                              4.312291      134878
 fftext_mpi                              4.227950      362204
 m_bcast_z                               4.065477      183406
 w1_projall                              4.016212      133006
 map_forward                             3.723890        5440
 ggemm                                   3.555518      229198
 setup_precond                           3.478213       96192
 m_alltoallv_z                           3.466549        6435
 m_bcast_d                               3.035584      362539
 overl_mu                                2.807254      181102
 map_scatter                             2.759719        6435
 acc_init_cublas                         2.414322           1
 pw_charge                               2.086858       68916
 map_gather                              2.051274        6435
 brmix                                   1.897079         163
 potlok                                  1.693887         165
 vhamil                                  1.687153      362204
 densta                                  1.650273         168
 depsum                                  1.599968         164
 apply_precond                           1.452503      266012
 broyd                                   1.285184         163
 strnlr                                  1.237767           1
 fordep                                  1.052763           1
 rpro_isp                                1.032647         104
 acc_init_cusolver                       0.785722           1
 fft_gq                                  0.452326         164
 fornlr                                  0.415512           1
 rspher_all                              0.268096          14
 orthch                                  0.266807           1
 brget                                   0.264724       33984
 setg0                                   0.205349         165
 acc_cufft_makeplans                     0.148528           3
 acc_cufft_makeplan                      0.148516          19
 proall                                  0.122810           1
 sphpro_fast                             0.112984           2
 lincom                                  0.097902        2688
 brsav                                   0.071156        9598
 truncate_high_frequency_w1              0.035898      458396
 pothar                                  0.016560         166
 stufak                                  0.012854           1
 choleski                                0.009491          16
 brpre                                   0.006669         326
 inisym                                  0.005784           1
 forhar                                  0.002824           2
 strelo                                  0.002443           1
 strehar                                 0.001796           1
 fewald                                  0.001611           1
 forloc                                  0.001502           1
 strkin                                  0.000901           1
 chggra                                  0.000876           1
 set_dd_magatom                          0.000805         165
 rsp                                     0.000738           1
 vectorpot                               0.000685         164
 brgrid                                  0.000250           1
 posmap                                  0.000233           2
 rcp                                     0.000038           1
 crpa_reader                             0.000027           1
 potlok_metagga                          0.000014         164
 rotate_active_occupied_orbital          0.000000           1
 redis_pw_over_bands                     0.000000           1

Profiling took   2.263100  1.108803  0.003442  0.003309 seconds
Profiling took   1.437589 seconds