 vasp.6.3.2 27Jun22 (build Jul  3 2023 11:46:21) complex
 executed on    LinuxNV_CrayMPICH date 2024.04.22  03:28:50

 INCAR:
   ADDGRID = True
   ALGO = Normal
   EDIFF = 0.0014
   ENCUT = 520.0
   IBRION = -1
   ICHARG = 0
   ISIF = 3
   ISMEAR = -5
   ISPIN = 2
   KPOINT_BSE = -1 0 0 0
   LAECHG = True
   LASPH = True
   LCHARG = True
   LELF = True
   LORBIT = 11
   LREAL = Auto
   LVHAR = True
   LWAVE = False
   MAGMOM = 4*0.6 4*7.0 20*0.6
   NELM = 1000
   NSW = 0
   PREC = accurate
   SIGMA = 0.05

 POTCAR:    PAW_PBE Li_sv 10Sep2004
 POTCAR:    PAW_PBE Eu 23Dec2003
 POTCAR:    PAW_PBE Ti_pv 07Sep2000
 POTCAR:    PAW_PBE O 08Apr2002
 POTCAR:    PAW_PBE Li_sv 10Sep2004
   VRHFIN =Li: 1s2s2p

   TITEL  = PAW_PBE Li_sv 10Sep2004
   POMASS =    7.010; ZVAL   =    3.000    mass and valenz
   ENMAX  =  499.034; ENMIN  =  374.276 eV

   TITEL  = PAW_PBE Eu 23Dec2003
   POMASS =  151.965; ZVAL   =   17.000    mass and valenz
   ENMAX  =  249.668; ENMIN  =  187.251 eV

   TITEL  = PAW_PBE Ti_pv 07Sep2000
   POMASS =   47.880; ZVAL   =   10.000    mass and valenz
   ENMAX  =  222.335; ENMIN  =  166.751 eV

   TITEL  = PAW_PBE O 08Apr2002
   POMASS =   16.000; ZVAL   =    6.000    mass and valenz
   ENMAX  =  400.000; ENMIN  =  300.000 eV

 Optimization of the real space projectors (new method)

 maximal supplied QI-value         = 22.11
 optimisation between [QCUT,QGAM] = [ 11.50, 23.22] = [ 37.02,150.92] Ry
 Optimized for a Real-space Cutoff    1.08 Angstroem

   l    n(q)    QCUT    max X(q) W(low)/X(q) W(high)/X(q)  e(spline)
   0      7    11.497    10.506    0.36E-04    0.62E-04    0.14E-07
   0      7    11.497     8.367    0.65E-04    0.14E-03    0.28E-07
   1      7    11.497     8.983    0.21E-03    0.43E-03    0.90E-07
 Optimization of the real space projectors (new method)

[...]

   l    n(q)    QCUT    max X(q) W(low)/X(q) W(high)/X(q)  e(spline)
   1     10    11.641     4.216    0.17E-04    0.40E-04    0.50E-07
   1     10    11.641     5.422    0.66E-04    0.10E-03    0.13E-06
   2      9    11.641    72.084    0.68E-04    0.13E-03    0.50E-06
   2      9    11.641    65.965    0.66E-04    0.13E-03    0.50E-06
   0     10    11.641    41.531    0.10E-03    0.87E-04    0.31E-06
   0     10    11.641    16.290    0.75E-04    0.66E-04    0.24E-06
 Optimization of the real space projectors (new method)

 maximal supplied QI-value         = 24.76
 optimisation between [QCUT,QGAM] = [ 11.64, 23.27] = [ 37.91,151.63] Ry
 Optimized for a Real-space Cutoff    1.14 Angstroem

   l    n(q)    QCUT    max X(q) W(low)/X(q) W(high)/X(q)  e(spline)
   0      8    11.635    20.381    0.10E-03    0.33E-03    0.24E-06
   0      8    11.635    15.268    0.11E-03    0.35E-03    0.26E-06
   1      7    11.635     5.964    0.24E-03    0.31E-03    0.30E-06
   1      7    11.635     5.382    0.22E-03    0.25E-03    0.26E-06
  PAW_PBE Li_sv 10Sep2004               :
  PAW_PBE Eu 23Dec2003                  :
  PAW_PBE Ti_pv 07Sep2000               :
  PAW_PBE O 08Apr2002                   :

 POSCAR: Li4 Eu4 Ti4 O16
  positions in direct lattice
 exchange correlation table for  LEXCH =        8
   RHO(1)=    0.500       N(1)  =     2000
   RHO(2)=  100.500       N(2)  =     4000

 VTST: version 4.2, (08/11/21)

 CHAIN: initializing optimizer

 OPT: Using VASP Dynamics algorithm
 CHAIN: Read ICHAIN             0

 POSCAR: Li4 Eu4 Ti4 O16
  positions in direct lattice

 ion  position               nearest neighbor table
   1  0.000  0.750  0.009-  22 2.02  24 2.02  18 2.03  28 2.03
   2  0.500  0.750  0.009-  22 2.02  24 2.02  18 2.03  28 2.03
   3  0.500  0.250  0.991-  18 2.02  28 2.02  24 2.03  22 2.03
   4  0.000  0.250  0.991-  18 2.02  28 2.02  24 2.03  22 2.03
   5  0.750  0.519  0.385-  26 2.28  16 2.39  14 2.48  15 2.48  20 2.50  27 2.50  17 2.71  17 2.71
                            12 3.34
   6  0.250  0.481  0.615-  17 2.28  21 2.39  23 2.48  25 2.48  19 2.50  13 2.50  26 2.71  26 2.71
                            10 3.34
   7  0.250  0.981  0.385-  21 2.28  17 2.39  14 2.48  15 2.48  20 2.50  27 2.50  16 2.71  16 2.71
                            11 3.34
   8  0.750  0.019  0.615-  16 2.28  26 2.39  25 2.48  23 2.48  19 2.50  13 2.50  21 2.71  21 2.71
                             9 3.34
   9  0.750  0.506  0.790-  18 1.79  13 1.94  19 1.94  23 1.95  25 1.95   8 3.34
  10  0.250  0.994  0.790-  28 1.79  19 1.94  13 1.94  25 1.95  23 1.95   6 3.34
  11  0.250  0.494  0.210-  24 1.79  20 1.94  27 1.94  15 1.95  14 1.95   7 3.34
  12  0.750  0.006  0.210-  22 1.79  20 1.94  27 1.94  15 1.95  14 1.95   5 3.34
  13  0.500  0.250  0.758-   9 1.94  10 1.94   6 2.50   8 2.50
  14  0.000  0.250  0.258-  11 1.95  12 1.95   5 2.48   7 2.48
  15  0.500  0.250  0.258-  11 1.95  12 1.95   5 2.48   7 2.48
  16  0.750  0.954  0.427-   8 2.28   5 2.39   7 2.71   7 2.71
  17  0.250  0.546  0.427-   6 2.28   7 2.39   5 2.71   5 2.71
  18  0.750  0.511  0.939-   9 1.79   4 2.02   3 2.02   2 2.03   1 2.03
  19  0.000  0.250  0.758-   9 1.94  10 1.94   6 2.50   8 2.50
  20  0.000  0.750  0.242-  11 1.94  12 1.94   5 2.50   7 2.50
  21  0.250  0.046  0.573-   7 2.28   6 2.39   8 2.71   8 2.71
  22  0.750  0.011  0.061-  12 1.79   2 2.02   1 2.02   4 2.03   3 2.03
  23  0.000  0.750  0.742-   9 1.95  10 1.95   6 2.48   8 2.48
  24  0.250  0.489  0.061-  11 1.79   2 2.02   1 2.02   4 2.03   3 2.03
  25  0.500  0.750  0.742-   9 1.95  10 1.95   6 2.48   8 2.48
  26  0.750  0.454  0.573-   5 2.28   8 2.39   6 2.71   6 2.71
  27  0.500  0.750  0.242-  11 1.94  12 1.94   5 2.50   7 2.50
  28  0.250  0.989  0.939-  10 1.79   4 2.02   3 2.02   2 2.03   1 2.03

  LATTYP: Found a simple orthorhombic cell.
 ALAT       =     5.3060100000
 B/A-ratio  =     1.0097447988
 C/A-ratio  =     2.2597695820

  Lattice vectors:

 A1 = (   5.3060100000,   0.0000000000,   0.0000000000)
 A2 = (   0.0000000000,   5.3577160000,   0.0000000000)
 A3 = (   0.0000000000,   0.0000000000,  11.9903600000)

Analysis of symmetry for initial positions (statically):
 Subroutine PRICEL returns:
 Original cell was already a primitive cell.

 Routine SETGRP: Setting up the symmetry group for a
 simple orthorhombic supercell.

 Subroutine GETGRP returns: Found  8 space group operations
 (whereof  2 operations were pure point group operations)
 out of a pool of  8 trial point group operations.

The static configuration has the point symmetry S_2 .
 The point group associated with its full space group is D_2h.

Analysis of symmetry for dynamics (positions and initial velocities):
 Subroutine PRICEL returns:
 Original cell was already a primitive cell.

[...]

The dynamic configuration has the point symmetry S_2 .
 The point group associated with its full space group is D_2h.

Analysis of structural, dynamic, and magnetic symmetry:
 Subroutine PRICEL returns:
 Original cell was already a primitive cell.

 Routine SETGRP: Setting up the symmetry group for a
 simple orthorhombic supercell.

 Subroutine GETGRP returns: Found  8 space group operations
 (whereof  2 operations were pure point group operations)
 out of a pool of  8 trial point group operations.

The overall configuration has the point symmetry S_2 .
 The point group associated with its full space group is D_2h.

 Subroutine INISYM returns: Found  8 space group operations
 (whereof  2 operations are pure point group operations),
 and found     1 'primitive' translations

                                     Primitive cell

  volume of cell :     340.8631

  direct lattice vectors                    reciprocal lattice vectors
     5.306010000  0.000000000  0.000000000     0.188465532  0.000000000  0.000000000
     0.000000000  5.357716000  0.000000000     0.000000000  0.186646698  0.000000000
     0.000000000  0.000000000 11.990360000     0.000000000  0.000000000  0.083400332

  length of vectors
     5.306010000  5.357716000 11.990360000     0.188465532  0.186646698  0.083400332

  position of ions in fractional coordinates (direct lattice)
     0.000000000  0.750000000  0.009421000
     0.500000000  0.750000000  0.009421000
     0.500000000  0.250000000  0.990579000
     0.000000000  0.250000000  0.990579000
     0.750000000  0.518671000  0.384613000
     0.250000000  0.481329000  0.615387000
     0.250000000  0.981329000  0.384613000
     0.750000000  0.018671000  0.615387000
     0.750000000  0.505751000  0.789757000
     0.250000000  0.994249000  0.789757000
     0.250000000  0.494249000  0.210243000
     0.750000000  0.005751000  0.210243000
     0.500000000  0.250000000  0.758390000
     0.000000000  0.250000000  0.257922000
     0.500000000  0.250000000  0.257922000
     0.750000000  0.954277000  0.427216000
     0.250000000  0.545723000  0.427216000
     0.750000000  0.511029000  0.939183000
     0.000000000  0.250000000  0.758390000
     0.000000000  0.750000000  0.241610000
     0.250000000  0.045723000  0.572784000
     0.750000000  0.011029000  0.060817000
     0.000000000  0.750000000  0.742078000
     0.250000000  0.488971000  0.060817000
     0.500000000  0.750000000  0.742078000
     0.750000000  0.454277000  0.572784000
     0.500000000  0.750000000  0.241610000
     0.250000000  0.988971000  0.939183000

  ion indices of the primitive-cell ions
   primitive index   ion index
                 1           1
                 2           2
                 3           3
                 4           4
                 5           5
                 6           6
                 7           7
                 8           8
                 9           9
                10          10
                11          11
                12          12
                13          13
                14          14
                15          15
                16          16
                17          17
                18          18
                19          19
                20          20
                21          21
                22          22
                23          23
                24          24
                25          25
                26          26
                27          27
                28          28

 KPOINTS: Kpoints from vasprun.xml

Automatic generation of k-mesh.
 Grid dimensions read from file:
 generate k-points for:    5    5    2

 Generating k-lattice:

  Cartesian coordinates                     Fractional coordinates (reciprocal lattice)
     0.037693106  0.000000000  0.000000000     0.200000000  0.000000000  0.000000000
     0.000000000  0.037329340  0.000000000     0.000000000  0.200000000  0.000000000
     0.000000000  0.000000000  0.041700166     0.000000000  0.000000000  0.500000000

  Length of vectors
     0.037693106  0.037329340  0.041700166

  Shift w.r.t. Gamma in fractional coordinates (k-lattice)
     0.000000000  0.000000000  0.000000000

 TETIRR: Found    147 inequivalent tetrahedra from      300

 Subroutine IBZKPT returns following result:

 Found     18 irreducible k-points:

 Following reciprocal coordinates:
            Coordinates               Weight
  0.000000  0.000000  0.000000      1.000000
  0.200000  0.000000  0.000000      2.000000
  0.400000  0.000000  0.000000      2.000000
[...]
  318                map_forward                           0.000207                    4   7
  319                  map_gather                            0.000047                  2   8
  320                  m_alltoallv_z                         0.000024                  2   8
  321                  map_scatter                           0.000105                  2   8
  322                map_backward                          0.000088                    2   7
  323                  map_gather                            0.000021                  1   8
  324                  m_alltoallv_z                         0.000011                  1   8
  325                  map_scatter                           0.000038                  1   8
  326          m_sumb_d                              0.000008                          2   4
  327          pothar                                0.000091                          1   4
  328            m_sumb_d                              0.000021                        1   5
  329        brmix                                 0.008834                            1   3
  330          m_sumb_d                              0.000068                          6   4
  331          brpre                                 0.000031                          2   4
  332          setg0                                 0.000998                          1   4
  333          broyd                                 0.006595                          1   4
  334            m_sumb_d                              0.000301                       49   5
  335            brget                                 0.001295                      219   5
  336            brsav                                 0.000295                       47   5
  337        m_bcast_d                             0.000021                            2   3
  338      potlok                                0.038109                              2   2
  339        fft3d_mpi                             0.023076                           36   3
  340          fftbrc_mpi                            0.019570                         36   4
  341            fftbas_plan_mpi                       0.019547                       36   5
  342              map_forward                           0.005529                     40   6
  343                map_gather                            0.001698                   24   7
  344                m_alltoallv_z                         0.002185                   24   7
  345                map_scatter                           0.001449                   24   7
  346              map_backward                          0.005613                     32   6
  347                map_gather                            0.001467                   16   7
  348                m_alltoallv_z                         0.002522                   16   7
  349                map_scatter                           0.001412                   16   7
  350              dfftw_execute                         0.006698                     30   6
  351        m_sumb_d                              0.000030                            5   3
  352        pothar                                0.001436                            2   3
  353          m_sumb_d                              0.000109                          2   4
  354        m_bcast_d                             0.002467                            4   3
  355      potlok_metagga                        0.000000                              1   2
  356      set_dd_magatom                        0.000004                              1   2
  357      set_dd_paw                            2.579504                              1   2
  358        m_sumb_d                              0.000428                            7   3
  359      augmentation_charge                   0.120637                              1   2
  360        fft3d_mpi                             0.042909                            2   3
  361          fftbrc_mpi                            0.038727                          2   4
  362            fftbas_plan_mpi                       0.038724                        2   5
  363              dfftw_execute                         0.025023                      6   6
  364              map_backward                          0.013459                      4   6
  365                map_gather                            0.002720                    2   7
  366                m_alltoallv_z                         0.006508                    2   7
  367                map_scatter                           0.004223                    2   7
  368      fftwav_mpi                            4.222453                           4104   2
  369        fftwav                                4.217376                         4104   3
  370          fft3d                                 3.897824                       4104   4
  371      densta                               10.830227                              1   2

 Flat profile

 set_dd_paw                            420.385110         170
 eddav                                 235.671552         172
 lapack                                221.692404      463673
 raccmu_                               190.005493      463673
 m_sumb_d                              181.688767     1412188
 redis_pw                              104.849034     2559198
 m_alltoall_d                           47.226359     6733558
 densta                                 34.434408         173
 fft3d                                  25.279507     2735572
 eccp                                   23.631543      235296
 phaser                                 22.234717        6426
 redis_proj                             21.848602     3251284
 orth1                                  18.865727     1391199
 fftwav                                 17.170381     1808226
 setdij_                                14.043389         196
 racc0mu_acc                            13.628088      463673
 w1_copy                                13.556033     2782038
 total_time                             13.390453           1
 overl                                  13.374961     1619432
 augmentation_charge                    13.158710         170
 hamiltmu                               12.690893      463673
 init_acc                               12.062107           1
 rpromu_acc                             11.001126      350705
 dfftw_execute                          10.988592        4524
 m_bcast_z                              10.397246      469145
 soft_charge                             9.635299         169
 setup_precond                           8.547177      235296
 ggemm                                   8.489409      581321
 m_bcast_d                               7.836476      927691
 overl_mu                                7.162684      463673
 pw_charge                               5.130726      166942
 vhamil                                  4.265119      927346
 kinhamil                                4.188446      927346
 fftext_mpi                              3.893856      927346
 apply_precond                           3.777148      692050
 depsum                                  3.775911         169
 newband                                 3.671687      469865
 acc_init_cublas                         3.418277           1
 m_alltoallv_z                           2.757432        6625
 fftwav_mpi                              2.420998     1808226
 fft3d_mpi                               2.072477      933273
 map_scatter                             1.814888        6625
 set_charge                              1.466703         169
 map_gather                              1.323542        6625
 acc_init_cusolver                       1.015725           1
 rpro_isp                                0.890939         234
 potlok                                  0.713121         170
 broyd                                   0.649451         168
 w1_projall                              0.357676      346025
 elmin                                   0.356575           1
 fftbas_plan_mpi                         0.310633        5927
 sphpro_fast                             0.300569           2
 acc_cufft_makeplan                      0.282406          19
 brmix                                   0.261353         168
 lincom                                  0.220602        6228
 rspher_all                              0.214149          14
 brget                                   0.206133       35196
 setg0                                   0.172205         170
 truncate_high_frequency_w1              0.090592     1162642
 proall                                  0.083723           1
 brsav                                   0.056065        9951
 orthch                                  0.039315           1
 map_backward                            0.038859        6254
 map_forward                             0.034134        5600
 force_and_stress                        0.023057           1
 choleski                                0.022650          36
 fft_gq                                  0.016320         169
 pothar                                  0.014971         171
 stufak                                  0.013328           1
 strnlr                                  0.007125           1
 brpre                                   0.005208         336
 inisym                                  0.004636           1
 fftbrc_mpi                              0.003567        5927
 forhar                                  0.002893           2
 fornlr                                  0.002473           1
 strelo                                  0.002024           1
 forloc                                  0.001718           1
 strkin                                  0.001580           1
 strehar                                 0.001467           1
 rsp                                     0.000856           1
 set_dd_magatom                          0.000772         170
 vectorpot                               0.000721         169
 fewald                                  0.000343           1
 chggra                                  0.000244           1
 brgrid                                  0.000208           1
 fordep                                  0.000099           1
 posmap                                  0.000063           2
 rcp                                     0.000043           1
 crpa_reader                             0.000029           1
 potlok_metagga                          0.000017         169
 acc_cufft_makeplans                     0.000010           3
 rotate_active_occupied_orbital          0.000000           1
 redis_pw_over_bands                     0.000000           1
  summed up times     1795.344100952148

 Accumulative profile

 total_time                           1795.344101           1
 elmin                                1733.531219           1
 eddav                                1223.288133         172
 set_dd_paw                            421.245936         170
 hamiltmu                              242.812945      463673
 lapack                                221.692404      463673
 raccmu_                               210.796265      463673
 m_sumb_d                              181.688767     1412188
 redis_pw                              128.151702     2559198
 newband                                54.684899      469865
 set_charge                             47.856068         169
 m_alltoall_d                           47.226359     6733558
 redis_proj                             45.772293     3251284
 fftwav_mpi                             38.165671     1808226
 fftwav                                 35.744672     1808226
 densta                                 34.434408         173
 fft3d_mpi                              26.049340      933273
 fft3d                                  25.279507     2735572
 setdij_                                24.293422         196
 eccp                                   23.631543      235296
 phaser                                 22.234717        6426
 soft_charge                            21.809630         169
 augmentation_charge                    20.566687         170
 orth1                                  18.865727     1391199
 fftbrc_mpi                             17.271647        5927
 fftbas_plan_mpi                        17.268080        5927
 kinhamil                               15.060668      927346
 racc0mu_acc                            13.628088      463673
 w1_copy                                13.556033     2782038
 overl                                  13.374961     1619432
 init_acc                               12.062107           1
 rpromu_acc                             11.001126      350705
 dfftw_execute                          10.988592        4524
 fftext_mpi                             10.872222      927346
 m_bcast_z                              10.397246      469145
 w1_projall                             10.390533      346025
 force_and_stress                        9.373013           1
 setup_precond                           8.547177      235296
 ggemm                                   8.489409      581321
 m_bcast_d                               7.836476      927691
 overl_mu                                7.162684      463673
 pw_charge                               5.130726      166942
 vhamil                                  4.265119      927346
 depsum                                  3.840930         169
 apply_precond                           3.777148      692050
 acc_init_cublas                         3.418277           1
 map_backward                            3.129820        6254
 map_forward                             2.839036        5600
 m_alltoallv_z                           2.757432        6625
 strnlr                                  2.473425           1
 rpro_isp                                2.399381         234
 map_scatter                             1.814888        6625
 potlok                                  1.680076         170
 brmix                                   1.414444         168
 map_gather                              1.323542        6625
 acc_init_cusolver                       1.015725           1
 broyd                                   0.960672         168
 fornlr                                  0.825420           1
 fordep                                  0.750691           1
 orthch                                  0.512412           1
 fft_gq                                  0.387154         169
 sphpro_fast                             0.313901           2
 acc_cufft_makeplans                     0.282416           3
 acc_cufft_makeplan                      0.282406          19
 lincom                                  0.220602        6228
 proall                                  0.219574           1
 rspher_all                              0.214149          14
 brget                                   0.206133       35196
 setg0                                   0.172205         170
 truncate_high_frequency_w1              0.090592     1162642
 brsav                                   0.056065        9951
 choleski                                0.022650          36
 pothar                                  0.016563         171
 stufak                                  0.013328           1
 brpre                                   0.005208         336
 inisym                                  0.004699           1
 forhar                                  0.002933           2
 strelo                                  0.002035           1
 forloc                                  0.001753           1
 strkin                                  0.001592           1
 strehar                                 0.001471           1
 fewald                                  0.001377           1
 rsp                                     0.000856           1
 chggra                                  0.000828           1
 set_dd_magatom                          0.000772         170
 vectorpot                               0.000721         169
 brgrid                                  0.000208           1
 posmap                                  0.000063           2
 rcp                                     0.000043           1
 crpa_reader                             0.000029           1
 potlok_metagga                          0.000017         169
 rotate_active_occupied_orbital          0.000000           1
 redis_pw_over_bands                     0.000000           1

Profiling took   5.851068  2.851667  0.003220  0.003123 seconds
Profiling took   3.653201 seconds