 vasp.6.3.2 27Jun22 (build Jul  3 2023 11:46:21) complex
 executed on    LinuxNV_CrayMPICH date 2024.04.21  06:23:49

 INCAR:
   ADDGRID = True
   ALGO = Normal
   EDIFF = 0.00145
   ENCUT = 520.0
   IBRION = -1
   ICHARG = 0
   ISIF = 3
   ISMEAR = 0
   ISPIN = 2
   ISTART = 1
   KPOINT_BSE = -1 0 0 0
   LAECHG = True
   LASPH = True
   LCHARG = True
   LELF = True
   LORBIT = 11
   LREAL = Auto
   LVHAR = True
   LWAVE = False
   MAGMOM = 6*7.0 23*5.0
   NELM = 1000
   NSW = 0
   PREC = accurate
   SIGMA = 0.05

 POTCAR:    PAW_PBE Gd 23Dec2003
 POTCAR:    PAW_PBE Fe_pv 02Aug2007
 POTCAR:    PAW_PBE Gd 23Dec2003
   VRHFIN =Gd : [core=Xe4]

   TITEL  = PAW_PBE Gd 23Dec2003
   POMASS =  157.250; ZVAL   =   18.000    mass and valenz
   ENMAX  =  256.472; ENMIN  =  192.354 eV

   TITEL  = PAW_PBE Fe_pv 02Aug2007
   POMASS =   55.847; ZVAL   =   14.000    mass and valenz
   ENMAX  =  293.238; ENMIN  =  219.928 eV

 Optimization of the real space projectors (new method)

 maximal supplied QI-value         = 13.42
 optimisation between [QCUT,QGAM] = [ 11.67, 23.35] = [ 38.16,152.62] Ry
 Optimized for a Real-space Cutoff    1.63 Angstroem

   l    n(q)    QCUT    max X(q) W(low)/X(q) W(high)/X(q)  e(spline)
   0     11    11.673    10.501    0.14E-04    0.17E-05    0.21E-07
   0     11    11.673     9.148    0.21E-04    0.32E-05    0.45E-07
   1     11    11.673     4.035    0.33E-05    0.11E-04    0.84E-07
   1     11    11.673     4.388    0.11E-04    0.47E-04    0.34E-06
   2     10    11.673    20.656    0.12E-04    0.28E-04    0.54E-06
   2     10    11.673    12.651    0.11E-04    0.26E-04    0.51E-06
   3     10    11.673    61.921    0.19E-03    0.22E-03    0.23E-06
   3     10    11.673    48.328    0.20E-03    0.23E-03    0.23E-06
 Optimization of the real space projectors (new method)

 maximal supplied QI-value         = 17.01
 optimisation between [QCUT,QGAM] = [ 11.57, 23.30] = [ 37.45,152.03] Ry
 Optimized for a Real-space Cutoff    1.45 Angstroem

   l    n(q)    QCUT    max X(q) W(low)/X(q) W(high)/X(q)  e(spline)
   1     10    11.565     4.267    0.91E-04    0.15E-03    0.13E-06
   1     10    11.565     5.750    0.14E-03    0.22E-03    0.20E-06
   2      9    11.565    53.656    0.13E-03    0.57E-04    0.16E-06
   2      9    11.565    49.521    0.13E-03    0.59E-04    0.16E-06
   0     10    11.565    31.246    0.61E-04    0.74E-05    0.89E-07
   0     10    11.565    12.201    0.44E-04    0.68E-05    0.74E-07
  PAW_PBE Gd 23Dec2003                  :
  PAW_PBE Fe_pv 02Aug2007               :

 POSCAR: Gd6 Fe23
  positions in direct lattice
 exchange correlation table for  LEXCH =        8
   RHO(1)=    0.500       N(1)  =     2000
   RHO(2)=  100.500       N(2)  =     4000

 VTST: version 4.2, (08/11/21)

 CHAIN: initializing optimizer

 OPT: Using VASP Dynamics algorithm
 CHAIN: Read ICHAIN             0

 POSCAR: Gd6 Fe23
  positions in direct lattice

 ion  position               nearest neighbor table
   1  0.709  0.709  0.291-  19 2.85  20 2.85  17 2.85  14 2.85   9 2.99  10 2.99  12 2.99  13 2.99
                            22 3.03  27 3.03  28 3.03  25 3.03   2 3.48   3 3.48   5 3.48   6 3.48
   2  0.291  0.709  0.291-  14 2.85  16 2.85  21 2.85  19 2.85   8 2.99  10 2.99  11 2.99  13 2.99
                            27 3.03  24 3.03  22 3.03  29 3.03   1 3.48   3 3.48   4 3.48   6 3.48
   3  0.709  0.291  0.291-  14 2.85  15 2.85  21 2.85  20 2.85   8 2.99   9 2.99  11 2.99  12 2.99
                            28 3.03  23 3.03  22 3.03  29 3.03   1 3.48   2 3.48   4 3.48   5 3.48
   4  0.291  0.291  0.709-  15 2.85  16 2.85  21 2.85  18 2.85   9 2.99  10 2.99  12 2.99  13 2.99
                            26 3.03  24 3.03  23 3.03  29 3.03   2 3.48   3 3.48   5 3.48   6 3.48
   5  0.709  0.291  0.709-  18 2.85  20 2.85  17 2.85  15 2.85   8 2.99  10 2.99  11 2.99  13 2.99
                            23 3.03  26 3.03  28 3.03  25 3.03   1 3.48   3 3.48   4 3.48   6 3.48
   6  0.291  0.709  0.709-  18 2.85  19 2.85  17 2.85  16 2.85   8 2.99   9 2.99  11 2.99  12 2.99
                            24 3.03  26 3.03  27 3.03  25 3.03   1 3.48   2 3.48   4 3.48   5 3.48
   7  0.000  0.000  0.000-  17 2.50  21 2.50  16 2.50  14 2.50  18 2.50  19 2.50  20 2.50  15 2.50

   8  0.000  0.000  0.500-  23 2.42  24 2.42  27 2.42  28 2.42  14 2.57  18 2.57  17 2.57  21 2.57
                             2 2.99   3 2.99   5 2.99   6 2.99
   9  0.500  0.000  0.500-  25 2.42  29 2.42  27 2.42  23 2.42  14 2.57  16 2.57  18 2.57  20 2.57
                             1 2.99   3 2.99   4 2.99   6 2.99
  10  0.000  0.500  0.500-  25 2.42  29 2.42  28 2.42  24 2.42  14 2.57  15 2.57  18 2.57  19 2.57
                             1 2.99   2 2.99   4 2.99   5 2.99
  11  0.500  0.500  0.000-  25 2.42  29 2.42  26 2.42  22 2.42  15 2.57  16 2.57  19 2.57  20 2.57
                             2 2.99   3 2.99   5 2.99   6 2.99
  12  0.000  0.500  0.000-  22 2.42  24 2.42  26 2.42  28 2.42  15 2.57  19 2.57  17 2.57  21 2.57
                             1 2.99   3 2.99   4 2.99   6 2.99
  13  0.500  0.000  0.000-  22 2.42  23 2.42  26 2.42  27 2.42  16 2.57  20 2.57  17 2.57  21 2.57
                             1 2.99   2 2.99   4 2.99   5 2.99
  14  0.877  0.877  0.368-   7 2.50  25 2.51  24 2.51  23 2.51   8 2.57  10 2.57   9 2.57   2 2.85
                             3 2.85   1 2.85
  15  0.877  0.368  0.877-   7 2.50  25 2.51  24 2.51  22 2.51  12 2.57  10 2.57  11 2.57   4 2.85
                             3 2.85   5 2.85
  16  0.368  0.877  0.877-   7 2.50  25 2.51  23 2.51  22 2.51  13 2.57   9 2.57  11 2.57   4 2.85
                             2 2.85   6 2.85
  17  0.877  0.877  0.877-   7 2.50  23 2.51  24 2.51  22 2.51   8 2.57  12 2.57  13 2.57   6 2.85
                             1 2.85   5 2.85
  18  0.123  0.123  0.632-   7 2.50  29 2.51  28 2.51  27 2.51   8 2.57  10 2.57   9 2.57   5 2.85
                             6 2.85   4 2.85
  19  0.123  0.632  0.123-   7 2.50  29 2.51  28 2.51  26 2.51  12 2.57  10 2.57  11 2.57   1 2.85
                             6 2.85   2 2.85
  20  0.632  0.123  0.123-   7 2.50  29 2.51  27 2.51  26 2.51  13 2.57   9 2.57  11 2.57   5 2.85
                             1 2.85   3 2.85
  21  0.123  0.123  0.123-   7 2.50  27 2.51  28 2.51  26 2.51   8 2.57  12 2.57  13 2.57   3 2.85
                             4 2.85   2 2.85
  22  0.680  0.680  0.959-  23 2.32  24 2.32  25 2.32  13 2.42  12 2.42  11 2.42  17 2.51  15 2.51
                            16 2.51   1 3.03   3 3.03   2 3.03
  23  0.680  0.959  0.680-  22 2.32  24 2.32  25 2.32  13 2.42   8 2.42   9 2.42  17 2.51  14 2.51
                            16 2.51   5 3.03   3 3.03   4 3.03
  24  0.959  0.680  0.680-  22 2.32  23 2.32  25 2.32  12 2.42   8 2.42  10 2.42  17 2.51  14 2.51
                            15 2.51   6 3.03   2 3.03   4 3.03
  25  0.680  0.680  0.680-  22 2.32  23 2.32  24 2.32   9 2.42  10 2.42  11 2.42  14 2.51  15 2.51
                            16 2.51   1 3.03   5 3.03   6 3.03
  26  0.320  0.320  0.041-  27 2.32  28 2.32  29 2.32  13 2.42  12 2.42  11 2.42  21 2.51  19 2.51
                            20 2.51   4 3.03   6 3.03   5 3.03
  27  0.320  0.041  0.320-  26 2.32  28 2.32  29 2.32  13 2.42   8 2.42   9 2.42  21 2.51  18 2.51
                            20 2.51   2 3.03   6 3.03   1 3.03
  28  0.041  0.320  0.320-  26 2.32  27 2.32  29 2.32  12 2.42   8 2.42  10 2.42  21 2.51  18 2.51
                            19 2.51   3 3.03   5 3.03   1 3.03
  29  0.320  0.320  0.320-  26 2.32  27 2.32  28 2.32   9 2.42  10 2.42  11 2.42  18 2.51  19 2.51
                            20 2.51   2 3.03   3 3.03   4 3.03

  LATTYP: Found a face centered cubic cell.
 ALAT       =    11.7858240000

  Lattice vectors:

 A1 = (   0.0000000000,   5.8929120000,   5.8929120000)
 A2 = (   5.8929120000,   0.0000000000,   5.8929120000)
 A3 = (   5.8929120000,   5.8929120000,   0.0000000000)

Analysis of symmetry for initial positions (statically):
 Subroutine PRICEL returns:
 Original cell was already a primitive cell.

 Routine SETGRP: Setting up the symmetry group for a
 face centered cubic supercell.

 Subroutine GETGRP returns: Found 48 space group operations
 (whereof 48 operations were pure point group operations)
 out of a pool of 48 trial point group operations.

The static configuration has the point symmetry O_h .

Analysis of symmetry for dynamics (positions and initial velocities):
 Subroutine PRICEL returns:
 Original cell was already a primitive cell.

[...]

The dynamic configuration has the point symmetry O_h .

Analysis of structural, dynamic, and magnetic symmetry:
 Subroutine PRICEL returns:
 Original cell was already a primitive cell.

 Routine SETGRP: Setting up the symmetry group for a
 face centered cubic supercell.

 Subroutine GETGRP returns: Found 48 space group operations
 (whereof 48 operations were pure point group operations)
 out of a pool of 48 trial point group operations.

The overall configuration has the point symmetry O_h .

 Subroutine INISYM returns: Found 48 space group operations
 (whereof 48 operations are pure point group operations),
 and found     1 'primitive' translations

                                     Primitive cell

  volume of cell :     409.2794

  direct lattice vectors                    reciprocal lattice vectors
     0.000000000  5.892912000  5.892912000    -0.084847695  0.084847695  0.084847695
     5.892912000  0.000000000  5.892912000     0.084847695 -0.084847695  0.084847695
     5.892912000  5.892912000  0.000000000     0.084847695  0.084847695 -0.084847695

  length of vectors
     8.333836072  8.333836072  8.333836072     0.146960519  0.146960519  0.146960519

  position of ions in fractional coordinates (direct lattice)
     0.709031000  0.709031000  0.290969000
     0.290969000  0.709031000  0.290969000
     0.709031000  0.290969000  0.290969000
     0.290969000  0.290969000  0.709031000
     0.709031000  0.290969000  0.709031000
     0.290969000  0.709031000  0.709031000
     0.000000000  0.000000000  0.000000000
     0.000000000  1.000000000  0.500000000
     0.500000000  0.000000000  0.500000000
     0.000000000  0.500000000  0.500000000
     0.500000000  0.500000000  1.000000000
     0.000000000  0.500000000  1.000000000
     0.500000000  0.000000000  1.000000000
     0.877379000  0.877379000  0.367864000
     0.877379000  0.367864000  0.877379000
     0.367864000  0.877379000  0.877379000
     0.877379000  0.877379000  0.877379000
     0.122621000  0.122621000  0.632136000
     0.122621000  0.632136000  0.122621000
     0.632136000  0.122621000  0.122621000
     0.122621000  0.122621000  0.122621000
     0.680371000  0.680371000  0.958888000
     0.680371000  0.958888000  0.680371000
     0.958888000  0.680371000  0.680371000
     0.680371000  0.680371000  0.680371000
     0.319629000  0.319629000  0.041112000
     0.319629000  0.041112000  0.319629000
     0.041112000  0.319629000  0.319629000
     0.319629000  0.319629000  0.319629000

  ion indices of the primitive-cell ions
   primitive index   ion index
                 1           1
                 2           2
                 3           3
[...]
  292                  map_gather                            0.000048                  2   8
  293                  m_alltoallv_z                         0.000026                  2   8
  294                  map_scatter                           0.000116                  2   8
  295                map_backward                          0.000106                    2   7
  296                  map_gather                            0.000027                  1   8
  297                  m_alltoallv_z                         0.000011                  1   8
  298                  map_scatter                           0.000053                  1   8
  299          m_sumb_d                              0.000009                          2   4
  300          pothar                                0.000092                          1   4
  301            m_sumb_d                              0.000014                        1   5
  302        brmix                                 0.015565                            1   3
  303          m_sumb_d                              0.000061                          6   4
  304          brpre                                 0.000043                          2   4
  305          setg0                                 0.001836                          1   4
  306          broyd                                 0.011284                          1   4
  307            m_sumb_d                              0.000868                       51   5
  308            brget                                 0.002167                      229   5
  309            brsav                                 0.000445                       49   5
  310        m_bcast_d                             0.000030                            2   3
  311      potlok                                0.059204                              2   2
  312        fft3d_mpi                             0.041070                           36   3
  313          fftbrc_mpi                            0.031412                         36   4
  314            fftbas_plan_mpi                       0.031402                       36   5
  315              map_forward                           0.009186                     40   6
  316                map_gather                            0.002687                   24   7
  317                m_alltoallv_z                         0.003659                   24   7
  318                map_scatter                           0.002612                   24   7
  319              map_backward                          0.007576                     32   6
  320                map_gather                            0.002448                   16   7
  321                m_alltoallv_z                         0.002644                   16   7
  322                map_scatter                           0.002280                   16   7
  323              dfftw_execute                         0.013304                     30   6
  324        m_sumb_d                              0.000029                            5   3
  325        pothar                                0.002550                            2   3
  326          m_sumb_d                              0.000207                          2   4
  327        m_bcast_d                             0.004335                            4   3
  328      potlok_metagga                        0.000001                              1   2
  329      set_dd_magatom                        0.000004                              1   2
  330      set_dd_paw                            4.835611                              1   2
  331        m_sumb_d                              0.923162                            7   3
  332      augmentation_charge                   0.329498                              1   2
  333        fft3d_mpi                             0.115881                            2   3
  334          fftbrc_mpi                            0.100503                          2   4
  335            fftbas_plan_mpi                       0.100499                        2   5
  336              dfftw_execute                         0.066764                      6   6
  337              map_backward                          0.033523                      4   6
  338                map_gather                            0.011737                    2   7
  339                m_alltoallv_z                         0.010978                    2   7
  340                map_scatter                           0.010797                    2   7
  341      fftwav_mpi                            3.099472                           2040   2
  342        fftwav                                3.096917                         2040   3
  343          fft3d                                 2.834660                       2040   4
  344      densta                                0.004152                              1   2
  345        m_sumb_d                              0.001657                           42   3

 Flat profile

 set_dd_paw                            242.343936          62
 m_sumb_d                               74.803661      233601
 raccmu_                                46.679703       74934
 eddav                                  41.879345          64
 lapack                                 32.432839       74934
 total_time                             21.988304           1
 redis_pw                               17.554877      400212
 setdij_                                17.412513          88
 augmentation_charge                    13.108953          61
 init_acc                               10.883558           1
 dfftw_execute                           9.697371        1920
 m_alltoall_d                            7.859582     1079868
 fft3d                                   6.069017      436723
 phaser                                  5.083390         564
 eccp                                    4.843215       43520
 orth1                                   4.084248      224890
 redis_proj                              3.485102      504264
 fft3d_mpi                               3.408191      149815
 fftwav                                  3.044117      289159
 acc_init_cublas                         2.471769           1
 hamiltmu                                2.437587       74934
 rpromu_acc                              2.401317       55206
 racc0mu_acc                             2.186646       74934
 w1_copy                                 2.170001      442692
 m_alltoallv_z                           2.135402        2515
 overl                                   2.131444      251616
 m_bcast_z                               1.861072       77654
 map_scatter                             1.721510        2515
 soft_charge                             1.645399          60
 map_gather                              1.620993        2515
 setup_precond                           1.592748       43520
 set_charge                              1.370408          60
 ggemm                                   1.292603       96950
 m_bcast_d                               1.232117      149997
 overl_mu                                1.162806       74934
 pw_charge                               0.968912       26671
 acc_init_cusolver                       0.800630           1
 vhamil                                  0.721038      147564
 kinhamil                                0.710604      147564
 depsum                                  0.675506          60
 newband                                 0.662907       75446
 rspher_all                              0.630049          14
 fftext_mpi                              0.626268      147564
 apply_precond                           0.580179      104044
 rpro_isp                                0.464586          52
 fftwav_mpi                              0.386610      289159
 potlok                                  0.377227          62
 broyd                                   0.244043          60
 brmix                                   0.192444          60
 elmin                                   0.171201           1
 sphpro_fast                             0.170953           2
 fftbas_plan_mpi                         0.118987        2251
 setg0                                   0.113794          62
 acc_cufft_makeplan                      0.100158          19
 brget                                   0.083646        8985
 proall                                  0.076900           1
 w1_projall                              0.055122       52918
 densta                                  0.033820          65
 stufak                                  0.023907           1
 lincom                                  0.022857         520
 orthch                                  0.022247           1
 force_and_stress                        0.021759           1
 brsav                                   0.020846        2282
 truncate_high_frequency_w1              0.015682      191084
 map_forward                             0.014402        2144
 map_backward                            0.013656        2358
 choleski                                0.010038           8
 fft_gq                                  0.009608          60
 pothar                                  0.007556          63
 inisym                                  0.006587           1
 strelo                                  0.003300           1
 strnlr                                  0.003176           1
 brpre                                   0.002819         120
 forhar                                  0.002709           2
 strehar                                 0.002530           1
 fftbrc_mpi                              0.001511        2251
 forloc                                  0.001411           1
 strkin                                  0.001216           1
 rsp                                     0.001192           1
 fornlr                                  0.001082           1
 fewald                                  0.000336           1
 set_dd_magatom                          0.000333          62
 brgrid                                  0.000327           1
 posmap                                  0.000284           2
 chggra                                  0.000259           1
 vectorpot                               0.000257          61
 fordep                                  0.000209           1
 rcp                                     0.000049           1
 crpa_reader                             0.000029           1
 acc_cufft_makeplans                     0.000010           3
 potlok_metagga                          0.000008          61
 redis_pw_over_bands                     0.000001           1
 rotate_active_occupied_orbital          0.000000           1
  summed up times     605.2735209465027

 Accumulative profile

 total_time                            605.273521           1
 elmin                                 542.510674           1
 set_dd_paw                            299.750008          62
 eddav                                 205.720990          64
 m_sumb_d                               74.803661      233601
 hamiltmu                               55.614841       74934
 raccmu_                                50.029155       74934
 lapack                                 32.432839       74934
 set_charge                             27.107587          60
 setdij_                                26.847257          88
 redis_pw                               21.442401      400212
 augmentation_charge                    20.291010          61
 fft3d_mpi                              19.777937      149815
 force_and_stress                       15.742923           1
 fftbrc_mpi                             15.323832        2251
 fftbas_plan_mpi                        15.322321        2251
 init_acc                               10.883558           1
 newband                                10.550718       75446
 dfftw_execute                           9.697371        1920
 fftwav_mpi                              8.453830      289159
 fftwav                                  8.067220      289159
 m_alltoall_d                            7.859582     1079868
 redis_proj                              7.457160      504264
 fft3d                                   6.069017      436723
 phaser                                  5.083390         564
 soft_charge                             4.894270          60
 eccp                                    4.843215       43520
 orth1                                   4.084248      224890
 map_backward                            2.791484        2358
 map_forward                             2.714479        2144
 acc_init_cublas                         2.471769           1
 kinhamil                                2.427061      147564
 rpromu_acc                              2.401317       55206
 racc0mu_acc                             2.186646       74934
 w1_copy                                 2.170001      442692
 m_alltoallv_z                           2.135402        2515
 overl                                   2.131444      251616
 strnlr                                  1.881820           1
 m_bcast_z                               1.861072       77654
 fordep                                  1.825973           1
 map_scatter                             1.721510        2515
 fftext_mpi                              1.716458      147564
 w1_projall                              1.656144       52918
 map_gather                              1.620993        2515
 setup_precond                           1.592748       43520
 rpro_isp                                1.553483          52
 ggemm                                   1.292603       96950
 m_bcast_d                               1.232117      149997
 overl_mu                                1.162806       74934
 fft_gq                                  1.146380          60
 pw_charge                               0.968912       26671
 potlok                                  0.875855          62
 acc_init_cusolver                       0.800630           1
 vhamil                                  0.721038      147564
 brmix                                   0.708548          60
 depsum                                  0.696001          60
 rspher_all                              0.630049          14
 fornlr                                  0.625569           1
 apply_precond                           0.580179      104044
 broyd                                   0.392998          60
 orthch                                  0.294582           1
 sphpro_fast                             0.178046           2
 proall                                  0.176114           1
 setg0                                   0.113794          62
 acc_cufft_makeplans                     0.100168           3
 acc_cufft_makeplan                      0.100158          19
 brget                                   0.083646        8985
 densta                                  0.048844          65
 stufak                                  0.023907           1
 lincom                                  0.022857         520
 brsav                                   0.020846        2282
 truncate_high_frequency_w1              0.015682      191084
 choleski                                0.010038           8
 pothar                                  0.008349          63
 inisym                                  0.006871           1
 strelo                                  0.003310           1
 brpre                                   0.002819         120
 forhar                                  0.002756           2
 strehar                                 0.002537           1
 fewald                                  0.001724           1
 forloc                                  0.001453           1
 strkin                                  0.001226           1
 rsp                                     0.001192           1
 chggra                                  0.000891           1
 set_dd_magatom                          0.000333          62
 brgrid                                  0.000327           1
 posmap                                  0.000284           2
 vectorpot                               0.000257          61
 rcp                                     0.000049           1
 crpa_reader                             0.000029           1
 potlok_metagga                          0.000008          61
 redis_pw_over_bands                     0.000001           1
 rotate_active_occupied_orbital          0.000000           1

Profiling took   0.940374  0.448244  0.003221  0.003108 seconds
Profiling took   0.582970 seconds