 vasp.6.3.2 27Jun22 (build Jul  3 2023 11:46:21) complex
 executed on    LinuxNV_CrayMPICH date 2024.04.22  02:17:19

 INCAR:
   ADDGRID = True
   ALGO = Normal
   EDIFF = 0.00065
   ENCUT = 520.0
   IBRION = -1
   ICHARG = 0
   ISIF = 3
   ISMEAR = -5
   ISPIN = 2
   KPOINT_BSE = -1 0 0 0
   LAECHG = True
   LASPH = True
   LCHARG = True
   LELF = True
   LORBIT = 11
   LREAL = Auto
   LVHAR = True
   LWAVE = False
   MAGMOM = 2*7.0 11*0.6
   NELM = 1000
   NSW = 0
   PREC = accurate
   SIGMA = 0.05

 POTCAR:    PAW_PBE Eu 23Dec2003
 POTCAR:    PAW_PBE Al 04Jan2001
 POTCAR:    PAW_PBE P 06Sep2000
 POTCAR:    PAW_PBE Pt 04Feb2005
 POTCAR:    PAW_PBE Eu 23Dec2003
   VRHFIN =Eu : [core=Kr4d]

   TITEL  = PAW_PBE Eu 23Dec2003
   POMASS =  151.965; ZVAL   =   17.000    mass and valenz
   ENMAX  =  249.668; ENMIN  =  187.251 eV

   TITEL  = PAW_PBE Al 04Jan2001
   POMASS =   26.981; ZVAL   =    3.000    mass and valenz
   ENMAX  =  240.300; ENMIN  =  180.225 eV

   TITEL  = PAW_PBE P 06Sep2000
   POMASS =   30.974; ZVAL   =    5.000    mass and valenz
   ENMAX  =  255.040; ENMIN  =  191.280 eV

   TITEL  = PAW_PBE Pt 04Feb2005
   POMASS =  195.080; ZVAL   =   10.000    mass and valenz
   ENMAX  =  230.283; ENMIN  =  172.712 eV

 Optimization of the real space projectors (new method)

 maximal supplied QI-value         = 13.42
 optimisation between [QCUT,QGAM] = [ 11.67, 23.35] = [ 38.16,152.62] Ry
 Optimized for a Real-space Cutoff    1.63 Angstroem

   l    n(q)    QCUT    max X(q) W(low)/X(q) W(high)/X(q)  e(spline)
   0     11    11.673    10.400    0.14E-04    0.18E-05    0.24E-07
   0     11    11.673    10.768    0.21E-04    0.32E-05    0.49E-07
   1     11    11.673     4.094    0.40E-05    0.13E-04    0.93E-07
   1     11    11.673     4.009    0.11E-04    0.46E-04    0.33E-06
   2     10    11.673    29.030    0.79E-04    0.60E-04    0.70E-06
   2     10    11.673    19.941    0.80E-04    0.60E-04    0.71E-06
   3     10    11.673    88.889    0.23E-03    0.29E-03    0.30E-06
   3     10    11.673    76.102    0.23E-03    0.30E-03    0.30E-06
 Optimization of the real space projectors (new method)

[...]

   l    n(q)    QCUT    max X(q) W(low)/X(q) W(high)/X(q)  e(spline)
   0      8    11.508   160.924    0.96E-04    0.17E-03    0.52E-07
   0      8    11.508   130.086    0.95E-04    0.17E-03    0.51E-07
   1      8    11.508    74.434    0.16E-03    0.74E-04    0.91E-07
   1      8    11.508    49.120    0.16E-03    0.71E-04    0.89E-07
 Optimization of the real space projectors (new method)

 maximal supplied QI-value         = 14.36
 optimisation between [QCUT,QGAM] = [ 11.63, 23.27] = [ 37.90,151.59] Ry
 Optimized for a Real-space Cutoff    1.49 Angstroem

   l    n(q)    QCUT    max X(q) W(low)/X(q) W(high)/X(q)  e(spline)
   2      9    11.633    66.195    0.24E-03    0.97E-04    0.19E-06
   2      9    11.633    64.643    0.25E-03    0.98E-04    0.20E-06
   0     10    11.633    95.520    0.71E-04    0.29E-04    0.12E-06
   0     10    11.633    63.403    0.69E-04    0.28E-04    0.12E-06
   1     10    11.633    19.961    0.61E-04    0.16E-03    0.11E-06
   1     10    11.633    13.289    0.50E-04    0.13E-03    0.90E-07
  PAW_PBE Eu 23Dec2003                  :
  PAW_PBE Al 04Jan2001                  :
  PAW_PBE P 06Sep2000                   :
  PAW_PBE Pt 04Feb2005                  :

 POSCAR: Eu2 Al1 P3 Pt7
  positions in direct lattice
 exchange correlation table for  LEXCH =        8
   RHO(1)=    0.500       N(1)  =     2000
   RHO(2)=  100.500       N(2)  =     4000

 VTST: version 4.2, (08/11/21)

 CHAIN: initializing optimizer

 OPT: Using VASP Dynamics algorithm
 CHAIN: Read ICHAIN             0

 POSCAR: Eu2 Al1 P3 Pt7
  positions in direct lattice

 ion  position               nearest neighbor table
   1  0.665  0.665  0.000-   6 3.07   6 3.07  12 3.10  12 3.10  12 3.10  12 3.10   5 3.14   5 3.14
                             5 3.14   5 3.14  10 3.27  10 3.27   9 3.30   9 3.30  11 3.47
   2  0.335  0.335  0.000-   6 3.07   6 3.07  11 3.10  11 3.10  11 3.10  11 3.10   4 3.14   4 3.14
                             4 3.14   4 3.14   7 3.27   7 3.27   8 3.30   8 3.30  12 3.47
   3  0.500  0.500  0.000-   9 2.79   8 2.79   9 2.79   8 2.79  10 2.82   7 2.82   7 2.82  10 2.82
                            13 2.89  13 2.89  13 2.89  13 2.89
   4  0.880  0.880  0.000-  11 2.37   7 2.43   7 2.43   8 2.45   8 2.45   2 3.14   2 3.14   2 3.14
                             2 3.14
   5  0.120  0.120  0.000-  12 2.37  10 2.43  10 2.43   9 2.45   9 2.45   1 3.14   1 3.14   1 3.14
                             1 3.14
   6  0.750  0.250  0.500-  12 2.35  12 2.35  11 2.35  11 2.35   1 3.07   2 3.07   2 3.07   1 3.07

   7  0.428  0.928  0.500-   4 2.43   4 2.43  13 2.82   3 2.82  13 2.82   3 2.82   8 2.89   8 2.89
                             8 2.89   8 2.89   2 3.27   2 3.27
   8  0.930  0.430  0.500-   4 2.45   4 2.45   3 2.79  13 2.79  13 2.79   3 2.79   7 2.89   7 2.89
                             7 2.89   7 2.89   2 3.30   2 3.30
   9  0.570  0.070  0.500-   5 2.45   5 2.45   3 2.79  13 2.79  13 2.79   3 2.79  10 2.89  10 2.89
                            10 2.89  10 2.89   1 3.30   1 3.30
  10  0.072  0.572  0.500-   5 2.43   5 2.43  13 2.82   3 2.82  13 2.82   3 2.82   9 2.89   9 2.89
                             9 2.89   9 2.89   1 3.27   1 3.27
  11  0.793  0.793  0.000-   6 2.35   6 2.35   4 2.37   2 3.10   2 3.10   2 3.10   2 3.10   1 3.47

  12  0.207  0.207  0.000-   6 2.35   6 2.35   5 2.37   1 3.10   1 3.10   1 3.10   1 3.10   2 3.47

  13  0.000  0.000  0.000-   9 2.79   8 2.79   9 2.79   8 2.79  10 2.82   7 2.82  10 2.82   7 2.82
                             3 2.89   3 2.89   3 2.89   3 2.89

  LATTYP: Found a body centered tetragonal cell.
 ALAT       =     4.0827440000
 C/A-ratio  =     6.6555257934

  Lattice vectors:

 A1 = (  -2.0413720000,   2.0413720000,  13.5864040000)
 A2 = (   2.0413720000,  -2.0413720000,  13.5864040000)
 A3 = (   2.0413720000,   2.0413720000, -13.5864040000)

Analysis of symmetry for initial positions (statically):
 Subroutine PRICEL returns:
 Original cell was already a primitive cell.

 Routine SETGRP: Setting up the symmetry group for a
 body centered tetragonal supercell.

 Subroutine GETGRP returns: Found  8 space group operations
 (whereof  8 operations were pure point group operations)
 out of a pool of 16 trial point group operations.

The static configuration has the point symmetry D_2d.

Analysis of symmetry for dynamics (positions and initial velocities):
 Subroutine PRICEL returns:
 Original cell was already a primitive cell.

[...]

The dynamic configuration has the point symmetry D_2d.

Analysis of structural, dynamic, and magnetic symmetry:
 Subroutine PRICEL returns:
 Original cell was already a primitive cell.

 Routine SETGRP: Setting up the symmetry group for a
 body centered tetragonal supercell.

 Subroutine GETGRP returns: Found  8 space group operations
 (whereof  8 operations were pure point group operations)
 out of a pool of 16 trial point group operations.

The overall configuration has the point symmetry D_2d.

 Subroutine INISYM returns: Found  8 space group operations
 (whereof  8 operations are pure point group operations),
 and found     1 'primitive' translations

                                     Primitive cell

  volume of cell :     226.4690

  direct lattice vectors                    reciprocal lattice vectors
    -2.041372000  2.041372000 13.586404000     0.000000000  0.244933310  0.036801497
     2.041372000 -2.041372000 13.586404000     0.244933310  0.000000000  0.036801497
     2.041372000  2.041372000-13.586404000     0.244933310  0.244933310  0.000000000

  length of vectors
    13.889736244 13.889736244 13.889736244     0.247682612  0.247682612  0.346388008

  position of ions in fractional coordinates (direct lattice)
     0.665404000  0.665404000  0.000000000
     0.334596000  0.334596000  0.000000000
     0.500000000  0.500000000  0.000000000
     0.880017000  0.880017000  0.000000000
     0.119983000  0.119983000  0.000000000
     0.750000000  0.250000000  0.500000000
     0.428451000  0.928451000  0.500000000
     0.929889000  0.429889000  0.500000000
     0.570111000  0.070111000  0.500000000
     0.071549000  0.571549000  0.500000000
     0.792923000  0.792923000  0.000000000
     0.207077000  0.207077000  0.000000000
     0.000000000  0.000000000  0.000000000

  ion indices of the primitive-cell ions
   primitive index   ion index
                 1           1
                 2           2
                 3           3
                 4           4
                 5           5
                 6           6
                 7           7
                 8           8
                 9           9
                10          10
                11          11
                12          12
                13          13

 KPOINTS: Kpoints from vasprun.xml

Automatic generation of k-mesh.
 Grid dimensions read from file:
 generate k-points for:    4    4    4

 Generating k-lattice:

  Cartesian coordinates                     Fractional coordinates (reciprocal lattice)
     0.000000000  0.061233327  0.009200374     0.250000000 -0.000000000  0.000000000
     0.061233327  0.000000000  0.009200374    -0.000000000  0.250000000  0.000000000
     0.061233327  0.061233327  0.000000000     0.000000000  0.000000000  0.250000000

  Length of vectors
     0.061920653  0.061920653  0.086597002

  Shift w.r.t. Gamma in fractional coordinates (k-lattice)
     0.000000000  0.000000000  0.000000000

 TETIRR: Found     80 inequivalent tetrahedra from      384

 Subroutine IBZKPT returns following result:

 Found     13 irreducible k-points:

 Following reciprocal coordinates:
            Coordinates               Weight
  0.000000  0.000000  0.000000      1.000000
  0.250000  0.000000  0.000000      8.000000
  0.500000  0.000000  0.000000      4.000000
  0.250000  0.250000  0.000000      8.000000
  0.500000  0.250000  0.000000     16.000000
 -0.250000  0.250000  0.000000      4.000000
  0.500000  0.500000  0.000000      2.000000
  0.250000  0.250000  0.250000      2.000000
 -0.250000  0.250000  0.250000      4.000000
  0.500000  0.500000  0.250000      4.000000
 -0.250000  0.500000  0.250000      8.000000
 -0.250000 -0.250000  0.250000      2.000000
  0.500000  0.500000  0.500000      1.000000

 Following cartesian coordinates:
            Coordinates               Weight
  0.000000  0.000000  0.000000      1.000000
  0.000000  0.061233  0.009200      8.000000
  0.000000  0.122467  0.018401      4.000000
  0.061233  0.061233  0.018401      8.000000
  0.061233  0.122467  0.027601     16.000000
  0.061233 -0.061233  0.000000      4.000000
  0.122467  0.122467  0.036801      2.000000
  0.122467  0.122467  0.018401      2.000000
  0.122467  0.000000  0.000000      4.000000
  0.183700  0.183700  0.036801      4.000000
  0.183700  0.000000  0.009200      8.000000
  0.000000  0.000000 -0.018401      2.000000
  0.244933  0.244933  0.036801      1.000000

 SYSTEM =  unknown system
 POSCAR =  Eu2 Al1 P3 Pt7

 Startparameter for this run:
   NWRITE =      2    write-flag & timer
[...]
  318                map_forward                           0.000872                    4   7
  319                  map_gather                            0.000142                  2   8
  320                  m_alltoallv_z                         0.000031                  2   8
  321                  map_scatter                           0.000627                  2   8
  322                map_backward                          0.000301                    2   7
  323                  map_gather                            0.000073                  1   8
  324                  m_alltoallv_z                         0.000014                  1   8
  325                  map_scatter                           0.000180                  1   8
  326          m_sumb_d                              0.000012                          2   4
  327          pothar                                0.000168                          1   4
  328            m_sumb_d                              0.000013                        1   5
  329        brmix                                 0.066166                            1   3
  330          m_sumb_d                              0.000110                          6   4
  331          brpre                                 0.000186                          2   4
  332          setg0                                 0.010295                          1   4
  333          broyd                                 0.044855                          1   4
  334            m_sumb_d                              0.001010                       51   5
  335            brget                                 0.008496                      229   5
  336            brsav                                 0.002031                       49   5
  337        m_bcast_d                             0.000141                            2   3
  338      potlok                                0.290920                              2   2
  339        fft3d_mpi                             0.204367                           36   3
  340          fftbrc_mpi                            0.171958                         36   4
  341            fftbas_plan_mpi                       0.171925                       36   5
  342              map_forward                           0.045125                     40   6
  343                map_gather                            0.012144                   24   7
  344                m_alltoallv_z                         0.015595                   24   7
  345                map_scatter                           0.016928                   24   7
  346              map_backward                          0.036639                     32   6
  347                map_gather                            0.007335                   16   7
  348                m_alltoallv_z                         0.013203                   16   7
  349                map_scatter                           0.015674                   16   7
  350              dfftw_execute                         0.087959                     30   6
  351        m_sumb_d                              0.000044                            5   3
  352        pothar                                0.014386                            2   3
  353          m_sumb_d                              0.000904                          2   4
  354        m_bcast_d                             0.020286                            4   3
  355      potlok_metagga                        0.000000                              1   2
  356      set_dd_magatom                        0.000004                              1   2
  357      set_dd_paw                            2.073754                              1   2
  358        m_sumb_d                              0.920758                            7   3
  359      augmentation_charge                   2.081915                              1   2
  360        fft3d_mpi                             0.575133                            2   3
  361          fftbrc_mpi                            0.505458                          2   4
  362            fftbas_plan_mpi                       0.505454                        2   5
  363              dfftw_execute                         0.328263                      6   6
  364              map_backward                          0.176883                      4   6
  365                map_gather                            0.062891                    2   7
  366                m_alltoallv_z                         0.036893                    2   7
  367                map_scatter                           0.077084                    2   7
  368      fftwav_mpi                           14.470951                           1638   2
  369        fftwav                               14.465756                         1638   3
  370          fft3d                                13.605161                       1638   4
  371      densta                                1.114460                              1   2

 Flat profile

 raccmu_                               883.308491      180124
 setdij_                               263.235691         178
 augmentation_charge                   228.259060         152
 m_sumb_d                              212.493822      558278
 phaser                                199.447503        4173
 set_dd_paw                            172.948455         152
 eddav                                 160.574610         154
 dfftw_execute                         120.884075        4092
 total_time                             88.169328           1
 lapack                                 82.502056      180124
 redis_pw                               42.725024      945743
 hamiltmu                               26.524257      180124
 map_scatter                            24.794699        5941
 fft3d_mpi                              24.789798      345904
 fft3d                                  24.762829     1009732
 map_gather                             20.470438        5941
 m_alltoall_d                           17.505246     2470937
 set_charge                             16.196125         151
 eccp                                   15.574051       84084
 m_alltoallv_z                          15.488585        5941
 init_acc                               11.387100           1
 densta                                  9.765264         155
 fftwav                                  8.118852      669143
 redis_proj                              8.017562     1202274
 orth1                                   5.917457      540450
 pw_charge                               5.578709       63313
 rpromu_acc                              5.479000      138108
 racc0mu_acc                             5.276870      180124
 overl                                   5.128873      597120
 w1_copy                                 5.085171     1021767
 soft_charge                             4.576898         151
 m_bcast_z                               3.982223      182308
 broyd                                   3.841717         150
 potlok                                  3.564771         152
 m_bcast_d                               3.094087      360557
 setup_precond                           3.071183       84084
 overl_mu                                2.896016      180124
 rspher_all                              2.728286          14
 acc_init_cublas                         2.475013           1
 ggemm                                   2.325203      224168
 brmix                                   1.788414         150
 vhamil                                  1.678099      340589
 kinhamil                                1.612911      340589
 fftext_mpi                              1.593376      340589
 setg0                                   1.547548         152
 apply_precond                           1.424101      256505
 newband                                 1.406220      184128
 depsum                                  1.360096         151
 brget                                   1.158149       30801
 fftwav_mpi                              0.933494      669143
 acc_init_cusolver                       0.797185           1
 elmin                                   0.720860           1
 rpro_isp                                0.570061         169
 fftbas_plan_mpi                         0.331998        5315
 brsav                                   0.329275        8636
 w1_projall                              0.146407      136080
 lincom                                  0.144367        4030
 acc_cufft_makeplan                      0.140263          19
 fft_gq                                  0.095296         151
 proall                                  0.077750           1
 sphpro_fast                             0.073826           2
 map_forward                             0.068857        5024
 map_backward                            0.066670        5606
 stufak                                  0.054478           1
 force_and_stress                        0.047623           1
 pothar                                  0.040259         153
 truncate_high_frequency_w1              0.035695      424673
 brpre                                   0.029359         300
 forhar                                  0.020388           2
 orthch                                  0.013931           1
 strelo                                  0.013147           1
 strehar                                 0.011325           1
 forloc                                  0.010310           1
 choleski                                0.008507          26
 inisym                                  0.004462           1
 strnlr                                  0.004436           1
 fftbrc_mpi                              0.004236        5315
 fornlr                                  0.001482           1
 brgrid                                  0.001374           1
 set_dd_magatom                          0.000751         152
 rsp                                     0.000696           1
 strkin                                  0.000692           1
 vectorpot                               0.000649         151
 chggra                                  0.000591           1
 fewald                                  0.000422           1
 fordep                                  0.000094           1
 rcp                                     0.000029           1
 potlok_metagga                          0.000028         151
 crpa_reader                             0.000028           1
 posmap                                  0.000024           2
 acc_cufft_makeplans                     0.000010           3
 rotate_active_occupied_orbital          0.000000           1
 redis_pw_over_bands                     0.000000           1
  summed up times     2761.334640979767

 Accumulative profile

 total_time                           2761.334641           1
 elmin                                2551.385165           1
 eddav                                1553.246434         154
 hamiltmu                              925.676172      180124
 raccmu_                               891.481377      180124
 setdij_                               374.458102         178
 set_charge                            357.353897         151
 augmentation_charge                   317.081513         152
 set_dd_paw                            314.319710         152
 m_sumb_d                              212.493822      558278
 fft3d_mpi                             209.581541      345904
 phaser                                199.447503        4173
 fftbrc_mpi                            182.109558        5315
 fftbas_plan_mpi                       182.105322        5315
 dfftw_execute                         120.884075        4092
 lapack                                 82.502056      180124
 force_and_stress                       71.732929           1
 redis_pw                               51.455994      945743
 map_backward                           33.453255        5606
 fftwav_mpi                             31.132990      669143
 fftwav                                 30.199496      669143
 map_forward                            27.435994        5024
 newband                                26.708984      184128
 map_scatter                            24.794699        5941
 fft3d                                  24.762829     1009732
 soft_charge                            22.423476         151
 map_gather                             20.470438        5941
 m_alltoall_d                           17.505246     2470937
 redis_proj                             16.791837     1202274
 eccp                                   15.574051       84084
 m_alltoallv_z                          15.488585        5941
 fordep                                 12.627030           1
 init_acc                               11.387100           1
 densta                                  9.765264         155
 strnlr                                  9.309000           1
 brmix                                   8.818281         150
 kinhamil                                5.992438      340589
 orth1                                   5.917457      540450
 potlok                                  5.780831         152
 pw_charge                               5.578709       63313
 rpromu_acc                              5.479000      138108
 broyd                                   5.422619         150
 racc0mu_acc                             5.276870      180124
 overl                                   5.128873      597120
 w1_copy                                 5.085171     1021767
 fftext_mpi                              4.379527      340589
 w1_projall                              4.106766      136080
 m_bcast_z                               3.982223      182308
 fornlr                                  3.103383           1
 m_bcast_d                               3.094087      360557
 setup_precond                           3.071183       84084
 overl_mu                                2.896016      180124
 rspher_all                              2.728286          14
 fft_gq                                  2.631431         151
 acc_init_cublas                         2.475013           1
 rpro_isp                                2.384162         169
 ggemm                                   2.325203      224168
 vhamil                                  1.678099      340589
 setg0                                   1.547548         152
 depsum                                  1.528249         151
 apply_precond                           1.424101      256505
 brget                                   1.158149       30801
 acc_init_cusolver                       0.797185           1
 proall                                  0.732604           1
 brsav                                   0.329275        8636
 orthch                                  0.290833           1
 lincom                                  0.144367        4030
 acc_cufft_makeplans                     0.140273           3
 acc_cufft_makeplan                      0.140263          19
 sphpro_fast                             0.076437           2
 stufak                                  0.054478           1
 pothar                                  0.043774         153
 truncate_high_frequency_w1              0.035695      424673
 brpre                                   0.029359         300
 forhar                                  0.020809           2
 strelo                                  0.013160           1
 forloc                                  0.012384           1
 strehar                                 0.011345           1
 choleski                                0.008507          26
 inisym                                  0.004486           1
 chggra                                  0.002284           1
 brgrid                                  0.001374           1
 fewald                                  0.001242           1
 set_dd_magatom                          0.000751         152
 strkin                                  0.000699           1
 rsp                                     0.000696           1
 vectorpot                               0.000649         151
 rcp                                     0.000029           1
 potlok_metagga                          0.000028         151
 crpa_reader                             0.000028           1
 posmap                                  0.000024           2
 rotate_active_occupied_orbital          0.000000           1
 redis_pw_over_bands                     0.000000           1

Profiling took   2.241858  1.041475  0.003286  0.003141 seconds
Profiling took   1.346684 seconds