 vasp.6.3.2 27Jun22 (build Jul  3 2023 11:46:21) complex
 executed on    LinuxNV_CrayMPICH date 2024.04.21  02:10:23

 INCAR:
   ALGO = Normal
   EDIFF = 1e-05
   ENCUT = 520.0
   IBRION = -1
   ISIF = 3
   ISMEAR = -5
   ISPIN = 2
   LAECHG = True
   LASPH = True
   LCHARG = True
   LORBIT = 11
   LREAL = Auto
   LVHAR = True
   LWAVE = False
   MAGMOM = 1*7.0 3*0.6
   NELM = 1000
   NSW = 0
   PREC = Accurate
   SIGMA = 0.05

 POTCAR:    PAW_PBE Gd 23Dec2003
 POTCAR:    PAW_PBE Pd 04Jan2005
 POTCAR:    PAW_PBE Pt 04Feb2005
 POTCAR:    PAW_PBE Gd 23Dec2003
   VRHFIN =Gd : [core=Xe4]

   TITEL  = PAW_PBE Gd 23Dec2003
   POMASS =  157.250; ZVAL   =   18.000    mass and valenz
   ENMAX  =  256.472; ENMIN  =  192.354 eV

   TITEL  = PAW_PBE Pd 04Jan2005
   POMASS =  106.420; ZVAL   =   10.000    mass and valenz
   ENMAX  =  250.925; ENMIN  =  188.194 eV

   TITEL  = PAW_PBE Pt 04Feb2005
   POMASS =  195.080; ZVAL   =   10.000    mass and valenz
   ENMAX  =  230.283; ENMIN  =  172.712 eV

 Optimization of the real space projectors (new method)

 maximal supplied QI-value         = 13.42
 optimisation between [QCUT,QGAM] = [ 11.67, 23.35] = [ 38.16,152.62] Ry
 Optimized for a Real-space Cutoff    1.63 Angstroem

   l    n(q)    QCUT    max X(q) W(low)/X(q) W(high)/X(q)  e(spline)
   0     11    11.673    10.501    0.14E-04    0.17E-05    0.21E-07
   0     11    11.673     9.148    0.21E-04    0.32E-05    0.45E-07
   1     11    11.673     4.035    0.33E-05    0.11E-04    0.84E-07
   1     11    11.673     4.388    0.11E-04    0.47E-04    0.34E-06
   2     10    11.673    20.656    0.12E-04    0.28E-04    0.54E-06
   2     10    11.673    12.651    0.11E-04    0.26E-04    0.51E-06
   3     10    11.673    61.921    0.19E-03    0.22E-03    0.23E-06
   3     10    11.673    48.328    0.20E-03    0.23E-03    0.23E-06
 Optimization of the real space projectors (new method)

[...]

   l    n(q)    QCUT    max X(q) W(low)/X(q) W(high)/X(q)  e(spline)
   2      9    11.633    59.108    0.81E-04    0.17E-04    0.26E-06
   2      9    11.633    58.101    0.82E-04    0.18E-04    0.27E-06
   0     10    11.633   102.235    0.26E-04    0.16E-04    0.21E-06
   0     10    11.633    58.388    0.23E-04    0.15E-04    0.20E-06
   1     10    11.633    22.191    0.10E-03    0.20E-03    0.14E-06
   1     10    11.633    15.590    0.86E-04    0.17E-03    0.12E-06
 Optimization of the real space projectors (new method)

 maximal supplied QI-value         = 14.36
 optimisation between [QCUT,QGAM] = [ 11.63, 23.27] = [ 37.90,151.59] Ry
 Optimized for a Real-space Cutoff    1.49 Angstroem

   l    n(q)    QCUT    max X(q) W(low)/X(q) W(high)/X(q)  e(spline)
   2      9    11.633    66.195    0.24E-03    0.97E-04    0.19E-06
   2      9    11.633    64.643    0.25E-03    0.98E-04    0.20E-06
   0     10    11.633    95.520    0.71E-04    0.29E-04    0.12E-06
   0     10    11.633    63.403    0.69E-04    0.28E-04    0.12E-06
   1     10    11.633    19.961    0.61E-04    0.16E-03    0.11E-06
   1     10    11.633    13.289    0.50E-04    0.13E-03    0.90E-07
  PAW_PBE Gd 23Dec2003                  :
  PAW_PBE Pd 04Jan2005                  :
  PAW_PBE Pt 04Feb2005                  :

 POSCAR: Gd1 Pd2 Pt1
  positions in direct lattice
 exchange correlation table for  LEXCH =        8
   RHO(1)=    0.500       N(1)  =     2000
   RHO(2)=  100.500       N(2)  =     4000

 VTST: version 4.2, (08/11/21)

 CHAIN: initializing optimizer

 OPT: Using VASP Dynamics algorithm
 CHAIN: Read ICHAIN             0

 POSCAR: Gd1 Pd2 Pt1
  positions in direct lattice

 ion  position               nearest neighbor table
   1  0.000  0.000  0.000-   2 2.93   3 2.93   2 2.93   2 2.93   3 2.93   2 2.93   3 2.93   3 2.93
                             4 2.94   4 2.94   4 2.94   4 2.94
   2  0.000  0.500  0.500-   1 2.93   4 2.93   1 2.93   1 2.93   4 2.93   1 2.93   4 2.93   4 2.93
                             3 2.94   3 2.94   3 2.94   3 2.94
   3  0.500  0.500  0.000-   1 2.93   4 2.93   4 2.93   1 2.93   4 2.93   4 2.93   1 2.93   1 2.93
                             2 2.94   2 2.94   2 2.94   2 2.94
   4  0.500  0.000  0.500-   2 2.93   3 2.93   3 2.93   2 2.93   3 2.93   3 2.93   2 2.93   2 2.93
                             1 2.94   1 2.94   1 2.94   1 2.94

  LATTYP: Found a simple tetragonal cell.
 ALAT       =     4.1595770000
 C/A-ratio  =     0.9938777429

  Lattice vectors:

 A1 = (   0.0000000000,  -4.1595770000,   0.0000000000)
 A2 = (   4.1595770000,   0.0000000000,   0.0000000000)
 A3 = (   0.0000000000,   0.0000000000,   4.1341110000)

Analysis of symmetry for initial positions (statically):
 Subroutine PRICEL returns:
 Original cell was already a primitive cell.

 Routine SETGRP: Setting up the symmetry group for a
 simple tetragonal supercell.

 Subroutine GETGRP returns: Found 16 space group operations
 (whereof 16 operations were pure point group operations)
 out of a pool of 16 trial point group operations.

The static configuration has the point symmetry D_4h.

Analysis of symmetry for dynamics (positions and initial velocities):
 Subroutine PRICEL returns:
 Original cell was already a primitive cell.

[...]

The dynamic configuration has the point symmetry D_4h.

Analysis of structural, dynamic, and magnetic symmetry:
 Subroutine PRICEL returns:
 Original cell was already a primitive cell.

 Routine SETGRP: Setting up the symmetry group for a
 simple tetragonal supercell.

 Subroutine GETGRP returns: Found 16 space group operations
 (whereof 16 operations were pure point group operations)
 out of a pool of 16 trial point group operations.

The overall configuration has the point symmetry D_4h.

 Subroutine INISYM returns: Found 16 space group operations
 (whereof 16 operations are pure point group operations),
 and found     1 'primitive' translations

                                     Primitive cell

  volume of cell :      71.5287

  direct lattice vectors                    reciprocal lattice vectors
     0.000000000  4.159577000  0.000000000     0.000000000  0.240409061  0.000000000
     0.000000000  0.000000000  4.134111000     0.000000000  0.000000000  0.241889973
     4.159577000  0.000000000  0.000000000     0.240409061  0.000000000  0.000000000

  length of vectors
     4.159577000  4.134111000  4.159577000     0.240409061  0.241889973  0.240409061

  position of ions in fractional coordinates (direct lattice)
     0.000000000  0.000000000  0.000000000
     0.000000000  0.500000000  0.500000000
     0.500000000  0.500000000  0.000000000
     0.500000000  0.000000000  0.500000000

  ion indices of the primitive-cell ions
   primitive index   ion index
                 1           1
                 2           2
                 3           3
                 4           4

 KPOINTS: Kpoints from vasprun.xml

Automatic generation of k-mesh.
 Grid dimensions read from file:
 generate k-points for:    7    7    7

 Generating k-lattice:

  Cartesian coordinates                     Fractional coordinates (reciprocal lattice)
     0.000000000  0.034344152  0.000000000     0.142857143  0.000000000  0.000000000
     0.000000000  0.000000000  0.034555710     0.000000000  0.142857143  0.000000000
     0.034344152  0.000000000  0.000000000     0.000000000  0.000000000  0.142857143

  Length of vectors
     0.034344152  0.034555710  0.034344152

  Shift w.r.t. Gamma in fractional coordinates (k-lattice)
     0.000000000  0.000000000  0.000000000

 TETIRR: Found    500 inequivalent tetrahedra from     2058

 Subroutine IBZKPT returns following result:

 Found     40 irreducible k-points:

 Following reciprocal coordinates:
            Coordinates               Weight
  0.000000  0.000000  0.000000      1.000000
  0.142857  0.000000  0.000000      4.000000
  0.285714  0.000000  0.000000      4.000000
  0.428571  0.000000  0.000000      4.000000
  0.000000  0.142857  0.000000      2.000000
  0.142857  0.142857  0.000000      8.000000
  0.285714  0.142857  0.000000      8.000000
  0.428571  0.142857  0.000000      8.000000
  0.000000  0.285714  0.000000      2.000000
  0.142857  0.285714  0.000000      8.000000
  0.285714  0.285714  0.000000      8.000000
  0.428571  0.285714  0.000000      8.000000
  0.000000  0.428571  0.000000      2.000000
  0.142857  0.428571  0.000000      8.000000
  0.285714  0.428571  0.000000      8.000000
  0.428571  0.428571  0.000000      8.000000
  0.142857  0.000000  0.142857      4.000000
  0.285714  0.000000  0.142857      8.000000
  0.428571  0.000000  0.142857      8.000000
  0.142857  0.142857  0.142857      8.000000
  0.285714  0.142857  0.142857     16.000000
  0.428571  0.142857  0.142857     16.000000
  0.142857  0.285714  0.142857      8.000000
  0.285714  0.285714  0.142857     16.000000
  0.428571  0.285714  0.142857     16.000000
  0.142857  0.428571  0.142857      8.000000
  0.285714  0.428571  0.142857     16.000000
  0.428571  0.428571  0.142857     16.000000
  0.285714  0.000000  0.285714      4.000000
  0.428571  0.000000  0.285714      8.000000
  0.285714  0.142857  0.285714      8.000000
  0.428571  0.142857  0.285714     16.000000
  0.285714  0.285714  0.285714      8.000000
  0.428571  0.285714  0.285714     16.000000
  0.285714  0.428571  0.285714      8.000000
  0.428571  0.428571  0.285714     16.000000
  0.428571  0.000000  0.428571      4.000000
  0.428571  0.142857  0.428571      8.000000
  0.428571  0.285714  0.428571      8.000000
  0.428571  0.428571  0.428571      8.000000

 Following cartesian coordinates:
            Coordinates               Weight
  0.000000  0.000000  0.000000      1.000000
  0.000000  0.034344  0.000000      4.000000
  0.000000  0.068688  0.000000      4.000000
  0.000000  0.103032  0.000000      4.000000
  0.000000  0.000000  0.034556      2.000000
  0.000000  0.034344  0.034556      8.000000
  0.000000  0.068688  0.034556      8.000000
  0.000000  0.103032  0.034556      8.000000
  0.000000  0.000000  0.069111      2.000000
  0.000000  0.034344  0.069111      8.000000
  0.000000  0.068688  0.069111      8.000000
  0.000000  0.103032  0.069111      8.000000
  0.000000  0.000000  0.103667      2.000000
  0.000000  0.034344  0.103667      8.000000
  0.000000  0.068688  0.103667      8.000000
  0.000000  0.103032  0.103667      8.000000
  0.034344  0.034344  0.000000      4.000000
  0.034344  0.068688  0.000000      8.000000
  0.034344  0.103032  0.000000      8.000000
  0.034344  0.034344  0.034556      8.000000
  0.034344  0.068688  0.034556     16.000000
  0.034344  0.103032  0.034556     16.000000
  0.034344  0.034344  0.069111      8.000000
  0.034344  0.068688  0.069111     16.000000
  0.034344  0.103032  0.069111     16.000000
  0.034344  0.034344  0.103667      8.000000
  0.034344  0.068688  0.103667     16.000000
  0.034344  0.103032  0.103667     16.000000
  0.068688  0.068688  0.000000      4.000000
  0.068688  0.103032  0.000000      8.000000
  0.068688  0.068688  0.034556      8.000000
  0.068688  0.103032  0.034556     16.000000
  0.068688  0.068688  0.069111      8.000000
  0.068688  0.103032  0.069111     16.000000
  0.068688  0.068688  0.103667      8.000000
  0.068688  0.103032  0.103667     16.000000
[...]
  239          fft3d_mpi                             0.000413                          3   4
  240            fftbrc_mpi                            0.000327                        3   5
  241              fftbas_plan_mpi                       0.000324                      3   6
  242                map_forward                           0.000166                    4   7
  243                  map_gather                            0.000036                  2   8
  244                  m_alltoallv_z                         0.000029                  2   8
  245                  map_scatter                           0.000074                  2   8
  246                map_backward                          0.000076                    2   7
  247                  map_gather                            0.000018                  1   8
  248                  m_alltoallv_z                         0.000010                  1   8
  249                  map_scatter                           0.000035                  1   8
  250          m_sumb_d                              0.000006                          2   4
  251          pothar                                0.000070                          1   4
  252            m_sumb_d                              0.000003                        1   5
  253        brmix                                 0.002737                            1   3
  254          m_sumb_d                              0.000038                          6   4
  255          brpre                                 0.000009                          2   4
  256          setg0                                 0.000237                          1   4
  257          broyd                                 0.002180                          1   4
  258            m_sumb_d                              0.000354                       48   5
  259            brget                                 0.000326                      214   5
  260            brsav                                 0.000071                       46   5
  261        m_bcast_d                             0.000015                            2   3
  262      potlok                                0.011790                              2   2
  263        fft3d_mpi                             0.007684                           36   3
  264          fftbrc_mpi                            0.006300                         36   4
  265            fftbas_plan_mpi                       0.006283                       36   5
  266              map_forward                           0.002172                     40   6
  267                map_gather                            0.000654                   24   7
  268                m_alltoallv_z                         0.000561                   24   7
  269                map_scatter                           0.000776                   24   7
  270              map_backward                          0.001750                     32   6
  271                map_gather                            0.000538                   16   7
  272                m_alltoallv_z                         0.000441                   16   7
  273                map_scatter                           0.000604                   16   7
  274              dfftw_execute                         0.001323                     30   6
  275        m_sumb_d                              0.000028                            5   3
  276        pothar                                0.000398                            2   3
  277          m_sumb_d                              0.000031                          2   4
  278        m_bcast_d                             0.000621                            4   3
  279      potlok_metagga                        0.000000                              1   2
  280      set_dd_magatom                        0.000004                              1   2
  281      set_dd_paw                            0.934046                              1   2
  282        m_sumb_d                              0.476944                            7   3
  283      augmentation_charge                   0.004725                              1   2
  284        fft3d_mpi                             0.000874                            2   3
  285          fftbrc_mpi                            0.000723                          2   4
  286            fftbas_plan_mpi                       0.000721                        2   5
  287              dfftw_execute                         0.000284                      6   6
  288              map_backward                          0.000378                      4   6
  289                map_gather                            0.000148                    2   7
  290                m_alltoallv_z                         0.000138                    2   7
  291                map_scatter                           0.000091                    2   7
  292      densta                                3.160106                              1   2

 Flat profile

 m_sumb_d                               66.136202      347609
 lapack                                 50.069556      111117
 eddav                                  49.278538          91
 set_dd_paw                             40.842180          89
 raccmu_                                25.950956      111117
 redis_pw                               18.759544      623182
 densta                                 14.911714          92
 m_alltoall_d                           11.394711     1617078
 init_acc                               11.302705           1
 phaser                                  6.935164        7800
 redis_proj                              5.266391      787256
 fft3d                                   4.894199      661951
 eccp                                    4.870035       58240
 fftwav                                  4.237621      439717
 total_time                              3.788003           1
 orth1                                   3.659264      333431
 soft_charge                             3.405723          87
 w1_copy                                 3.228296      666702
 racc0mu_acc                             3.226567      111117
 overl                                   3.224439      386308
 rpromu_acc                              2.694687       84077
 acc_init_cublas                         2.460638           1
 m_bcast_z                               2.252555      113677
 hamiltmu                                2.194731      111117
 setup_precond                           2.101267       58240
 m_bcast_d                               1.802291      222417
 overl_mu                                1.697455      111117
 ggemm                                   1.466152      140237
 pw_charge                               1.078224       45169
 vhamil                                  1.009536      222234
 kinhamil                                0.999471      222234
 fftext_mpi                              0.954003      222234
 newband                                 0.903520      118397
 depsum                                  0.894891          87
 apply_precond                           0.891293      163994
 acc_init_cusolver                       0.798176           1
 fftwav_mpi                              0.581640      439717
 rpro_isp                                0.556056         520
 setdij_                                 0.367384         115
 augmentation_charge                     0.331656          88
 m_alltoallv_z                           0.223669        3041
 lincom                                  0.223340        7360
 set_charge                              0.189960          87
 potlok                                  0.181556          89
 fft3d_mpi                               0.165222      224923
 elmin                                   0.137146           1
 acc_cufft_makeplan                      0.108756          19
 map_scatter                             0.092198        3041
 broyd                                   0.088225          87
 w1_projall                              0.080196       81997
 fftbas_plan_mpi                         0.079849        2689
 rspher_all                              0.069446          14
 map_gather                              0.064948        3041
 sphpro_fast                             0.044927           2
 proall                                  0.043095           1
 dfftw_execute                           0.037143        1128
 brmix                                   0.024263          87
 truncate_high_frequency_w1              0.022383      280474
 brget                                   0.021598       15585
 setg0                                   0.021017          89
 orthch                                  0.015517           1
 map_forward                             0.015321        2520
 map_backward                            0.014288        2858
 choleski                                0.010319          80
 strnlr                                  0.009712           1
 force_and_stress                        0.007721           1
 pothar                                  0.006380          90
 brsav                                   0.005437        4256
 inisym                                  0.004281           1
 fornlr                                  0.003310           1
 fftbrc_mpi                              0.001383        2689
 stufak                                  0.001043           1
 fft_gq                                  0.001021          87
 brpre                                   0.000833         174
 forhar                                  0.000798           2
 strelo                                  0.000671           1
 strehar                                 0.000612           1
 forloc                                  0.000419           1
 vectorpot                               0.000363          88
 set_dd_magatom                          0.000338          89
 fewald                                  0.000330           1
 strkin                                  0.000277           1
 chggra                                  0.000210           1
 brgrid                                  0.000069           1
 rsp                                     0.000050           1
 crpa_reader                             0.000025           1
 posmap                                  0.000019           2
 fordep                                  0.000019           1
 potlok_metagga                          0.000012          88
 rcp                                     0.000011           1
 acc_cufft_makeplans                     0.000009           3
 rotate_active_occupied_orbital          0.000001           1
 redis_pw_over_bands                     0.000000           1
  summed up times     363.4371700286865

 Accumulative profile

 total_time                            363.437170           1
 elmin                                 337.586546           1
 eddav                                 235.622559          91
 set_dd_paw                             83.368209          89
 m_sumb_d                               66.136202      347609
 lapack                                 50.069556      111117
 hamiltmu                               37.668264      111117
 raccmu_                                30.874979      111117
 redis_pw                               24.316523      623182
 densta                                 14.911714          92
 newband                                12.033190      118397
 m_alltoall_d                           11.394711     1617078
 init_acc                               11.302705           1
 redis_proj                             11.104123      787256
 fftwav_mpi                              8.142652      439717
 fftwav                                  7.561012      439717
 set_charge                              7.506124          87
 phaser                                  6.935164        7800
 soft_charge                             5.979761          87
 fft3d                                   4.894199      661951
 eccp                                    4.870035       58240
 orth1                                   3.659264      333431
 kinhamil                                3.589019      222234
 w1_copy                                 3.228296      666702
 racc0mu_acc                             3.226567      111117
 overl                                   3.224439      386308
 force_and_stress                        2.718903           1
 rpromu_acc                              2.694687       84077
 fftext_mpi                              2.589548      222234
 acc_init_cublas                         2.460638           1
 w1_projall                              2.448582       81997
 fft3d_mpi                               2.264830      224923
 m_bcast_z                               2.252555      113677
 setup_precond                           2.101267       58240
 m_bcast_d                               1.802291      222417
 overl_mu                                1.697455      111117
 ggemm                                   1.466152      140237
 strnlr                                  1.200739           1
 rpro_isp                                1.127255         520
 pw_charge                               1.078224       45169
 vhamil                                  1.009536      222234
 depsum                                  0.900738          87
 apply_precond                           0.891293      163994
 acc_init_cusolver                       0.798176           1
 potlok                                  0.686723          89
 fftbrc_mpi                              0.528799        2689
 fftbas_plan_mpi                         0.527416        2689
 augmentation_charge                     0.406716          88
 fornlr                                  0.400829           1
 setdij_                                 0.374757         115
 orthch                                  0.285474           1
 map_forward                             0.275831        2520
 m_alltoallv_z                           0.223669        3041
 lincom                                  0.223340        7360
 brmix                                   0.186410          87
 broyd                                   0.137567          87
 map_backward                            0.134593        2858
 proall                                  0.117423           1
 acc_cufft_makeplans                     0.108765           3
 acc_cufft_makeplan                      0.108756          19
 map_scatter                             0.092198        3041
 rspher_all                              0.069446          14
 map_gather                              0.064948        3041
 fft_gq                                  0.046957          87
 sphpro_fast                             0.045936           2
 dfftw_execute                           0.037143        1128
 truncate_high_frequency_w1              0.022383      280474
 brget                                   0.021598       15585
 setg0                                   0.021017          89
 fordep                                  0.019141           1
 choleski                                0.010319          80
 pothar                                  0.006985          90
 brsav                                   0.005437        4256
 inisym                                  0.004300           1
 stufak                                  0.001043           1
 brpre                                   0.000833         174
 forhar                                  0.000809           2
 chggra                                  0.000699           1
 fewald                                  0.000688           1
 strelo                                  0.000679           1
 strehar                                 0.000615           1
 forloc                                  0.000442           1
 vectorpot                               0.000363          88
 set_dd_magatom                          0.000338          89
 strkin                                  0.000286           1
 brgrid                                  0.000069           1
 rsp                                     0.000050           1
 crpa_reader                             0.000025           1
 posmap                                  0.000019           2
 potlok_metagga                          0.000012          88
 rcp                                     0.000011           1
 rotate_active_occupied_orbital          0.000001           1
 redis_pw_over_bands                     0.000000           1

Profiling took   1.392505  0.685844  0.003164  0.003113 seconds
Profiling took   0.868033 seconds