 vasp.6.3.2 27Jun22 (build Jul  3 2023 11:46:21) complex
 executed on    LinuxNV_CrayMPICH date 2024.04.21  05:55:04

 INCAR:
   ADDGRID = True
   ALGO = Normal
   EDIFF = 0.0012
   ENCUT = 520.0
   IBRION = -1
   ICHARG = 0
   ISIF = 3
   ISMEAR = -5
   ISPIN = 2
   KPOINT_BSE = -1 0 0 0
   LAECHG = True
   LASPH = True
   LCHARG = True
   LELF = True
   LORBIT = 11
   LREAL = Auto
   LVHAR = True
   LWAVE = False
   MAGMOM = 4*7.0 20*0.6
   NELM = 1000
   NSW = 0
   PREC = accurate
   SIGMA = 0.05

 POTCAR:    PAW_PBE Eu 23Dec2003
 POTCAR:    PAW_PBE Ga_d 06Jul2010
 POTCAR:    PAW_PBE Ge_d 03Jul2007
 POTCAR:    PAW_PBE S 06Sep2000
 POTCAR:    PAW_PBE Eu 23Dec2003
   VRHFIN =Eu : [core=Kr4d]

   TITEL  = PAW_PBE Eu 23Dec2003
   POMASS =  151.965; ZVAL   =   17.000    mass and valenz
   ENMAX  =  249.668; ENMIN  =  187.251 eV

   TITEL  = PAW_PBE Ga_d 06Jul2010
   POMASS =   69.723; ZVAL   =   13.000    mass and valenz
   ENMAX  =  282.691; ENMIN  =  212.018 eV

   TITEL  = PAW_PBE Ge_d 03Jul2007
   POMASS =   72.610; ZVAL   =   14.000    mass and valenz
   ENMAX  =  310.294; ENMIN  =  232.720 eV

   TITEL  = PAW_PBE S 06Sep2000
   POMASS =   32.066; ZVAL   =    6.000    mass and valenz
   ENMAX  =  258.689; ENMIN  =  194.016 eV

 Optimization of the real space projectors (new method)

 maximal supplied QI-value         = 13.42
 optimisation between [QCUT,QGAM] = [ 11.67, 23.35] = [ 38.16,152.62] Ry
 Optimized for a Real-space Cutoff    1.63 Angstroem

   l    n(q)    QCUT    max X(q) W(low)/X(q) W(high)/X(q)  e(spline)
   0     11    11.673    10.400    0.14E-04    0.18E-05    0.24E-07
   0     11    11.673    10.768    0.21E-04    0.32E-05    0.49E-07
   1     11    11.673     4.094    0.40E-05    0.13E-04    0.93E-07
   1     11    11.673     4.009    0.11E-04    0.46E-04    0.33E-06
   2     10    11.673    29.030    0.79E-04    0.60E-04    0.70E-06
   2     10    11.673    19.941    0.80E-04    0.60E-04    0.71E-06
   3     10    11.673    88.889    0.23E-03    0.29E-03    0.30E-06
   3     10    11.673    76.102    0.23E-03    0.30E-03    0.30E-06
 Optimization of the real space projectors (new method)

[...]

   l    n(q)    QCUT    max X(q) W(low)/X(q) W(high)/X(q)  e(spline)
   2     10    11.539     8.936    0.13E-03    0.18E-03    0.23E-06
   2     10    11.539     8.183    0.16E-03    0.22E-03    0.28E-06
   0     11    11.539    62.777    0.61E-04    0.20E-04    0.15E-06
   0     11    11.539    50.556    0.58E-04    0.19E-04    0.14E-06
   1     10    11.539    38.422    0.20E-04    0.75E-05    0.16E-06
   1     10    11.539    22.623    0.19E-04    0.69E-05    0.15E-06
 Optimization of the real space projectors (new method)

 maximal supplied QI-value         = 19.84
 optimisation between [QCUT,QGAM] = [ 11.51, 23.22] = [ 37.09,150.92] Ry
 Optimized for a Real-space Cutoff    1.21 Angstroem

   l    n(q)    QCUT    max X(q) W(low)/X(q) W(high)/X(q)  e(spline)
   0      8    11.508   187.594    0.96E-04    0.18E-03    0.54E-07
   0      8    11.508   164.243    0.96E-04    0.18E-03    0.54E-07
   1      8    11.508    67.533    0.18E-03    0.65E-04    0.94E-07
   1      8    11.508    50.729    0.18E-03    0.63E-04    0.92E-07
  PAW_PBE Eu 23Dec2003                  :
  PAW_PBE Ga_d 06Jul2010                :
  PAW_PBE Ge_d 03Jul2007                :
  PAW_PBE S 06Sep2000                   :

 POSCAR: Eu4 Ga4 Ge2 S14
  positions in direct lattice
 exchange correlation table for  LEXCH =        8
   RHO(1)=    0.500       N(1)  =     2000
   RHO(2)=  100.500       N(2)  =     4000

 VTST: version 4.2, (08/11/21)

 CHAIN: initializing optimizer

 OPT: Using VASP Dynamics algorithm
 CHAIN: Read ICHAIN             0

 POSCAR: Eu4 Ga4 Ge2 S14
  positions in direct lattice

 ion  position               nearest neighbor table
   1  0.847  0.653  0.517-  15 2.90  13 3.04  20 3.05  21 3.05  12 3.08  14 3.08
   2  0.653  0.153  0.483-  16 2.90  14 3.04  19 3.05  22 3.05  11 3.08  13 3.08
   3  0.153  0.347  0.517-  15 2.90  11 3.04  18 3.05  23 3.05  14 3.08  12 3.08
   4  0.347  0.847  0.483-  16 2.90  12 3.04  17 3.05  24 3.05  13 3.08  11 3.08
   5  0.353  0.147  0.970-  11 2.20  16 2.29  18 2.35  23 2.35
   6  0.147  0.647  0.030-  12 2.20  15 2.29  17 2.35  24 2.35
   7  0.647  0.853  0.970-  13 2.20  16 2.29  20 2.35  21 2.35
   8  0.853  0.353  0.030-  14 2.20  15 2.29  19 2.35  22 2.35
   9  0.500  0.500  0.000-  17 2.25  19 2.25  21 2.25  23 2.25
  10  0.000  0.000  0.000-  18 2.25  20 2.25  22 2.25  24 2.25
  11  0.355  0.145  0.316-   5 2.20   3 3.04   2 3.08   4 3.08
  12  0.145  0.645  0.684-   6 2.20   4 3.04   1 3.08   3 3.08
  13  0.645  0.855  0.316-   7 2.20   1 3.04   4 3.08   2 3.08
  14  0.855  0.355  0.684-   8 2.20   2 3.04   3 3.08   1 3.08
  15  0.000  0.500  0.202-   6 2.29   8 2.29   1 2.90   3 2.90
  16  0.500  0.000  0.798-   5 2.29   7 2.29   2 2.90   4 2.90
  17  0.341  0.581  0.226-   9 2.25   6 2.35   4 3.05
  18  0.159  0.081  0.774-  10 2.25   5 2.35   3 3.05
  19  0.659  0.419  0.226-   9 2.25   8 2.35   2 3.05
  20  0.841  0.919  0.774-  10 2.25   7 2.35   1 3.05
  21  0.581  0.659  0.774-   9 2.25   7 2.35   1 3.05
  22  0.919  0.159  0.226-  10 2.25   8 2.35   2 3.05
  23  0.419  0.341  0.774-   9 2.25   5 2.35   3 3.05
  24  0.081  0.841  0.226-  10 2.25   6 2.35   4 3.05

  LATTYP: Found a simple tetragonal cell.
 ALAT       =     9.6945470000
 C/A-ratio  =     0.6556363077

  Lattice vectors:

 A1 = (   9.6945470000,   0.0000000000,   0.0000000000)
 A2 = (   0.0000000000,   9.6945470000,   0.0000000000)
 A3 = (   0.0000000000,   0.0000000000,   6.3560970000)

Analysis of symmetry for initial positions (statically):
 Subroutine PRICEL returns:
 Original cell was already a primitive cell.

 Routine SETGRP: Setting up the symmetry group for a
 simple tetragonal supercell.

 Subroutine GETGRP returns: Found  8 space group operations
 (whereof  4 operations were pure point group operations)
 out of a pool of 16 trial point group operations.

The static configuration has the point symmetry S_4 .
 The point group associated with its full space group is D_2d.

Analysis of symmetry for dynamics (positions and initial velocities):
 Subroutine PRICEL returns:
 Original cell was already a primitive cell.

[...]

The dynamic configuration has the point symmetry S_4 .
 The point group associated with its full space group is D_2d.

Analysis of structural, dynamic, and magnetic symmetry:
 Subroutine PRICEL returns:
 Original cell was already a primitive cell.

 Routine SETGRP: Setting up the symmetry group for a
 simple tetragonal supercell.

 Subroutine GETGRP returns: Found  8 space group operations
 (whereof  4 operations were pure point group operations)
 out of a pool of 16 trial point group operations.

The overall configuration has the point symmetry S_4 .
 The point group associated with its full space group is D_2d.

 Subroutine INISYM returns: Found  8 space group operations
 (whereof  4 operations are pure point group operations),
 and found     1 'primitive' translations

                                     Primitive cell

  volume of cell :     597.3730

  direct lattice vectors                    reciprocal lattice vectors
     9.694547000  0.000000000  0.000000000     0.103150771  0.000000000  0.000000000
     0.000000000  9.694547000  0.000000000     0.000000000  0.103150771  0.000000000
     0.000000000  0.000000000  6.356097000     0.000000000  0.000000000  0.157329254

  length of vectors
     9.694547000  9.694547000  6.356097000     0.103150771  0.103150771  0.157329254

  position of ions in fractional coordinates (direct lattice)
     0.846949000  0.653051000  0.516549000
     0.653051000  0.153051000  0.483451000
     0.153051000  0.346949000  0.516549000
     0.346949000  0.846949000  0.483451000
     0.353206000  0.146794000  0.969515000
     0.146794000  0.646794000  0.030485000
     0.646794000  0.853206000  0.969515000
     0.853206000  0.353206000  0.030485000
     0.500000000  0.500000000  0.000000000
     0.000000000  0.000000000  0.000000000
     0.354585000  0.145415000  0.316270000
     0.145415000  0.645415000  0.683730000
     0.645415000  0.854585000  0.316270000
     0.854585000  0.354585000  0.683730000
     0.000000000  0.500000000  0.201793000
     0.500000000  0.000000000  0.798207000
     0.341207000  0.581082000  0.226437000
     0.158793000  0.081082000  0.773563000
     0.658793000  0.418918000  0.226437000
     0.841207000  0.918918000  0.773563000
     0.581082000  0.658793000  0.773563000
     0.918918000  0.158793000  0.226437000
     0.418918000  0.341207000  0.773563000
     0.081082000  0.841207000  0.226437000

  ion indices of the primitive-cell ions
   primitive index   ion index
                 1           1
                 2           2
                 3           3
                 4           4
                 5           5
                 6           6
                 7           7
                 8           8
                 9           9
                10          10
                11          11
                12          12
                13          13
                14          14
                15          15
                16          16
                17          17
                18          18
                19          19
                20          20
                21          21
                22          22
                23          23
                24          24

 KPOINTS: Kpoints from vasprun.xml

Automatic generation of k-mesh.
 Grid dimensions read from file:
 generate k-points for:    3    3    4

 Generating k-lattice:

  Cartesian coordinates                     Fractional coordinates (reciprocal lattice)
     0.034383590  0.000000000  0.000000000     0.333333333  0.000000000  0.000000000
     0.000000000  0.034383590  0.000000000     0.000000000  0.333333333  0.000000000
     0.000000000  0.000000000  0.039332314     0.000000000  0.000000000  0.250000000

  Length of vectors
     0.034383590  0.034383590  0.039332314

  Shift w.r.t. Gamma in fractional coordinates (k-lattice)
     0.000000000  0.000000000  0.000000000

 TETIRR: Found     50 inequivalent tetrahedra from      216

 Subroutine IBZKPT returns following result:

 Found      9 irreducible k-points:

 Following reciprocal coordinates:
            Coordinates               Weight
  0.000000  0.000000  0.000000      1.000000
  0.333333  0.000000  0.000000      4.000000
  0.333333  0.333333  0.000000      4.000000
  0.000000  0.000000  0.250000      2.000000
  0.333333  0.000000  0.250000      8.000000
  0.333333  0.333333  0.250000      8.000000
  0.000000  0.000000  0.500000      1.000000
  0.333333  0.000000  0.500000      4.000000
  0.333333  0.333333  0.500000      4.000000

 Following cartesian coordinates:
            Coordinates               Weight
  0.000000  0.000000  0.000000      1.000000
  0.034384  0.000000  0.000000      4.000000
  0.034384  0.034384  0.000000      4.000000
  0.000000  0.000000  0.039332      2.000000
  0.034384  0.000000  0.039332      8.000000
  0.034384  0.034384  0.039332      8.000000
  0.000000  0.000000  0.078665      1.000000
[...]
  318                map_forward                           0.000316                    4   7
  319                  map_gather                            0.000051                  2   8
  320                  m_alltoallv_z                         0.000028                  2   8
  321                  map_scatter                           0.000199                  2   8
  322                map_backward                          0.000121                    2   7
  323                  map_gather                            0.000028                  1   8
  324                  m_alltoallv_z                         0.000012                  1   8
  325                  map_scatter                           0.000063                  1   8
  326          m_sumb_d                              0.000010                          2   4
  327          pothar                                0.000088                          1   4
  328            m_sumb_d                              0.000010                        1   5
  329        brmix                                 0.016071                            1   3
  330          m_sumb_d                              0.000106                          6   4
  331          brpre                                 0.000055                          2   4
  332          setg0                                 0.001827                          1   4
  333          broyd                                 0.011940                          1   4
  334            brget                                 0.003022                      326   5
  335            brsav                                 0.001423                      163   5
  336            m_sumb_d                              0.001286                       47   5
  337        m_bcast_d                             0.000033                            2   3
  338      potlok                                0.061166                              2   2
  339        fft3d_mpi                             0.036696                           36   3
  340          fftbrc_mpi                            0.031439                         36   4
  341            fftbas_plan_mpi                       0.031420                       36   5
  342              map_forward                           0.008941                     40   6
  343                map_gather                            0.002677                   24   7
  344                m_alltoallv_z                         0.003558                   24   7
  345                map_scatter                           0.002484                   24   7
  346              map_backward                          0.007905                     32   6
  347                map_gather                            0.002493                   16   7
  348                m_alltoallv_z                         0.002964                   16   7
  349                map_scatter                           0.002213                   16   7
  350              dfftw_execute                         0.012870                     30   6
  351        m_sumb_d                              0.000032                            5   3
  352        pothar                                0.002433                            2   3
  353          m_sumb_d                              0.000179                          2   4
  354        m_bcast_d                             0.004098                            4   3
  355      potlok_metagga                        0.000000                              1   2
  356      set_dd_magatom                        0.000004                              1   2
  357      set_dd_paw                            2.754387                              1   2
  358        m_sumb_d                              0.347383                            7   3
  359      augmentation_charge                   0.184004                              1   2
  360        fft3d_mpi                             0.093229                            2   3
  361          fftbrc_mpi                            0.082530                          2   4
  362            fftbas_plan_mpi                       0.082528                        2   5
  363              dfftw_execute                         0.052524                      6   6
  364              map_backward                          0.029716                      4   6
  365                map_gather                            0.010927                    2   7
  366                m_alltoallv_z                         0.009881                    2   7
  367                map_scatter                           0.008897                    2   7
  368      fftwav_mpi                            3.436018                           2160   2
  369        fftwav                                3.433344                         2160   3
  370          fft3d                                 3.146220                       2160   4
  371      densta                                2.384616                              1   2

 Flat profile

 set_dd_paw                           1096.774491         463
 eddav                                 332.924439         465
 lapack                                318.471373      660037
 m_sumb_d                              311.044762     2025857
 raccmu_                               270.146261      660037
 redis_pw                              162.381857     3642198
 m_alltoall_d                           66.530324     9578918
 dfftw_execute                          59.059349       11556
 augmentation_charge                    42.180613         463
 setdij_                                41.728604         489
 eccp                                   36.608179      334800
 orth1                                  33.573430     1980201
 fft3d                                  32.728436     3882675
 redis_proj                             30.742854     4627490
 phaser                                 29.208289        8487
 densta                                 26.551356         466
 fftwav                                 24.463585     2562601
 hamiltmu                               22.805307      660037
 racc0mu_acc                            19.483583      660037
 overl                                  19.308793     2305366
 w1_copy                                19.211854     3960222
 total_time                             18.146658           1
 rpromu_acc                             15.013956      494977
 m_bcast_z                              14.574508      662917
 soft_charge                            14.360858         462
 ggemm                                  14.005925      827437
 setup_precond                          12.356896      334800
 m_alltoallv_z                          12.224438       17759
 m_bcast_d                              10.698625     1321005
 overl_mu                               10.352177      660037
 fft3d_mpi                              10.128242     1335963
 map_gather                              9.556336       17759
 map_scatter                             9.375617       17759
 pw_charge                               8.538208      245733
 init_acc                                7.567882           1
 set_charge                              7.025319         462
 kinhamil                                6.062203     1320074
 vhamil                                  6.026648     1320074
 fftext_mpi                              5.661299     1320074
 depsum                                  5.429943         462
 apply_precond                           5.370691      985274
 newband                                 5.257598      668407
 fftwav_mpi                              3.444919     2562601
 broyd                                   3.206442         461
 potlok                                  2.765185         463
 acc_init_cublas                         2.470696           1
 brmix                                   1.534874         461
 brget                                   1.038125      106271
 elmin                                   0.983425           1
 fftbas_plan_mpi                         0.831939       15889
 setg0                                   0.826501         463
 acc_init_cusolver                       0.807318           1
 rpro_isp                                0.516152         117
 w1_projall                              0.472894      492637
 lincom                                  0.346577        8388
 brsav                                   0.288635       30685
 rspher_all                              0.215362          14
 sphpro_fast                             0.144372           2
 truncate_high_frequency_w1              0.129486     1654874
 acc_cufft_makeplan                      0.125937          19
 map_backward                            0.119121       16802
 map_forward                             0.109179       14976
 proall                                  0.088592           1
 fft_gq                                  0.072188         462
 pothar                                  0.042403         464
 orthch                                  0.036177           1
 force_and_stress                        0.024318           1
 brpre                                   0.024297         922
 stufak                                  0.021520           1
 choleski                                0.010503          18
 fftbrc_mpi                              0.009362       15889
 forhar                                  0.004984           2
 inisym                                  0.004844           1
 strelo                                  0.004450           1
 strnlr                                  0.003735           1
 forloc                                  0.002564           1
 strehar                                 0.002475           1
 set_dd_magatom                          0.002049         463
 vectorpot                               0.001929         462
 strkin                                  0.001734           1
 fornlr                                  0.001301           1
 rsp                                     0.000498           1
 fewald                                  0.000349           1
 brgrid                                  0.000318           1
 chggra                                  0.000265           1
 fordep                                  0.000108           1
 posmap                                  0.000044           2
 potlok_metagga                          0.000036         462
 rcp                                     0.000033           1
 crpa_reader                             0.000027           1
 acc_cufft_makeplans                     0.000015           3
 rotate_active_occupied_orbital          0.000000           1
 redis_pw_over_bands                     0.000000           1
  summed up times     3224.400024890900

 Accumulative profile

 total_time                           3224.400025           1
 elmin                                3173.341510           1
 eddav                                1652.554773         465
 set_dd_paw                           1265.018305         463
 hamiltmu                              350.264788      660037
 lapack                                318.471373      660037
 m_sumb_d                              311.044762     2025857
 raccmu_                               299.982021      660037
 redis_pw                              195.221405     3642198
 set_charge                            135.823049         462
 fft3d_mpi                             110.743981     1335963
 setdij_                                94.429950         489
 fftbrc_mpi                             91.285341       15889
 fftbas_plan_mpi                        91.275979       15889
 augmentation_charge                    86.685738         463
 newband                                81.294503      668407
 m_alltoall_d                           66.530324     9578918
 redis_proj                             64.433631     4627490
 dfftw_execute                          59.059349       11556
 fftwav_mpi                             51.306542     2562601
 fftwav                                 47.861623     2562601
 eccp                                   36.608179      334800
 soft_charge                            35.341060         462
 orth1                                  33.573430     1980201
 fft3d                                  32.728436     3882675
 phaser                                 29.208289        8487
 densta                                 26.551356         466
 kinhamil                               21.450812     1320074
 racc0mu_acc                            19.483583      660037
 overl                                  19.308793     2305366
 w1_copy                                19.211854     3960222
 map_backward                           17.951113       16802
 fftext_mpi                             15.388609     1320074
 rpromu_acc                             15.013956      494977
 w1_projall                             14.981753      492637
 m_bcast_z                              14.574508      662917
 ggemm                                  14.005925      827437
 map_forward                            13.433578       14976
 setup_precond                          12.356896      334800
 m_alltoallv_z                          12.224438       17759
 m_bcast_d                              10.698625     1321005
 overl_mu                               10.352177      660037
 force_and_stress                        9.938721           1
 map_gather                              9.556336       17759
 map_scatter                             9.375617       17759
 pw_charge                               8.538208      245733
 init_acc                                7.567882           1
 brmix                                   7.335079         461
 vhamil                                  6.026648     1320074
 depsum                                  5.645307         462
 potlok                                  5.384974         463
 apply_precond                           5.370691      985274
 broyd                                   4.900995         461
 acc_init_cublas                         2.470696           1
 fft_gq                                  1.733753         462
 strnlr                                  1.381289           1
 rpro_isp                                1.311986         117
 fordep                                  1.150289           1
 brget                                   1.038125      106271
 setg0                                   0.826501         463
 acc_init_cusolver                       0.807318           1
 fornlr                                  0.460983           1
 lincom                                  0.346577        8388
 orthch                                  0.292816           1
 brsav                                   0.288635       30685
 rspher_all                              0.215362          14
 proall                                  0.168337           1
 sphpro_fast                             0.150237           2
 truncate_high_frequency_w1              0.129486     1654874
 acc_cufft_makeplans                     0.125952           3
 acc_cufft_makeplan                      0.125937          19
 pothar                                  0.047206         464
 brpre                                   0.024297         922
 stufak                                  0.021520           1
 choleski                                0.010503          18
 forhar                                  0.005033           2
 inisym                                  0.004888           1
 strelo                                  0.004459           1
 forloc                                  0.003097           1
 strehar                                 0.002478           1
 fewald                                  0.002227           1
 set_dd_magatom                          0.002049         463
 vectorpot                               0.001929         462
 strkin                                  0.001740           1
 chggra                                  0.001002           1
 rsp                                     0.000498           1
 brgrid                                  0.000318           1
 posmap                                  0.000044           2
 potlok_metagga                          0.000036         462
 rcp                                     0.000033           1
 crpa_reader                             0.000027           1
 rotate_active_occupied_orbital          0.000000           1
 redis_pw_over_bands                     0.000000           1

Profiling took   8.294400  4.090868  0.003325  0.003208 seconds
Profiling took   5.335355 seconds