 vasp.6.3.2 27Jun22 (build Jul  3 2023 11:46:21) complex
 executed on    LinuxNV_CrayMPICH date 2024.04.19  08:12:22

 INCAR:
   ADDGRID = True
   ALGO = Normal
   EDIFF = 0.0001
   ENCUT = 520.0
   IBRION = -1
   ISIF = 3
   ISMEAR = -5
   ISPIN = 2
   LAECHG = True
   LASPH = True
   LCHARG = True
   LORBIT = 11
   LREAL = Auto
   LVHAR = True
   LWAVE = False
   MAGMOM = 1*7.0 3*0.6
   NELM = 1000
   NSW = 0
   PREC = Accurate
   SIGMA = 0.05

 POTCAR:    PAW_PBE Gd 23Dec2003
 POTCAR:    PAW_PBE Tm_3 20Jan2003
 POTCAR:    PAW_PBE Rh_pv 25Jan2005
 POTCAR:    PAW_PBE Gd 23Dec2003
   VRHFIN =Gd : [core=Xe4]

   TITEL  = PAW_PBE Gd 23Dec2003
   POMASS =  157.250; ZVAL   =   18.000    mass and valenz
   ENMAX  =  256.472; ENMIN  =  192.354 eV

   TITEL  = PAW_PBE Tm_3 20Jan2003
   POMASS =  168.930; ZVAL   =    9.000    mass and valenz
   ENMAX  =  149.221; ENMIN  =  111.916 eV

   TITEL  = PAW_PBE Rh_pv 25Jan2005
   POMASS =  102.906; ZVAL   =   15.000    mass and valenz
   ENMAX  =  247.408; ENMIN  =  185.556 eV

 Optimization of the real space projectors (new method)

 maximal supplied QI-value         = 13.42
 optimisation between [QCUT,QGAM] = [ 11.67, 23.35] = [ 38.16,152.62] Ry
 Optimized for a Real-space Cutoff    1.63 Angstroem

   l    n(q)    QCUT    max X(q) W(low)/X(q) W(high)/X(q)  e(spline)
   0     11    11.673    10.501    0.14E-04    0.17E-05    0.21E-07
   0     11    11.673     9.148    0.21E-04    0.32E-05    0.45E-07
   1     11    11.673     4.035    0.33E-05    0.11E-04    0.84E-07
   1     11    11.673     4.388    0.11E-04    0.47E-04    0.34E-06
   2     10    11.673    20.656    0.12E-04    0.28E-04    0.54E-06
   2     10    11.673    12.651    0.11E-04    0.26E-04    0.51E-06
   3     10    11.673    61.921    0.19E-03    0.22E-03    0.23E-06
   3     10    11.673    48.328    0.20E-03    0.23E-03    0.23E-06
 Optimization of the real space projectors (new method)

[...]

   l    n(q)    QCUT    max X(q) W(low)/X(q) W(high)/X(q)  e(spline)
   0     13    11.669    41.517    0.41E-04    0.49E-05    0.86E-06
   0     13    11.669    21.051    0.34E-04    0.39E-05    0.72E-06
   1     12    11.669    35.571    0.32E-04    0.40E-05    0.88E-06
   1     12    11.669    36.101    0.34E-04    0.47E-05    0.92E-06
   2     12    11.669   153.624    0.23E-03    0.16E-03    0.98E-06
   2     12    11.669   123.221    0.22E-03    0.16E-03    0.98E-06
 Optimization of the real space projectors (new method)

 maximal supplied QI-value         = 15.68
 optimisation between [QCUT,QGAM] = [ 11.61, 23.21] = [ 37.72,150.90] Ry
 Optimized for a Real-space Cutoff    1.45 Angstroem

   l    n(q)    QCUT    max X(q) W(low)/X(q) W(high)/X(q)  e(spline)
   1     10    11.607     3.143    0.27E-04    0.48E-04    0.10E-06
   1     10    11.607     5.034    0.71E-04    0.17E-03    0.32E-06
   2      9    11.607    64.180    0.22E-03    0.59E-04    0.28E-06
   2      9    11.607    61.342    0.22E-03    0.61E-04    0.29E-06
   0     10    11.607    55.593    0.52E-04    0.32E-04    0.17E-06
   0     10    11.607    26.178    0.47E-04    0.29E-04    0.15E-06
  PAW_PBE Gd 23Dec2003                  :
  PAW_PBE Tm_3 20Jan2003                :
  PAW_PBE Rh_pv 25Jan2005               :

 POSCAR: Gd1 Tm1 Rh2
  positions in direct lattice
 exchange correlation table for  LEXCH =        8
   RHO(1)=    0.500       N(1)  =     2000
   RHO(2)=  100.500       N(2)  =     4000

 VTST: version 4.2, (08/11/21)

 CHAIN: initializing optimizer

 OPT: Using VASP Dynamics algorithm
 CHAIN: Read ICHAIN             0

 POSCAR: Gd1 Tm1 Rh2
  positions in direct lattice

 ion  position               nearest neighbor table
   1  0.500  0.500  0.500-   3 2.97   3 2.97   3 2.97   3 2.97   4 2.97   4 2.97   4 2.97   4 2.97
                             2 3.43   2 3.43   2 3.43   2 3.43   2 3.43   2 3.43
   2  0.000  0.000  0.000-   4 2.97   4 2.97   4 2.97   3 2.97   4 2.97   3 2.97   3 2.97   3 2.97
                             1 3.43   1 3.43   1 3.43   1 3.43   1 3.43   1 3.43
   3  0.250  0.250  0.250-   2 2.97   2 2.97   2 2.97   1 2.97   2 2.97   1 2.97   1 2.97   1 2.97

   4  0.750  0.750  0.750-   1 2.97   1 2.97   1 2.97   1 2.97   2 2.97   2 2.97   2 2.97   2 2.97

  LATTYP: Found a face centered cubic cell.
 ALAT       =     6.8507040000

  Lattice vectors:

 A1 = (   0.0000000000,   3.4253520000,   3.4253520000)
 A2 = (   3.4253520000,   0.0000000000,   3.4253520000)
 A3 = (   3.4253520000,   3.4253520000,   0.0000000000)

Analysis of symmetry for initial positions (statically):
 Subroutine PRICEL returns:
 Original cell was already a primitive cell.

 Routine SETGRP: Setting up the symmetry group for a
 face centered cubic supercell.

 Subroutine GETGRP returns: Found 48 space group operations
 (whereof 48 operations were pure point group operations)
 out of a pool of 48 trial point group operations.

The static configuration has the point symmetry O_h .

Analysis of symmetry for dynamics (positions and initial velocities):
 Subroutine PRICEL returns:
 Original cell was already a primitive cell.

[...]

The dynamic configuration has the point symmetry O_h .

Analysis of structural, dynamic, and magnetic symmetry:
 Subroutine PRICEL returns:
 Original cell was already a primitive cell.

 Routine SETGRP: Setting up the symmetry group for a
 face centered cubic supercell.

 Subroutine GETGRP returns: Found 48 space group operations
 (whereof 48 operations were pure point group operations)
 out of a pool of 48 trial point group operations.

The overall configuration has the point symmetry O_h .

 Subroutine INISYM returns: Found 48 space group operations
 (whereof 48 operations are pure point group operations),
 and found     1 'primitive' translations

                                     Primitive cell

  volume of cell :      80.3796

  direct lattice vectors                    reciprocal lattice vectors
     0.000000000  3.425352000  3.425352000    -0.145970400  0.145970400  0.145970400
     3.425352000  0.000000000  3.425352000     0.145970400 -0.145970400  0.145970400
     3.425352000  3.425352000  0.000000000     0.145970400  0.145970400 -0.145970400

  length of vectors
     4.844179254  4.844179254  4.844179254     0.252828148  0.252828148  0.252828148

  position of ions in fractional coordinates (direct lattice)
     0.500000000  0.500000000  0.500000000
     0.000000000  0.000000000  0.000000000
     0.250000000  0.250000000  0.250000000
     0.750000000  0.750000000  0.750000000

  ion indices of the primitive-cell ions
   primitive index   ion index
                 1           1
                 2           2
                 3           3
                 4           4

 KPOINTS: Kpoints from vasprun.xml

Automatic generation of k-mesh.
 Grid dimensions read from file:
 generate k-points for:    6    6    6

 Generating k-lattice:

  Cartesian coordinates                     Fractional coordinates (reciprocal lattice)
    -0.024328400  0.024328400  0.024328400     0.166666667  0.000000000  0.000000000
     0.024328400 -0.024328400  0.024328400     0.000000000  0.166666667 -0.000000000
     0.024328400  0.024328400 -0.024328400    -0.000000000 -0.000000000  0.166666667

  Length of vectors
     0.042138025  0.042138025  0.042138025

  Shift w.r.t. Gamma in fractional coordinates (k-lattice)
     0.500000000  0.500000000  0.500000000

 TETIRR: Found    403 inequivalent tetrahedra from     5184

 Subroutine IBZKPT returns following result:

 Found     28 irreducible k-points:

 Following reciprocal coordinates:
            Coordinates               Weight
  0.083333  0.083333  0.083333      8.000000
  0.250000  0.083333  0.083333     24.000000
  0.416667  0.083333  0.083333     24.000000
 -0.416667  0.083333  0.083333     24.000000
 -0.250000  0.083333  0.083333     24.000000
 -0.083333  0.083333  0.083333     24.000000
  0.250000  0.250000  0.083333     24.000000
  0.416667  0.250000  0.083333     48.000000
 -0.416667  0.250000  0.083333     48.000000
 -0.250000  0.250000  0.083333     48.000000
 -0.083333  0.250000  0.083333     48.000000
  0.416667  0.416667  0.083333     24.000000
 -0.416667  0.416667  0.083333     48.000000
 -0.250000  0.416667  0.083333     48.000000
 -0.083333  0.416667  0.083333     48.000000
 -0.416667 -0.416667  0.083333     24.000000
 -0.250000 -0.416667  0.083333     48.000000
 -0.250000 -0.250000  0.083333     24.000000
  0.250000  0.250000  0.250000      8.000000
  0.416667  0.250000  0.250000     24.000000
 -0.416667  0.250000  0.250000     24.000000
 -0.250000  0.250000  0.250000     24.000000
  0.416667  0.416667  0.250000     24.000000
 -0.416667  0.416667  0.250000     48.000000
 -0.250000  0.416667  0.250000     48.000000
 -0.416667 -0.416667  0.250000     24.000000
  0.416667  0.416667  0.416667      8.000000
 -0.416667  0.416667  0.416667     24.000000

 Following cartesian coordinates:
            Coordinates               Weight
  0.012164  0.012164  0.012164      8.000000
 -0.012164  0.036493  0.036493     24.000000
 -0.036493  0.060821  0.060821     24.000000
  0.085149 -0.060821 -0.060821     24.000000
  0.060821 -0.036493 -0.036493     24.000000
  0.036493 -0.012164 -0.012164     24.000000
  0.012164  0.012164  0.060821     24.000000
 -0.012164  0.036493  0.085149     48.000000
  0.109478 -0.085149 -0.036493     48.000000
  0.085149 -0.060821 -0.012164     48.000000
  0.060821 -0.036493  0.012164     48.000000
  0.012164  0.012164  0.109478     24.000000
  0.133806 -0.109478 -0.012164     48.000000
  0.109478 -0.085149  0.012164     48.000000
  0.085149 -0.060821  0.036493     48.000000
  0.012164  0.012164 -0.133806     24.000000
 -0.012164  0.036493 -0.109478     48.000000
  0.012164  0.012164 -0.085149     24.000000
  0.036493  0.036493  0.036493      8.000000
  0.012164  0.060821  0.060821     24.000000
  0.133806 -0.060821 -0.060821     24.000000
  0.109478 -0.036493 -0.036493     24.000000
  0.036493  0.036493  0.085149     24.000000
  0.158135 -0.085149 -0.036493     48.000000
  0.133806 -0.060821 -0.012164     48.000000
  0.036493  0.036493 -0.158135     24.000000
  0.060821  0.060821  0.060821      8.000000
  0.182463 -0.060821 -0.060821     24.000000

 SYSTEM =  unknown system
 POSCAR =  Gd1 Tm1 Rh2

 Startparameter for this run:
   NWRITE =      2    write-flag & timer
   PREC   = accura    normal or accurate (medium, high low for compatibility)
   ISTART =      0    job   : 0-new  1-cont  2-samecut
   ICHARG =      2    charge: 1-file 2-atom 10-const
   ISPIN  =      2    spin polarized calculation?
   LNONCOLLINEAR =      F non collinear calculations
   LSORBIT =      F    spin-orbit coupling
   INIWAV =      1    electr: 0-lowe 1-rand  2-diag
   LASPH  =      T    aspherical Exc in radial PAW
 Electronic Relaxation 1
   ENCUT  =  520.0 eV  38.22 Ry    6.18 a.u.   9.01  9.01  9.01*2*pi/ulx,y,z
   ENINI  =  520.0     initial cutoff
   ENAUG  =  537.2 eV  augmentation charge cutoff
   NELM   =   1000;   NELMIN=  2; NELMDL= -5     # of ELM steps
   EDIFF  = 0.1E-03   stopping-criterion for ELM
   LREAL  =      T    real-space projection
   NLSPLINE    = F    spline interpolate recip. space projectors
[...]
  287          fft3d_mpi                             0.000402                          3   4
  288            fftbrc_mpi                            0.000310                        3   5
  289              fftbas_plan_mpi                       0.000310                      3   6
  290                map_forward                           0.000153                    4   7
  291                  map_gather                            0.000039                  2   8
  292                  m_alltoallv_z                         0.000023                  2   8
  293                  map_scatter                           0.000065                  2   8
  294                map_backward                          0.000073                    2   7
  295                  map_gather                            0.000018                  1   8
  296                  m_alltoallv_z                         0.000009                  1   8
  297                  map_scatter                           0.000032                  1   8
  298          m_sumb_d                              0.000009                          2   4
  299          pothar                                0.000075                          1   4
  300            m_sumb_d                              0.000009                        1   5
  301        brmix                                 0.001356                            1   3
  302          m_sumb_d                              0.000021                          6   4
  303          brpre                                 0.000011                          2   4
  304          setg0                                 0.000330                          1   4
  305          broyd                                 0.000597                          1   4
  306            m_sumb_d                              0.000070                       21   5
  307            brget                                 0.000152                       79   5
  308            brsav                                 0.000039                       19   5
  309        m_bcast_d                             0.000019                            2   3
  310      potlok                                0.015364                              2   2
  311        fft3d_mpi                             0.010224                           36   3
  312          fftbrc_mpi                            0.008743                         36   4
  313            fftbas_plan_mpi                       0.008729                       36   5
  314              map_forward                           0.002454                     40   6
  315                map_gather                            0.000826                   24   7
  316                m_alltoallv_z                         0.000676                   24   7
  317                map_scatter                           0.000777                   24   7
  318              map_backward                          0.002066                     32   6
  319                map_gather                            0.000624                   16   7
  320                m_alltoallv_z                         0.000617                   16   7
  321                map_scatter                           0.000664                   16   7
  322              dfftw_execute                         0.002512                     30   6
  323        m_sumb_d                              0.000023                            5   3
  324        pothar                                0.000584                            2   3
  325          m_sumb_d                              0.000051                          2   4
  326        m_bcast_d                             0.000867                            4   3
  327      potlok_metagga                        0.000000                              1   2
  328      set_dd_magatom                        0.000005                              1   2
  329      set_dd_paw                            0.945271                              1   2
  330        m_sumb_d                              0.474824                            7   3
  331      augmentation_charge                   0.064897                              1   2
  332        fft3d_mpi                             0.014977                            2   3
  333          fftbrc_mpi                            0.012997                          2   4
  334            fftbas_plan_mpi                       0.012995                        2   5
  335              dfftw_execute                         0.008606                      6   6
  336              map_backward                          0.004159                      4   6
  337                map_gather                            0.000995                    2   7
  338                m_alltoallv_z                         0.002270                    2   7
  339                map_scatter                           0.000887                    2   7
  340      densta                                3.185126                              1   2

 Flat profile

 m_sumb_d                               12.854312       67305
 lapack                                 10.325789       21527
 eddav                                   9.859447          19
 init_acc                                9.810322           1
 set_dd_paw                              8.025608          17
 raccmu_                                 6.440783       21527
 total_time                              6.268778           1
 densta                                  5.498877          20
 redis_pw                                3.743804      120762
 acc_init_cublas                         3.397486           1
 m_alltoall_d                            2.348493      314818
 setdij_                                 2.042051          43
 phaser                                  1.978282        1428
 acc_init_cusolver                       1.137037           1
 redis_proj                              1.018515      153232
 fft3d                                   0.967067      132239
 eccp                                    0.890248       10640
 fftwav                                  0.888831       89185
 augmentation_charge                     0.821594          16
 rpromu_acc                              0.798726       18391
 orth1                                   0.715697       64693
 dfftw_execute                           0.707577         780
 racc0mu_acc                             0.626014       21527
 w1_copy                                 0.625889      129162
 overl                                   0.625161       75524
 soft_charge                             0.475200          15
 m_bcast_z                               0.471435       23767
 rpro_isp                                0.447646         364
 hamiltmu                                0.441423       21527
 setup_precond                           0.379946       10640
 m_bcast_d                               0.362939       43093
 m_alltoallv_z                           0.332803         765
 overl_mu                                0.328417       21527
 ggemm                                   0.287521       26847
 acc_cufft_makeplan                      0.260743          19
 newband                                 0.201794       22591
 kinhamil                                0.195034       43054
 vhamil                                  0.193127       43054
 fftext_mpi                              0.181982       43054
 apply_precond                           0.176786       32414
 pw_charge                               0.154703        6437
 fft3d_mpi                               0.146108       43755
 depsum                                  0.137360          15
 fftwav_mpi                              0.119569       89185
 map_scatter                             0.100114         765
 rspher_all                              0.098291          14
 map_gather                              0.083894         765
 set_charge                              0.057945          15
 fftbas_plan_mpi                         0.051550         701
 potlok                                  0.048983          17
 proall                                  0.043133           1
 sphpro_fast                             0.037240           2
 elmin                                   0.035380           1
 lincom                                  0.033581        1120
 w1_projall                              0.016759       16207
 orthch                                  0.012018           1
 choleski                                0.010119          56
 force_and_stress                        0.008617           1
 strnlr                                  0.007066           1
 broyd                                   0.006870          15
 brmix                                   0.006510          15
 setg0                                   0.005117          17
 inisym                                  0.004842           1
 truncate_high_frequency_w1              0.004279       53694
 map_backward                            0.003208         726
 map_forward                             0.003189         676
 fornlr                                  0.002407           1
 pothar                                  0.001651          18
 stufak                                  0.001438           1
 brget                                   0.001262         654
 forhar                                  0.000909           2
 strelo                                  0.000814           1
 strehar                                 0.000629           1
 forloc                                  0.000507           1
 fftbrc_mpi                              0.000382         701
 brsav                                   0.000362         182
 fewald                                  0.000343           1
 strkin                                  0.000304           1
 fft_gq                                  0.000268          15
 chggra                                  0.000209           1
 brpre                                   0.000208          30
 brgrid                                  0.000089           1
 set_dd_magatom                          0.000074          17
 vectorpot                               0.000069          16
 rsp                                     0.000054           1
 fordep                                  0.000044           1
 posmap                                  0.000035           2
 crpa_reader                             0.000026           1
 rcp                                     0.000016           1
 acc_cufft_makeplans                     0.000008           3
 rotate_active_occupied_orbital          0.000001           1
 redis_pw_over_bands                     0.000000           1
 potlok_metagga                          0.000000          16
  summed up times     98.40173602104187

 Accumulative profile

 total_time                             98.401736           1
 elmin                                  68.078938           1
 eddav                                  48.461242          19
 set_dd_paw                             15.921488          17
 m_sumb_d                               12.854312       67305
 lapack                                 10.325789       21527
 init_acc                                9.810322           1
 hamiltmu                                8.719310       21527
 raccmu_                                 7.395214       21527
 densta                                  5.498877          20
 redis_pw                                4.821490      120762
 force_and_stress                        4.362613           1
 acc_init_cublas                         3.397486           1
 setdij_                                 2.890064          43
 m_alltoall_d                            2.348493      314818
 redis_proj                              2.289321      153232
 newband                                 2.263701       22591
 set_charge                              2.061425          15
 phaser                                  1.978282        1428
 fft3d_mpi                               1.728734       43755
 fftwav_mpi                              1.675559       89185
 fftwav                                  1.555990       89185
 fftbrc_mpi                              1.282718         701
 fftbas_plan_mpi                         1.282336         701
 strnlr                                  1.150733           1
 acc_init_cusolver                       1.137037           1
 augmentation_charge                     1.067059          16
 rpro_isp                                0.995010         364
 fft3d                                   0.967067      132239
 eccp                                    0.890248       10640
 soft_charge                             0.853144          15
 rpromu_acc                              0.798726       18391
 orth1                                   0.715697       64693
 dfftw_execute                           0.707577         780
 kinhamil                                0.689547       43054
 racc0mu_acc                             0.626014       21527
 w1_copy                                 0.625889      129162
 overl                                   0.625161       75524
 fftext_mpi                              0.494513       43054
 w1_projall                              0.484543       16207
 m_bcast_z                               0.471435       23767
 fordep                                  0.402951           1
 fornlr                                  0.383944           1
 setup_precond                           0.379946       10640
 m_bcast_d                               0.362939       43093
 map_forward                             0.361914         676
 m_alltoallv_z                           0.332803         765
 overl_mu                                0.328417       21527
 ggemm                                   0.287521       26847
 potlok                                  0.284283          17
 orthch                                  0.261817           1
 acc_cufft_makeplans                     0.260751           3
 acc_cufft_makeplan                      0.260743          19
 vhamil                                  0.193127       43054
 apply_precond                           0.176786       32414
 map_backward                            0.161294         726
 pw_charge                               0.154703        6437
 depsum                                  0.138391          15
 proall                                  0.114888           1
 map_scatter                             0.100114         765
 rspher_all                              0.098291          14
 map_gather                              0.083894         765
 sphpro_fast                             0.038213           2
 lincom                                  0.033581        1120
 brmix                                   0.021502          15
 fft_gq                                  0.011975          15
 choleski                                0.010119          56
 broyd                                   0.009208          15
 setg0                                   0.005117          17
 inisym                                  0.004877           1
 truncate_high_frequency_w1              0.004279       53694
 pothar                                  0.001825          18
 stufak                                  0.001438           1
 brget                                   0.001262         654
 forhar                                  0.000926           2
 strelo                                  0.000857           1
 chggra                                  0.000695           1
 forloc                                  0.000679           1
 strehar                                 0.000632           1
 fewald                                  0.000515           1
 brsav                                   0.000362         182
 strkin                                  0.000310           1
 brpre                                   0.000208          30
 brgrid                                  0.000089           1
 set_dd_magatom                          0.000074          17
 vectorpot                               0.000069          16
 rsp                                     0.000054           1
 posmap                                  0.000035           2
 crpa_reader                             0.000026           1
 rcp                                     0.000016           1
 rotate_active_occupied_orbital          0.000001           1
 redis_pw_over_bands                     0.000000           1
 potlok_metagga                          0.000000          16

Profiling took   0.277642  0.139227  0.003572  0.003495 seconds
Profiling took   0.173695 seconds