 vasp.6.3.2 27Jun22 (build Jul  3 2023 11:46:21) complex
 executed on    LinuxNV_CrayMPICH date 2024.04.22  03:28:52

 INCAR:
   ADDGRID = True
   ALGO = Normal
   EDIFF = 0.00145
   ENCUT = 520.0
   IBRION = -1
   ICHARG = 0
   ISIF = 3
   ISMEAR = -5
   ISPIN = 2
   KPOINT_BSE = -1 0 0 0
   LAECHG = True
   LASPH = True
   LCHARG = True
   LELF = True
   LORBIT = 11
   LREAL = Auto
   LVHAR = True
   LWAVE = False
   MAGMOM = 3*0.6 3*7.0 23*5.0
   NELM = 1000
   NSW = 0
   PREC = accurate
   SIGMA = 0.05

 POTCAR:    PAW_PBE Pr_3 07Sep2000
 POTCAR:    PAW_PBE Gd 23Dec2003
 POTCAR:    PAW_PBE Mn_pv 02Aug2007
 POTCAR:    PAW_PBE Pr_3 07Sep2000
   VRHFIN =Pr : [core=Xe4]

   TITEL  = PAW_PBE Pr_3 07Sep2000
   POMASS =  140.907; ZVAL   =   11.000    mass and valenz
   ENMAX  =  181.719; ENMIN  =  136.289 eV

   TITEL  = PAW_PBE Gd 23Dec2003
   POMASS =  157.250; ZVAL   =   18.000    mass and valenz
   ENMAX  =  256.472; ENMIN  =  192.354 eV

   TITEL  = PAW_PBE Mn_pv 02Aug2007
   POMASS =   54.938; ZVAL   =   13.000    mass and valenz
   ENMAX  =  269.864; ENMIN  =  202.398 eV

 Optimization of the real space projectors (new method)

 maximal supplied QI-value         = 13.42
 optimisation between [QCUT,QGAM] = [ 11.67, 23.35] = [ 38.16,152.62] Ry
 Optimized for a Real-space Cutoff    1.58 Angstroem

   l    n(q)    QCUT    max X(q) W(low)/X(q) W(high)/X(q)  e(spline)
   0     11    11.673    13.819    0.14E-04    0.22E-04    0.31E-06
   0     11    11.673     9.993    0.21E-04    0.47E-04    0.65E-06
   1     11    11.673     4.666    0.12E-04    0.19E-04    0.54E-07
   1     11    11.673     4.652    0.24E-03    0.32E-04    0.94E-06
   2     10    11.673    41.448    0.22E-03    0.11E-02    0.17E-05
   2     10    11.673    33.309    0.20E-03    0.10E-02    0.16E-05
 Optimization of the real space projectors (new method)

[...]

   l    n(q)    QCUT    max X(q) W(low)/X(q) W(high)/X(q)  e(spline)
   0     11    11.673    10.501    0.14E-04    0.17E-05    0.21E-07
   0     11    11.673     9.148    0.21E-04    0.32E-05    0.45E-07
   1     11    11.673     4.035    0.33E-05    0.11E-04    0.84E-07
   1     11    11.673     4.388    0.11E-04    0.47E-04    0.34E-06
   2     10    11.673    20.656    0.12E-04    0.28E-04    0.54E-06
   2     10    11.673    12.651    0.11E-04    0.26E-04    0.51E-06
   3     10    11.673    61.921    0.19E-03    0.22E-03    0.23E-06
   3     10    11.673    48.328    0.20E-03    0.23E-03    0.23E-06
 Optimization of the real space projectors (new method)

 maximal supplied QI-value         = 16.25
 optimisation between [QCUT,QGAM] = [ 11.54, 23.24] = [ 37.28,151.24] Ry
 Optimized for a Real-space Cutoff    1.45 Angstroem

   l    n(q)    QCUT    max X(q) W(low)/X(q) W(high)/X(q)  e(spline)
   1     10    11.539     3.658    0.56E-04    0.12E-03    0.13E-06
   1     10    11.539     5.612    0.11E-03    0.23E-03    0.24E-06
   2      9    11.539    55.373    0.45E-04    0.92E-04    0.22E-06
   2      9    11.539    50.863    0.47E-04    0.95E-04    0.22E-06
   0     10    11.539    79.536    0.46E-04    0.27E-04    0.11E-06
   0     10    11.539    38.668    0.38E-04    0.25E-04    0.10E-06
  PAW_PBE Pr_3 07Sep2000                :
  PAW_PBE Gd 23Dec2003                  :
  PAW_PBE Mn_pv 02Aug2007               :

 POSCAR: Pr3 Gd3 Mn23
  positions in direct lattice
 exchange correlation table for  LEXCH =        8
   RHO(1)=    0.500       N(1)  =     2000
   RHO(2)=  100.500       N(2)  =     4000

 VTST: version 4.2, (08/11/21)

 CHAIN: initializing optimizer

 OPT: Using VASP Dynamics algorithm
 CHAIN: Read ICHAIN             0

 POSCAR: Pr3 Gd3 Mn23
  positions in direct lattice

 ion  position               nearest neighbor table
   1  0.703  0.300  0.703-  14 2.96   9 3.02   8 3.02  11 3.04  23 3.08  18 3.13  17 3.13  29 3.14
                            28 3.14  25 3.16  26 3.16  20 3.18   3 3.52   2 3.52   5 3.55   6 3.55
   2  0.300  0.703  0.703-  13 2.96  10 3.02   8 3.02  11 3.04  22 3.08  19 3.13  17 3.13  29 3.14
                            27 3.14  24 3.16  26 3.16  20 3.18   3 3.52   1 3.52   4 3.55   6 3.55
   3  0.703  0.703  0.300-  12 2.96  10 3.02   9 3.02  11 3.04  21 3.08  19 3.13  18 3.13  27 3.14
                            28 3.14  24 3.16  25 3.16  20 3.18   1 3.52   2 3.52   4 3.55   5 3.55
   4  0.292  0.708  0.292-  10 2.94  13 2.97  12 2.97   7 2.98  19 3.04  29 3.06  28 3.06  25 3.10
                            26 3.10  22 3.10  21 3.10  16 3.11   2 3.55   3 3.55
   5  0.708  0.292  0.292-   9 2.94  14 2.97  12 2.97   7 2.98  18 3.04  29 3.06  27 3.06  24 3.10
                            26 3.10  23 3.10  21 3.10  16 3.11   1 3.55   3 3.55
   6  0.292  0.292  0.708-   8 2.94  13 2.97  14 2.97   7 2.98  17 3.04  27 3.06  28 3.06  24 3.10
                            25 3.10  22 3.10  23 3.10  16 3.11   1 3.55   2 3.55
   7  0.121  0.121  0.121-  15 2.50  18 2.60  19 2.60  17 2.60  26 2.68  25 2.68  24 2.68  12 2.96
                            14 2.96  13 2.96   6 2.98   4 2.98   5 2.98
   8  0.123  0.123  0.632-  15 2.62  16 2.64  18 2.66  19 2.66  26 2.67  27 2.67  28 2.67   6 2.94
                            11 2.98  14 2.98  13 2.98   1 3.02   2 3.02
   9  0.632  0.123  0.123-  15 2.62  16 2.64  19 2.66  17 2.66  25 2.67  27 2.67  29 2.67   5 2.94
                            11 2.98  14 2.98  12 2.98   1 3.02   3 3.02
  10  0.123  0.632  0.123-  15 2.62  16 2.64  18 2.66  17 2.66  24 2.67  28 2.67  29 2.67   4 2.94
                            11 2.98  13 2.98  12 2.98   2 3.02   3 3.02
  11  0.880  0.880  0.880-  15 2.56  22 2.67  23 2.67  21 2.67  26 2.72  25 2.72  24 2.72   8 2.98
                            10 2.98   9 2.98   3 3.04   2 3.04   1 3.04
  12  0.880  0.880  0.362-  15 2.56  26 2.62  20 2.64  23 2.66  22 2.66  27 2.71  28 2.71   7 2.96
                             3 2.96   4 2.97   5 2.97  10 2.98   9 2.98
  13  0.362  0.880  0.880-  15 2.56  25 2.62  20 2.64  23 2.66  21 2.66  27 2.71  29 2.71   7 2.96
                             2 2.96   4 2.97   6 2.97   8 2.98  10 2.98
  14  0.880  0.362  0.880-  15 2.56  24 2.62  20 2.64  22 2.66  21 2.66  28 2.71  29 2.71   7 2.96
                             1 2.96   5 2.97   6 2.97   8 2.98   9 2.98
  15  0.002  0.002  0.002-   7 2.50  11 2.56  12 2.56  13 2.56  14 2.56   8 2.62   9 2.62  10 2.62

  16  0.321  0.321  0.321-  29 2.48  28 2.48  27 2.48  17 2.50  19 2.50  18 2.50   8 2.64   9 2.64
                            10 2.64   6 3.11   4 3.11   5 3.11
  17  0.319  0.319  0.032-  24 2.50  25 2.50  16 2.50  18 2.51  19 2.51  29 2.55   7 2.60   9 2.66
                            10 2.66   6 3.04   1 3.13   2 3.13
  18  0.032  0.319  0.319-  24 2.50  26 2.50  16 2.50  17 2.51  19 2.51  28 2.55   7 2.60   8 2.66
                            10 2.66   5 3.04   1 3.13   3 3.13
  19  0.319  0.032  0.319-  25 2.50  26 2.50  16 2.50  17 2.51  18 2.51  27 2.55   7 2.60   8 2.66
                             9 2.66   4 3.04   2 3.13   3 3.13
  20  0.686  0.686  0.686-  21 2.38  22 2.38  23 2.38  29 2.59  28 2.59  27 2.59  12 2.64  13 2.64
                            14 2.64   3 3.18   1 3.18   2 3.18
  21  0.676  0.676  0.971-  20 2.38  29 2.47  25 2.51  24 2.51  23 2.57  22 2.57  13 2.66  14 2.66
                            11 2.67   3 3.08   5 3.10   4 3.10
  22  0.971  0.676  0.676-  20 2.38  28 2.47  24 2.51  26 2.51  21 2.57  23 2.57  12 2.66  14 2.66
                            11 2.67   2 3.08   4 3.10   6 3.10
  23  0.676  0.971  0.676-  20 2.38  27 2.47  25 2.51  26 2.51  21 2.57  22 2.57  12 2.66  13 2.66
                            11 2.67   1 3.08   5 3.10   6 3.10
  24  0.999  0.497  0.999-  18 2.50  17 2.50  22 2.51  21 2.51  14 2.62  10 2.67   7 2.68  11 2.72
                             5 3.10   6 3.10   3 3.16   2 3.16
  25  0.497  0.999  0.999-  19 2.50  17 2.50  23 2.51  21 2.51  13 2.62   9 2.67   7 2.68  11 2.72
                             4 3.10   6 3.10   3 3.16   1 3.16
  26  0.999  0.999  0.497-  18 2.50  19 2.50  22 2.51  23 2.51  12 2.62   8 2.67   7 2.68  11 2.72
                             5 3.10   4 3.10   1 3.16   2 3.16
  27  0.498  0.008  0.498-  23 2.47  16 2.48  19 2.55  20 2.59   9 2.67   8 2.67  13 2.71  12 2.71
                             6 3.06   5 3.06   2 3.14   3 3.14
  28  0.008  0.498  0.498-  22 2.47  16 2.48  18 2.55  20 2.59  10 2.67   8 2.67  14 2.71  12 2.71
                             6 3.06   4 3.06   1 3.14   3 3.14
  29  0.498  0.498  0.008-  21 2.47  16 2.48  17 2.55  20 2.59   9 2.67  10 2.67  13 2.71  14 2.71
                             4 3.06   5 3.06   1 3.14   2 3.14

  LATTYP: Found a trigonal (rhomboedric) cell.
 ALAT       =     8.6148285034
 COS(alpha) =     0.4877177561

  Lattice vectors:

 A1 = (   7.4300530000,  -4.3599980000,   0.0000000000)
 A2 = (   7.4300530000,   4.3599980000,   0.0000000000)
 A3 = (   4.8715810000,   0.0000000000,   7.1051360000)

Analysis of symmetry for initial positions (statically):
 Subroutine PRICEL returns:
 Original cell was already a primitive cell.

 Routine SETGRP: Setting up the symmetry group for a
 trigonal (rhombohedral) supercell.

 Subroutine GETGRP returns: Found  6 space group operations
 (whereof  6 operations were pure point group operations)
 out of a pool of 12 trial point group operations.

The static configuration has the point symmetry C_3v.

Analysis of symmetry for dynamics (positions and initial velocities):
 Subroutine PRICEL returns:
 Original cell was already a primitive cell.

[...]

The dynamic configuration has the point symmetry C_3v.

Analysis of structural, dynamic, and magnetic symmetry:
 Subroutine PRICEL returns:
 Original cell was already a primitive cell.

 Routine SETGRP: Setting up the symmetry group for a
 trigonal (rhombohedral) supercell.

 Subroutine GETGRP returns: Found  6 space group operations
 (whereof  6 operations were pure point group operations)
 out of a pool of 12 trial point group operations.

The overall configuration has the point symmetry C_3v.

 Subroutine INISYM returns: Found  6 space group operations
 (whereof  6 operations are pure point group operations),
 and found     1 'primitive' translations

                                     Primitive cell

  volume of cell :     460.3420

  direct lattice vectors                    reciprocal lattice vectors
     7.430053000 -4.359998000  0.000000000     0.067294271 -0.114678952 -0.046139791
     7.430053000  4.359998000  0.000000000     0.067294271  0.114678952 -0.046139791
     4.871581000  0.000000000  7.105136000    -0.000000000  0.000000000  0.140743260

  length of vectors
     8.614828503  8.614828503  8.614827858     0.140743246  0.140743246  0.140743260

  position of ions in fractional coordinates (direct lattice)
     0.703042000  0.299824000  0.703042000
     0.299824000  0.703042000  0.703042000
     0.703042000  0.703042000  0.299824000
     0.292233000  0.708035000  0.292233000
     0.708035000  0.292233000  0.292233000
     0.292233000  0.292233000  0.708035000
     0.120756000  0.120756000  0.120756000
     0.122581000  0.122581000  0.632330000
     0.632330000  0.122581000  0.122581000
     0.122581000  0.632330000  0.122581000
[...]
  318                map_forward                           0.000251                    4   7
  319                  map_gather                            0.000049                  2   8
  320                  m_alltoallv_z                         0.000027                  2   8
  321                  map_scatter                           0.000140                  2   8
  322                map_backward                          0.000162                    2   7
  323                  map_gather                            0.000027                  1   8
  324                  m_alltoallv_z                         0.000011                  1   8
  325                  map_scatter                           0.000108                  1   8
  326          m_sumb_d                              0.000007                          2   4
  327          pothar                                0.000093                          1   4
  328            m_sumb_d                              0.000014                        1   5
  329        brmix                                 0.018793                            1   3
  330          m_sumb_d                              0.000076                          6   4
  331          brpre                                 0.000059                          2   4
  332          setg0                                 0.001812                          1   4
  333          broyd                                 0.014617                          1   4
  334            m_sumb_d                              0.000180                       49   5
  335            brget                                 0.002724                      219   5
  336            brsav                                 0.000573                       47   5
  337        m_bcast_d                             0.000032                            2   3
  338      potlok                                0.062294                              2   2
  339        fft3d_mpi                             0.041163                           36   3
  340          fftbrc_mpi                            0.031806                         36   4
  341            fftbas_plan_mpi                       0.031785                       36   5
  342              map_forward                           0.009629                     40   6
  343                map_gather                            0.002631                   24   7
  344                m_alltoallv_z                         0.004127                   24   7
  345                map_scatter                           0.002658                   24   7
  346              map_backward                          0.008573                     32   6
  347                map_gather                            0.002409                   16   7
  348                m_alltoallv_z                         0.003644                   16   7
  349                map_scatter                           0.002327                   16   7
  350              dfftw_execute                         0.012119                     30   6
  351        m_sumb_d                              0.000030                            5   3
  352        pothar                                0.002731                            2   3
  353          m_sumb_d                              0.000106                          2   4
  354        m_bcast_d                             0.004178                            4   3
  355      potlok_metagga                        0.000001                              1   2
  356      set_dd_magatom                        0.000005                              1   2
  357      set_dd_paw                            4.280056                              1   2
  358        m_sumb_d                              0.495655                            7   3
  359      augmentation_charge                   0.298096                              1   2
  360        fft3d_mpi                             0.116388                            2   3
  361          fftbrc_mpi                            0.101545                          2   4
  362            fftbas_plan_mpi                       0.101542                        2   5
  363              dfftw_execute                         0.066845                      6   6
  364              map_backward                          0.034489                      4   6
  365                map_gather                            0.011747                    2   7
  366                m_alltoallv_z                         0.012484                    2   7
  367                map_scatter                           0.010247                    2   7
  368      fftwav_mpi                            4.023725                           2700   2
  369        fftwav                                4.020336                         2700   3
  370          fft3d                                 3.663768                       2700   4
  371      densta                                1.485134                              1   2

 Flat profile

 set_dd_paw                            542.662741         145
 eddav                                 138.435995         147
 raccmu_                               137.766703      247899
 m_sumb_d                              129.895152      757794
 lapack                                110.217539      247899
 redis_pw                               59.265360     1333101
 setdij_                                29.602397         171
 augmentation_charge                    26.410408         145
 m_alltoall_d                           24.809135     3547781
 total_time                             21.355677           1
 dfftw_execute                          20.388578        3924
 fft3d                                  15.007591     1428433
 eccp                                   14.624335      132300
 phaser                                 14.450549        1842
 orth1                                  13.039997      743817
 init_acc                               11.836647           1
 redis_proj                             11.341091     1688096
 fftwav                                  9.242480      941150
 hamiltmu                                8.252021      247899
 racc0mu_acc                             7.186271      247899
 w1_copy                                 7.096534     1461849
 overl                                   6.969517      842278
 fft3d_mpi                               6.724408      492360
 rpromu_acc                              6.220657      183831
 densta                                  5.925806         148
 m_bcast_z                               5.680281      251499
 soft_charge                             5.144642         144
 setup_precond                           4.788424      132300
 m_alltoallv_z                           4.610117        5675
 m_bcast_d                               4.239410      496093
 ggemm                                   3.902754      314931
 overl_mu                                3.833733      247899
 map_scatter                             3.602202        5675
 map_gather                              3.467725        5675
 pw_charge                               3.105257       84484
 set_charge                              2.787836         144
 acc_init_cublas                         2.468268           1
 vhamil                                  2.234813      487283
 kinhamil                                2.189489      487283
 depsum                                  2.122609         144
 fftext_mpi                              2.062412      487283
 newband                                 1.980108      249663
 apply_precond                           1.948672      354983
 fftwav_mpi                              1.246829      941150
 broyd                                   1.146665         143
 potlok                                  0.911087         145
 acc_init_cusolver                       0.790146           1
 rpro_isp                                0.611511          78
 rspher_all                              0.521765          14
 brmix                                   0.450342         143
 brget                                   0.367103       29136
 elmin                                   0.332335           1
 setg0                                   0.268806         145
 fftbas_plan_mpi                         0.236028        5077
 sphpro_fast                             0.220004           2
 w1_projall                              0.176630      180867
 acc_cufft_makeplan                      0.104045          19
 brsav                                   0.100737        8186
 proall                                  0.084116           1
 lincom                                  0.074506        1776
 truncate_high_frequency_w1              0.047993      619583
 map_forward                             0.032763        4800
 orthch                                  0.032009           1
 map_backward                            0.031220        5354
 force_and_stress                        0.025523           1
 stufak                                  0.023707           1
 fft_gq                                  0.021001         144
 pothar                                  0.015013         146
 choleski                                0.011346          12
 brpre                                   0.008567         286
 inisym                                  0.004658           1
 strelo                                  0.004456           1
 forhar                                  0.003990           2
 strnlr                                  0.003974           1
 fftbrc_mpi                              0.003234        5077
 strehar                                 0.002570           1
 forloc                                  0.002074           1
 strkin                                  0.001460           1
 fornlr                                  0.001339           1
 rsp                                     0.001193           1
 set_dd_magatom                          0.000657         145
 vectorpot                               0.000579         144
 fewald                                  0.000344           1
 brgrid                                  0.000328           1
 chggra                                  0.000269           1
 fordep                                  0.000220           1
 rcp                                     0.000050           1
 posmap                                  0.000041           2
 crpa_reader                             0.000027           1
 potlok_metagga                          0.000020         144
 acc_cufft_makeplans                     0.000011           3
 rotate_active_occupied_orbital          0.000001           1
 redis_pw_over_bands                     0.000000           1
  summed up times     1446.819638967514

 Accumulative profile

 total_time                           1446.819639           1
 elmin                                1381.009640           1
 eddav                                 663.000404         147
 set_dd_paw                            615.806528         145
 hamiltmu                              167.106832      247899
 raccmu_                               148.786707      247899
 m_sumb_d                              129.895152      757794
 lapack                                110.217539      247899
 redis_pw                               71.535671     1333101
 set_charge                             63.347447         144
 setdij_                                48.078608         171
 augmentation_charge                    43.600428         145
 fft3d_mpi                              42.532604      492360
 fftbrc_mpi                             32.371869        5077
 fftbas_plan_mpi                        32.368635        5077
 newband                                32.064096      249663
 m_alltoall_d                           24.809135     3547781
 redis_proj                             23.879915     1688096
 fftwav_mpi                             22.060573      941150
 fftwav                                 20.813744      941150
 dfftw_execute                          20.388578        3924
 force_and_stress                       15.022025           1
 fft3d                                  15.007591     1428433
 soft_charge                            14.624930         144
 eccp                                   14.624335      132300
 phaser                                 14.450549        1842
 orth1                                  13.039997      743817
 init_acc                               11.836647           1
 kinhamil                                7.833290      487283
 racc0mu_acc                             7.186271      247899
 w1_copy                                 7.096534     1461849
 overl                                   6.969517      842278
 map_backward                            6.592422        5354
 rpromu_acc                              6.220657      183831
 densta                                  5.925806         148
 m_bcast_z                               5.680281      251499
 fftext_mpi                              5.643801      487283
 w1_projall                              5.397993      180867
 map_forward                             5.151606        4800
 setup_precond                           4.788424      132300
 m_alltoallv_z                           4.610117        5675
 m_bcast_d                               4.239410      496093
 ggemm                                   3.902754      314931
 overl_mu                                3.833733      247899
 map_scatter                             3.602202        5675
 map_gather                              3.467725        5675
 pw_charge                               3.105257       84484
 acc_init_cublas                         2.468268           1
 brmix                                   2.384387         143
 vhamil                                  2.234813      487283
 strnlr                                  2.216395           1
 depsum                                  2.177250         144
 fft_gq                                  2.106611         144
 rpro_isp                                1.984513          78
 apply_precond                           1.948672      354983
 potlok                                  1.896018         145
 fordep                                  1.688268           1
 broyd                                   1.641022         143
 acc_init_cusolver                       0.790146           1
 fornlr                                  0.741707           1
 rspher_all                              0.521765          14
 orthch                                  0.372105           1
 brget                                   0.367103       29136
 setg0                                   0.268806         145
 sphpro_fast                             0.229136           2
 proall                                  0.207554           1
 acc_cufft_makeplans                     0.104056           3
 acc_cufft_makeplan                      0.104045          19
 brsav                                   0.100737        8186
 lincom                                  0.074506        1776
 truncate_high_frequency_w1              0.047993      619583
 stufak                                  0.023707           1
 pothar                                  0.016546         146
 choleski                                0.011346          12
 brpre                                   0.008567         286
 inisym                                  0.004699           1
 strelo                                  0.004467           1
 forhar                                  0.004036           2
 forloc                                  0.003723           1
 strehar                                 0.002574           1
 fewald                                  0.001761           1
 strkin                                  0.001465           1
 rsp                                     0.001193           1
 chggra                                  0.000979           1
 set_dd_magatom                          0.000657         145
 vectorpot                               0.000579         144
 brgrid                                  0.000328           1
 rcp                                     0.000050           1
 posmap                                  0.000041           2
 crpa_reader                             0.000027           1
 potlok_metagga                          0.000020         144
 rotate_active_occupied_orbital          0.000001           1
 redis_pw_over_bands                     0.000000           1

Profiling took   3.032440  1.481736  0.003417  0.003318 seconds
Profiling took   1.957237 seconds