 vasp.6.3.2 27Jun22 (build Jul  3 2023 11:46:21) complex
 executed on    LinuxNV_CrayMPICH date 2024.04.21  02:25:30

 INCAR:
   ADDGRID = True
   ALGO = Fast
   EDIFF = 0.0001
   ENCUT = 520.0
   IBRION = -1
   ISIF = 3
   ISMEAR = -5
   ISPIN = 2
   LAECHG = True
   LASPH = True
   LCHARG = True
   LORBIT = 11
   LREAL = Auto
   LVHAR = True
   LWAVE = False
   MAGMOM = 1*0.6 1*7.0 2*0.6
   NELM = 1000
   NSW = 0
   PREC = Accurate
   SIGMA = 0.05

 POTCAR:    PAW_PBE Sm_3 07Sep2000
 POTCAR:    PAW_PBE Gd 23Dec2003
 POTCAR:    PAW_PBE In_d 06Sep2000
 POTCAR:    PAW_PBE Sm_3 07Sep2000
   VRHFIN =Sm : [core=Xe4]

   TITEL  = PAW_PBE Sm_3 07Sep2000
   POMASS =  150.360; ZVAL   =   11.000    mass and valenz
   ENMAX  =  177.087; ENMIN  =  132.815 eV

   TITEL  = PAW_PBE Gd 23Dec2003
   POMASS =  157.250; ZVAL   =   18.000    mass and valenz
   ENMAX  =  256.472; ENMIN  =  192.354 eV

   TITEL  = PAW_PBE In_d 06Sep2000
   POMASS =  114.820; ZVAL   =   13.000    mass and valenz
   ENMAX  =  239.211; ENMIN  =  179.409 eV

 Optimization of the real space projectors (new method)

 maximal supplied QI-value         = 13.23
 optimisation between [QCUT,QGAM] = [ 11.64, 23.28] = [ 37.95,151.78] Ry
 Optimized for a Real-space Cutoff    1.73 Angstroem

   l    n(q)    QCUT    max X(q) W(low)/X(q) W(high)/X(q)  e(spline)
   0     12    11.641     6.970    0.78E-05    0.65E-05    0.89E-07
   0     12    11.641    24.042    0.34E-04    0.17E-04    0.22E-06
   1     12    11.641     4.424    0.60E-05    0.14E-05    0.11E-06
   1     12    11.641     4.788    0.21E-04    0.27E-04    0.77E-06
   2     11    11.641    33.680    0.13E-03    0.27E-03    0.15E-05
   2     11    11.641    27.971    0.12E-03    0.25E-03    0.14E-05
 Optimization of the real space projectors (new method)

[...]

   l    n(q)    QCUT    max X(q) W(low)/X(q) W(high)/X(q)  e(spline)
   0     11    11.673    10.501    0.14E-04    0.17E-05    0.21E-07
   0     11    11.673     9.148    0.21E-04    0.32E-05    0.45E-07
   1     11    11.673     4.035    0.33E-05    0.11E-04    0.84E-07
   1     11    11.673     4.388    0.11E-04    0.47E-04    0.34E-06
   2     10    11.673    20.656    0.12E-04    0.28E-04    0.54E-06
   2     10    11.673    12.651    0.11E-04    0.26E-04    0.51E-06
   3     10    11.673    61.921    0.19E-03    0.22E-03    0.23E-06
   3     10    11.673    48.328    0.20E-03    0.23E-03    0.23E-06
 Optimization of the real space projectors (new method)

 maximal supplied QI-value         = 15.12
 optimisation between [QCUT,QGAM] = [ 11.64, 23.28] = [ 37.95,151.78] Ry
 Optimized for a Real-space Cutoff    1.36 Angstroem

   l    n(q)    QCUT    max X(q) W(low)/X(q) W(high)/X(q)  e(spline)
   2      9    11.641     4.551    0.57E-04    0.17E-03    0.81E-07
   2      9    11.641     8.525    0.12E-03    0.33E-04    0.17E-06
   0      9    11.641   208.283    0.14E-03    0.45E-04    0.94E-07
   0      9    11.641   161.407    0.13E-03    0.44E-04    0.93E-07
   1      9    11.641   122.126    0.23E-03    0.20E-03    0.21E-06
   1      9    11.641    62.412    0.22E-03    0.19E-03    0.20E-06
  PAW_PBE Sm_3 07Sep2000                :
  PAW_PBE Gd 23Dec2003                  :
  PAW_PBE In_d 06Sep2000                :

 POSCAR: Sm1 Gd1 In2
  positions in direct lattice
 exchange correlation table for  LEXCH =        8
   RHO(1)=    0.500       N(1)  =     2000
   RHO(2)=  100.500       N(2)  =     4000

 VTST: version 4.2, (08/11/21)

 CHAIN: initializing optimizer

 OPT: Using VASP Dynamics algorithm
 CHAIN: Read ICHAIN             0

 POSCAR: Sm1 Gd1 In2
  positions in direct lattice

 ion  position               nearest neighbor table
   1  0.000  0.000  0.000-   3 3.31   4 3.31   3 3.31   3 3.31   4 3.31   4 3.31   4 3.31   3 3.31

   2  0.500  0.500  0.500-   4 3.31   3 3.31   4 3.31   3 3.31   4 3.31   3 3.31   3 3.31   4 3.31

   3  0.750  0.750  0.750-   2 3.31   1 3.31   2 3.31   1 3.31   2 3.31   1 3.31   1 3.31   2 3.31
                             4 3.82   4 3.82   4 3.82   4 3.82   4 3.82   4 3.82
   4  0.250  0.250  0.250-   1 3.31   2 3.31   1 3.31   1 3.31   2 3.31   2 3.31   2 3.31   1 3.31
                             3 3.82   3 3.82   3 3.82   3 3.82   3 3.82   3 3.82

  LATTYP: Found a face centered cubic cell.
 ALAT       =     7.6418120000

  Lattice vectors:

 A1 = (   0.0000000000,   3.8209060000,   3.8209060000)
 A2 = (   3.8209060000,   0.0000000000,   3.8209060000)
 A3 = (   3.8209060000,   3.8209060000,   0.0000000000)

Analysis of symmetry for initial positions (statically):
 Subroutine PRICEL returns:
 Original cell was already a primitive cell.

 Routine SETGRP: Setting up the symmetry group for a
 face centered cubic supercell.

 Subroutine GETGRP returns: Found 48 space group operations
 (whereof 48 operations were pure point group operations)
 out of a pool of 48 trial point group operations.

The static configuration has the point symmetry O_h .

Analysis of symmetry for dynamics (positions and initial velocities):
 Subroutine PRICEL returns:
 Original cell was already a primitive cell.

[...]

The dynamic configuration has the point symmetry O_h .

Analysis of structural, dynamic, and magnetic symmetry:
 Subroutine PRICEL returns:
 Original cell was already a primitive cell.

 Routine SETGRP: Setting up the symmetry group for a
 face centered cubic supercell.

 Subroutine GETGRP returns: Found 48 space group operations
 (whereof 48 operations were pure point group operations)
 out of a pool of 48 trial point group operations.

The overall configuration has the point symmetry O_h .

 Subroutine INISYM returns: Found 48 space group operations
 (whereof 48 operations are pure point group operations),
 and found     1 'primitive' translations

                                     Primitive cell

  volume of cell :     111.5653

  direct lattice vectors                    reciprocal lattice vectors
     0.000000000  3.820906000  3.820906000    -0.130859016  0.130859016  0.130859016
     3.820906000  0.000000000  3.820906000     0.130859016 -0.130859016  0.130859016
     3.820906000  3.820906000  0.000000000     0.130859016  0.130859016 -0.130859016

  length of vectors
     5.403577086  5.403577086  5.403577086     0.226654465  0.226654465  0.226654465

  position of ions in fractional coordinates (direct lattice)
     0.000000000  0.000000000  0.000000000
     0.500000000  0.500000000  0.500000000
     0.750000000  0.750000000  0.750000000
     0.250000000  0.250000000  0.250000000

  ion indices of the primitive-cell ions
   primitive index   ion index
                 1           1
                 2           2
                 3           3
                 4           4

 KPOINTS: Kpoints from vasprun.xml

Automatic generation of k-mesh.
 Grid dimensions read from file:
 generate k-points for:    6    6    6

 Generating k-lattice:

  Cartesian coordinates                     Fractional coordinates (reciprocal lattice)
    -0.021809836  0.021809836  0.021809836     0.166666667  0.000000000  0.000000000
     0.021809836 -0.021809836  0.021809836     0.000000000  0.166666667 -0.000000000
     0.021809836  0.021809836 -0.021809836    -0.000000000 -0.000000000  0.166666667

  Length of vectors
     0.037775744  0.037775744  0.037775744

  Shift w.r.t. Gamma in fractional coordinates (k-lattice)
     0.500000000  0.500000000  0.500000000

 TETIRR: Found    403 inequivalent tetrahedra from     5184

 Subroutine IBZKPT returns following result:

 Found     28 irreducible k-points:

 Following reciprocal coordinates:
            Coordinates               Weight
  0.083333  0.083333  0.083333      8.000000
  0.250000  0.083333  0.083333     24.000000
  0.416667  0.083333  0.083333     24.000000
 -0.416667  0.083333  0.083333     24.000000
 -0.250000  0.083333  0.083333     24.000000
 -0.083333  0.083333  0.083333     24.000000
  0.250000  0.250000  0.083333     24.000000
  0.416667  0.250000  0.083333     48.000000
 -0.416667  0.250000  0.083333     48.000000
 -0.250000  0.250000  0.083333     48.000000
 -0.083333  0.250000  0.083333     48.000000
  0.416667  0.416667  0.083333     24.000000
 -0.416667  0.416667  0.083333     48.000000
 -0.250000  0.416667  0.083333     48.000000
 -0.083333  0.416667  0.083333     48.000000
 -0.416667 -0.416667  0.083333     24.000000
 -0.250000 -0.416667  0.083333     48.000000
 -0.250000 -0.250000  0.083333     24.000000
  0.250000  0.250000  0.250000      8.000000
  0.416667  0.250000  0.250000     24.000000
 -0.416667  0.250000  0.250000     24.000000
 -0.250000  0.250000  0.250000     24.000000
  0.416667  0.416667  0.250000     24.000000
 -0.416667  0.416667  0.250000     48.000000
 -0.250000  0.416667  0.250000     48.000000
 -0.416667 -0.416667  0.250000     24.000000
  0.416667  0.416667  0.416667      8.000000
 -0.416667  0.416667  0.416667     24.000000

 Following cartesian coordinates:
            Coordinates               Weight
  0.010905  0.010905  0.010905      8.000000
 -0.010905  0.032715  0.032715     24.000000
 -0.032715  0.054525  0.054525     24.000000
  0.076334 -0.054525 -0.054525     24.000000
  0.054525 -0.032715 -0.032715     24.000000
  0.032715 -0.010905 -0.010905     24.000000
  0.010905  0.010905  0.054525     24.000000
 -0.010905  0.032715  0.076334     48.000000
  0.098144 -0.076334 -0.032715     48.000000
  0.076334 -0.054525 -0.010905     48.000000
  0.054525 -0.032715  0.010905     48.000000
  0.010905  0.010905  0.098144     24.000000
  0.119954 -0.098144 -0.010905     48.000000
  0.098144 -0.076334  0.010905     48.000000
  0.076334 -0.054525  0.032715     48.000000
  0.010905  0.010905 -0.119954     24.000000
 -0.010905  0.032715 -0.098144     48.000000
  0.010905  0.010905 -0.076334     24.000000
  0.032715  0.032715  0.032715      8.000000
  0.010905  0.054525  0.054525     24.000000
  0.119954 -0.054525 -0.054525     24.000000
  0.098144 -0.032715 -0.032715     24.000000
  0.032715  0.032715  0.076334     24.000000
  0.141764 -0.076334 -0.032715     48.000000
  0.119954 -0.054525 -0.010905     48.000000
  0.032715  0.032715 -0.141764     24.000000
  0.054525  0.054525  0.054525      8.000000
  0.163574 -0.054525 -0.054525     24.000000

 SYSTEM =  unknown system
 POSCAR =  Sm1 Gd1 In2

 Startparameter for this run:
   NWRITE =      2    write-flag & timer
   PREC   = accura    normal or accurate (medium, high low for compatibility)
   ISTART =      0    job   : 0-new  1-cont  2-samecut
   ICHARG =      2    charge: 1-file 2-atom 10-const
   ISPIN  =      2    spin polarized calculation?
   LNONCOLLINEAR =      F non collinear calculations
   LSORBIT =      F    spin-orbit coupling
   INIWAV =      1    electr: 0-lowe 1-rand  2-diag
   LASPH  =      T    aspherical Exc in radial PAW
 Electronic Relaxation 1
   ENCUT  =  520.0 eV  38.22 Ry    6.18 a.u.  10.05 10.05 10.05*2*pi/ulx,y,z
   ENINI  =  520.0     initial cutoff
   ENAUG  =  537.2 eV  augmentation charge cutoff
   NELM   =   1000;   NELMIN=  2; NELMDL= -5     # of ELM steps
   EDIFF  = 0.1E-03   stopping-criterion for ELM
   LREAL  =      T    real-space projection
   NLSPLINE    = F    spline interpolate recip. space projectors
[...]
  382            m_sumb_d                              0.000540                       47   5
  383        m_bcast_d                             0.000017                            2   3
  384      potlok                                0.018619                              2   2
  385        fft3d_mpi                             0.012290                           36   3
  386          fftbrc_mpi                            0.010332                         36   4
  387            fftbas_plan_mpi                       0.010320                       36   5
  388              map_forward                           0.003041                     40   6
  389                map_gather                            0.001064                   24   7
  390                m_alltoallv_z                         0.000892                   24   7
  391                map_scatter                           0.000910                   24   7
  392              map_backward                          0.002484                     32   6
  393                map_gather                            0.000886                   16   7
  394                m_alltoallv_z                         0.000633                   16   7
  395                map_scatter                           0.000796                   16   7
  396              dfftw_execute                         0.003204                     30   6
  397        m_sumb_d                              0.000025                            5   3
  398        pothar                                0.000696                            2   3
  399          m_sumb_d                              0.000027                          2   4
  400        m_bcast_d                             0.001113                            4   3
  401      potlok_metagga                        0.000000                              1   2
  402      set_dd_magatom                        0.000004                              1   2
  403      set_dd_paw                            0.946910                              1   2
  404        m_sumb_d                              0.455942                            7   3
  405      augmentation_charge                   0.066987                              1   2
  406        fft3d_mpi                             0.017155                            2   3
  407          fftbrc_mpi                            0.014603                          2   4
  408            fftbas_plan_mpi                       0.014601                        2   5
  409              dfftw_execute                         0.008793                      6   6
  410              map_backward                          0.005658                      4   6
  411                map_gather                            0.001397                    2   7
  412                m_alltoallv_z                         0.002995                    2   7
  413                map_scatter                           0.001260                    2   7
  414      densta                                3.208499                              1   2

 Flat profile

 m_sumb_d                               53.509715       34303
 set_dd_paw                             47.821140          98
 eccp                                   20.712179      273986
 raccmu_                                17.011176       56186
 w1_gemv                                15.673984      655258
 densta                                 15.050752         101
 i2                                     13.581113       51072
 eccp_nl                                11.753636      217986
 init_acc                               11.477870           1
 phaser                                  7.317238        5964
 total_time                              7.114679           1
 eddiag                                  6.494562          95
 setdij_                                 5.737173         124
 eddrmm                                  5.672385          95
 cnorma                                  5.645430      217986
 redis_pw                                5.462375       65796
 overl1                                  5.453733      327629
 augmentation_charge                     4.909308          97
 fft3d                                   4.026956      565506
 m_alltoall_d                            4.005072      662396
 acc_init_cublas                         3.600179           1
 fftwav                                  3.242087      336166
 soft_charge                             3.064801          96
 w1_dscal                                3.006955      503485
 w1_copy                                 2.768136      528420
 dfftw_execute                           2.747108        2724
 w1_gaxpy                                2.643965      508070
 apply_precond                           2.600712      568135
 eddav                                   2.386518           5
 lapack                                  2.320580        5114
 hamilt_local                            2.299690       53200
 rpromu_acc                              2.124254       56970
 setup_precond                           1.973205       56000
 racc0mu_acc                             1.871493       56186
 w1_daxpy                                1.745775      330698
 newband                                 1.554090       61786
 w1_dot                                  1.441880       52637
 hamiltmu                                1.270267       56186
 redis_proj                              1.127318       67960
 acc_init_cusolver                       1.041762           1
 pw_charge                               1.016423       39481
 kinhamil                                0.999749      229340
 vhamil                                  0.978470      229340
 zhegv                                   0.972094      112712
 m_alltoallv_z                           0.937726        3843
 fftext_mpi                              0.923440      229340
 overl_mu                                0.856794       56186
 depsum                                  0.856703          96
 orthch                                  0.783973          96
 choleski                                0.642887        5376
 fft3d_mpi                               0.608610      232795
 set_charge                              0.493564          96
 orth1                                   0.480583       36734
 fftwav_mpi                              0.461371      336166
 rpro_isp                                0.452046         364
 i3                                      0.437237       51072
 map_scatter                             0.427510        3843
 map_gather                              0.426863        3843
 acc_cufft_makeplan                      0.277555          19
 potlok                                  0.263347          98
 overl                                   0.251338       28352
 lincom                                  0.197759       10976
 broyd                                   0.183904          96
 fftbas_plan_mpi                         0.176769        3455
 m_bcast_z                               0.168675        7354
 elmin                                   0.163274           1
 rspher_all                              0.087598          14
 m_bcast_d                               0.085473       10429
 ggemm                                   0.067183        6514
 brget                                   0.057066       18279
 brmix                                   0.054619          96
 i1                                      0.050702       51072
 w1_projall                              0.047466       54786
 setg0                                   0.045590          98
 proall                                  0.042941           1
 sphpro_fast                             0.038682           2
 map_backward                            0.018367        3642
 map_forward                             0.017701        3268
 truncate_high_frequency_w1              0.017561      232140
 brsav                                   0.014829        4916
 force_and_stress                        0.007902           1
 pothar                                  0.007660          99
 strnlr                                  0.006941           1
 inisym                                  0.004565           1
 fornlr                                  0.002422           1
 fft_gq                                  0.002053          96
 fftbrc_mpi                              0.001997        3455
 brpre                                   0.001930         192
 stufak                                  0.001437           1
 forhar                                  0.001264           2
 strelo                                  0.001163           1
 strehar                                 0.000857           1
 forloc                                  0.000690           1
 shift_bands_between_low_high            0.000652        5320
 set_dd_magatom                          0.000434          98
 vectorpot                               0.000402          97
 strkin                                  0.000386           1
 fewald                                  0.000326           1
 chggra                                  0.000222           1
 brgrid                                  0.000118           1
 rsp                                     0.000048           1
 fordep                                  0.000046           1
 posmap                                  0.000030           2
 crpa_reader                             0.000026           1
 rcp                                     0.000012           1
 acc_cufft_makeplans                     0.000009           3
 potlok_metagga                          0.000005          97
 rotate_active_occupied_orbital          0.000000           1
 redis_pw_over_bands                     0.000000           1
  summed up times     328.3892869949341

 Accumulative profile

 total_time                            328.389287           1
 elmin                                 295.456524           1
 eddrmm                                137.839546          95
 set_dd_paw                             92.094547          98
 m_sumb_d                               53.509715       34303
 i2                                     47.370534       51072
 i3                                     38.074800       51072
 hamiltmu                               24.528073       56186
 w1_gemv                                21.127717      655258
 eccp                                   20.712179      273986
 raccmu_                                19.739463       56186
 cnorma                                 17.399066      217986
 eddiag                                 16.115723          95
 densta                                 15.050752         101
 set_charge                             13.476270          96
 eccp_nl                                11.753636      217986
 eddav                                  11.546794           5
 init_acc                               11.477870           1
 newband                                 9.469469       61786
 setdij_                                 8.680124         124
 phaser                                  7.317238        5964
 redis_pw                                7.255031       65796
 fft3d_mpi                               6.894796      232795
 orthch                                  6.793550          96
 augmentation_charge                     6.600882          97
 fftwav_mpi                              6.198268      336166
 fftwav                                  5.736897      336166
 soft_charge                             5.500926          96
 overl1                                  5.453733      327629
 fftbrc_mpi                              4.754040        3455
 fftbas_plan_mpi                         4.752044        3455
 force_and_stress                        4.398992           1
 fft3d                                   4.026956      565506
 m_alltoall_d                            4.005072      662396
 acc_init_cublas                         3.600179           1
 kinhamil                                3.524600      229340
 redis_proj                              3.339734       67960
 hamilt_local                            3.284417       53200
 w1_dscal                                3.006955      503485
 w1_copy                                 2.768136      528420
 dfftw_execute                           2.747108        2724
 w1_gaxpy                                2.643965      508070
 apply_precond                           2.600712      568135
 fftext_mpi                              2.524851      229340
 lapack                                  2.320580        5114
 rpromu_acc                              2.124254       56970
 setup_precond                           1.973205       56000
 racc0mu_acc                             1.871493       56186
 w1_projall                              1.834217       54786
 w1_daxpy                                1.745775      330698
 w1_dot                                  1.441880       52637
 strnlr                                  1.110893           1
 acc_init_cusolver                       1.041762           1
 pw_charge                               1.016423       39481
 rpro_isp                                1.006656         364
 vhamil                                  0.978470      229340
 zhegv                                   0.972094      112712
 map_forward                             0.942039        3268
 m_alltoallv_z                           0.937726        3843
 map_backward                            0.886127        3642
 depsum                                  0.866121          96
 overl_mu                                0.856794       56186
 potlok                                  0.797051          98
 i1                                      0.785390       51072
 choleski                                0.642887        5376
 orth1                                   0.480583       36734
 map_scatter                             0.427510        3843
 map_gather                              0.426863        3843
 fordep                                  0.417769           1
 brmix                                   0.394849          96
 fornlr                                  0.373098           1
 broyd                                   0.288844          96
 acc_cufft_makeplans                     0.277564           3
 acc_cufft_makeplan                      0.277555          19
 overl                                   0.251338       28352
 lincom                                  0.197759       10976
 m_bcast_z                               0.168675        7354
 proall                                  0.110513           1
 fft_gq                                  0.096584          96
 rspher_all                              0.087598          14
 m_bcast_d                               0.085473       10429
 ggemm                                   0.067183        6514
 brget                                   0.057066       18279
 setg0                                   0.045590          98
 sphpro_fast                             0.039653           2
 truncate_high_frequency_w1              0.017561      232140
 brsav                                   0.014829        4916
 pothar                                  0.008527          99
 inisym                                  0.004595           1
 brpre                                   0.001930         192
 stufak                                  0.001437           1
 strelo                                  0.001373           1
 forhar                                  0.001301           2
 strehar                                 0.000860           1
 chggra                                  0.000732           1
 forloc                                  0.000702           1
 shift_bands_between_low_high            0.000652        5320
 fewald                                  0.000473           1
 set_dd_magatom                          0.000434          98
 strkin                                  0.000403           1
 vectorpot                               0.000402          97
 brgrid                                  0.000118           1
 rsp                                     0.000048           1
 posmap                                  0.000030           2
 crpa_reader                             0.000026           1
 rcp                                     0.000012           1
 potlok_metagga                          0.000005          97
 rotate_active_occupied_orbital          0.000000           1
 redis_pw_over_bands                     0.000000           1

Profiling took   0.913785  0.638925  0.003201  0.003111 seconds
Profiling took   0.768066 seconds