 vasp.6.3.2 27Jun22 (build Jul  3 2023 11:46:21) complex
 executed on    LinuxNV_CrayMPICH date 2024.04.20  20:20:04

 INCAR:
   ADDGRID = True
   ALGO = Fast
   EDIFF = 5e-05
   ENCUT = 520.0
   IBRION = -1
   ISIF = 3
   ISMEAR = -5
   ISPIN = 2
   LAECHG = True
   LASPH = True
   LCHARG = True
   LORBIT = 11
   LREAL = Auto
   LVHAR = True
   LWAVE = False
   MAGMOM = 1*7.0 3*0.6
   NELM = 1000
   NSW = 0
   PREC = Accurate
   SIGMA = 0.05

 POTCAR:    PAW_PBE Gd 23Dec2003
 POTCAR:    PAW_PBE In_d 06Sep2000
 POTCAR:    PAW_PBE Cu_pv 06Sep2000
 POTCAR:    PAW_PBE Gd 23Dec2003
   VRHFIN =Gd : [core=Xe4]

   TITEL  = PAW_PBE Gd 23Dec2003
   POMASS =  157.250; ZVAL   =   18.000    mass and valenz
   ENMAX  =  256.472; ENMIN  =  192.354 eV

   TITEL  = PAW_PBE In_d 06Sep2000
   POMASS =  114.820; ZVAL   =   13.000    mass and valenz
   ENMAX  =  239.211; ENMIN  =  179.409 eV

   TITEL  = PAW_PBE Cu_pv 06Sep2000
   POMASS =   63.546; ZVAL   =   17.000    mass and valenz
   ENMAX  =  368.648; ENMIN  =  276.486 eV

 Optimization of the real space projectors (new method)

 maximal supplied QI-value         = 13.42
 optimisation between [QCUT,QGAM] = [ 11.67, 23.35] = [ 38.16,152.62] Ry
 Optimized for a Real-space Cutoff    1.63 Angstroem

   l    n(q)    QCUT    max X(q) W(low)/X(q) W(high)/X(q)  e(spline)
   0     11    11.673    10.501    0.14E-04    0.17E-05    0.21E-07
   0     11    11.673     9.148    0.21E-04    0.32E-05    0.45E-07
   1     11    11.673     4.035    0.33E-05    0.11E-04    0.84E-07
   1     11    11.673     4.388    0.11E-04    0.47E-04    0.34E-06
   2     10    11.673    20.656    0.12E-04    0.28E-04    0.54E-06
   2     10    11.673    12.651    0.11E-04    0.26E-04    0.51E-06
   3     10    11.673    61.921    0.19E-03    0.22E-03    0.23E-06
   3     10    11.673    48.328    0.20E-03    0.23E-03    0.23E-06
 Optimization of the real space projectors (new method)

[...]

   l    n(q)    QCUT    max X(q) W(low)/X(q) W(high)/X(q)  e(spline)
   2      9    11.641     4.551    0.57E-04    0.17E-03    0.81E-07
   2      9    11.641     8.525    0.12E-03    0.33E-04    0.17E-06
   0      9    11.641   208.283    0.14E-03    0.45E-04    0.94E-07
   0      9    11.641   161.407    0.13E-03    0.44E-04    0.93E-07
   1      9    11.641   122.126    0.23E-03    0.20E-03    0.21E-06
   1      9    11.641    62.412    0.22E-03    0.19E-03    0.20E-06
 Optimization of the real space projectors (new method)

 maximal supplied QI-value         = 18.90
 optimisation between [QCUT,QGAM] = [ 11.53, 23.24] = [ 37.21,151.29] Ry
 Optimized for a Real-space Cutoff    1.36 Angstroem

   l    n(q)    QCUT    max X(q) W(low)/X(q) W(high)/X(q)  e(spline)
   1      9    11.527     3.172    0.21E-04    0.38E-04    0.11E-06
   1      9    11.527     4.083    0.67E-04    0.79E-04    0.20E-06
   2      9    11.527    65.342    0.13E-03    0.28E-03    0.26E-06
   2      9    11.527    61.381    0.13E-03    0.29E-03    0.26E-06
   0      9    11.527    65.742    0.32E-04    0.21E-04    0.72E-07
   0      9    11.527    30.431    0.28E-04    0.19E-04    0.65E-07
  PAW_PBE Gd 23Dec2003                  :
  PAW_PBE In_d 06Sep2000                :
  PAW_PBE Cu_pv 06Sep2000               :

 POSCAR: Gd1 In1 Cu2
  positions in direct lattice
 exchange correlation table for  LEXCH =        8
   RHO(1)=    0.500       N(1)  =     2000
   RHO(2)=  100.500       N(2)  =     4000

 VTST: version 4.2, (08/11/21)

 CHAIN: initializing optimizer

 OPT: Using VASP Dynamics algorithm
 CHAIN: Read ICHAIN             0

 POSCAR: Gd1 In1 Cu2
  positions in direct lattice

 ion  position               nearest neighbor table
   1  0.000  0.000  0.000-   4 2.89   4 2.89   4 2.89   3 2.89   4 2.89   3 2.89   3 2.89   3 2.89
                             2 3.34   2 3.34   2 3.34   2 3.34   2 3.34   2 3.34
   2  0.500  0.500  0.500-   3 2.89   3 2.89   3 2.89   3 2.89   4 2.89   4 2.89   4 2.89   4 2.89
                             1 3.34   1 3.34   1 3.34   1 3.34   1 3.34   1 3.34
   3  0.250  0.250  0.250-   1 2.89   1 2.89   1 2.89   1 2.89   2 2.89   2 2.89   2 2.89   2 2.89

   4  0.750  0.750  0.750-   2 2.89   2 2.89   2 2.89   1 2.89   2 2.89   1 2.89   1 2.89   1 2.89

  LATTYP: Found a face centered cubic cell.
 ALAT       =     6.6761540000

  Lattice vectors:

 A1 = (   0.0000000000,   3.3380770000,   3.3380770000)
 A2 = (   3.3380770000,   0.0000000000,   3.3380770000)
 A3 = (   3.3380770000,   3.3380770000,   0.0000000000)

Analysis of symmetry for initial positions (statically):
 Subroutine PRICEL returns:
 Original cell was already a primitive cell.

 Routine SETGRP: Setting up the symmetry group for a
 face centered cubic supercell.

 Subroutine GETGRP returns: Found 48 space group operations
 (whereof 48 operations were pure point group operations)
 out of a pool of 48 trial point group operations.

The static configuration has the point symmetry O_h .

Analysis of symmetry for dynamics (positions and initial velocities):
 Subroutine PRICEL returns:
 Original cell was already a primitive cell.

[...]

The dynamic configuration has the point symmetry O_h .

Analysis of structural, dynamic, and magnetic symmetry:
 Subroutine PRICEL returns:
 Original cell was already a primitive cell.

 Routine SETGRP: Setting up the symmetry group for a
 face centered cubic supercell.

 Subroutine GETGRP returns: Found 48 space group operations
 (whereof 48 operations were pure point group operations)
 out of a pool of 48 trial point group operations.

The overall configuration has the point symmetry O_h .

 Subroutine INISYM returns: Found 48 space group operations
 (whereof 48 operations are pure point group operations),
 and found     1 'primitive' translations

                                     Primitive cell

  volume of cell :      74.3908

  direct lattice vectors                    reciprocal lattice vectors
     0.000000000  3.338077000  3.338077000    -0.149786838  0.149786838  0.149786838
     3.338077000  0.000000000  3.338077000     0.149786838 -0.149786838  0.149786838
     3.338077000  3.338077000  0.000000000     0.149786838  0.149786838 -0.149786838

  length of vectors
     4.720753766  4.720753766  4.720753766     0.259438414  0.259438414  0.259438414

  position of ions in fractional coordinates (direct lattice)
     0.000000000  0.000000000  0.000000000
     0.500000000  0.500000000  0.500000000
     0.250000000  0.250000000  0.250000000
     0.750000000  0.750000000  0.750000000

  ion indices of the primitive-cell ions
   primitive index   ion index
                 1           1
                 2           2
                 3           3
                 4           4

 KPOINTS: Kpoints from vasprun.xml

Automatic generation of k-mesh.
 Grid dimensions read from file:
 generate k-points for:    6    6    6

 Generating k-lattice:

  Cartesian coordinates                     Fractional coordinates (reciprocal lattice)
    -0.024964473  0.024964473  0.024964473     0.166666667  0.000000000  0.000000000
     0.024964473 -0.024964473  0.024964473     0.000000000  0.166666667 -0.000000000
     0.024964473  0.024964473 -0.024964473    -0.000000000 -0.000000000  0.166666667

  Length of vectors
     0.043239736  0.043239736  0.043239736

  Shift w.r.t. Gamma in fractional coordinates (k-lattice)
     0.500000000  0.500000000  0.500000000

 TETIRR: Found    403 inequivalent tetrahedra from     5184

 Subroutine IBZKPT returns following result:

 Found     28 irreducible k-points:

 Following reciprocal coordinates:
            Coordinates               Weight
  0.083333  0.083333  0.083333      8.000000
  0.250000  0.083333  0.083333     24.000000
  0.416667  0.083333  0.083333     24.000000
 -0.416667  0.083333  0.083333     24.000000
 -0.250000  0.083333  0.083333     24.000000
 -0.083333  0.083333  0.083333     24.000000
  0.250000  0.250000  0.083333     24.000000
  0.416667  0.250000  0.083333     48.000000
 -0.416667  0.250000  0.083333     48.000000
 -0.250000  0.250000  0.083333     48.000000
 -0.083333  0.250000  0.083333     48.000000
  0.416667  0.416667  0.083333     24.000000
 -0.416667  0.416667  0.083333     48.000000
 -0.250000  0.416667  0.083333     48.000000
 -0.083333  0.416667  0.083333     48.000000
 -0.416667 -0.416667  0.083333     24.000000
 -0.250000 -0.416667  0.083333     48.000000
 -0.250000 -0.250000  0.083333     24.000000
  0.250000  0.250000  0.250000      8.000000
  0.416667  0.250000  0.250000     24.000000
 -0.416667  0.250000  0.250000     24.000000
 -0.250000  0.250000  0.250000     24.000000
  0.416667  0.416667  0.250000     24.000000
 -0.416667  0.416667  0.250000     48.000000
 -0.250000  0.416667  0.250000     48.000000
 -0.416667 -0.416667  0.250000     24.000000
  0.416667  0.416667  0.416667      8.000000
 -0.416667  0.416667  0.416667     24.000000

 Following cartesian coordinates:
            Coordinates               Weight
  0.012482  0.012482  0.012482      8.000000
 -0.012482  0.037447  0.037447     24.000000
 -0.037447  0.062411  0.062411     24.000000
  0.087376 -0.062411 -0.062411     24.000000
  0.062411 -0.037447 -0.037447     24.000000
  0.037447 -0.012482 -0.012482     24.000000
  0.012482  0.012482  0.062411     24.000000
 -0.012482  0.037447  0.087376     48.000000
  0.112340 -0.087376 -0.037447     48.000000
  0.087376 -0.062411 -0.012482     48.000000
  0.062411 -0.037447  0.012482     48.000000
  0.012482  0.012482  0.112340     24.000000
  0.137305 -0.112340 -0.012482     48.000000
  0.112340 -0.087376  0.012482     48.000000
  0.087376 -0.062411  0.037447     48.000000
  0.012482  0.012482 -0.137305     24.000000
 -0.012482  0.037447 -0.112340     48.000000
  0.012482  0.012482 -0.087376     24.000000
  0.037447  0.037447  0.037447      8.000000
  0.012482  0.062411  0.062411     24.000000
  0.137305 -0.062411 -0.062411     24.000000
  0.112340 -0.037447 -0.037447     24.000000
  0.037447  0.037447  0.087376     24.000000
  0.162269 -0.087376 -0.037447     48.000000
  0.137305 -0.062411 -0.012482     48.000000
  0.037447  0.037447 -0.162269     24.000000
  0.062411  0.062411  0.062411      8.000000
  0.187234 -0.062411 -0.062411     24.000000

 SYSTEM =  unknown system
 POSCAR =  Gd1 In1 Cu2

 Startparameter for this run:
   NWRITE =      2    write-flag & timer
   PREC   = accura    normal or accurate (medium, high low for compatibility)
   ISTART =      0    job   : 0-new  1-cont  2-samecut
   ICHARG =      2    charge: 1-file 2-atom 10-const
   ISPIN  =      2    spin polarized calculation?
   LNONCOLLINEAR =      F non collinear calculations
   LSORBIT =      F    spin-orbit coupling
   INIWAV =      1    electr: 0-lowe 1-rand  2-diag
   LASPH  =      T    aspherical Exc in radial PAW
 Electronic Relaxation 1
   ENCUT  =  520.0 eV  38.22 Ry    6.18 a.u.   8.78  8.78  8.78*2*pi/ulx,y,z
   ENINI  =  520.0     initial cutoff
   ENAUG  =  758.2 eV  augmentation charge cutoff
   NELM   =   1000;   NELMIN=  2; NELMDL= -5     # of ELM steps
   EDIFF  = 0.5E-04   stopping-criterion for ELM
   LREAL  =      T    real-space projection
   NLSPLINE    = F    spline interpolate recip. space projectors
[...]
  382            m_sumb_d                              0.000221                       47   5
  383        m_bcast_d                             0.000017                            2   3
  384      potlok                                0.015372                              2   2
  385        fft3d_mpi                             0.010166                           36   3
  386          fftbrc_mpi                            0.008673                         36   4
  387            fftbas_plan_mpi                       0.008659                       36   5
  388              map_forward                           0.002501                     40   6
  389                map_gather                            0.000840                   24   7
  390                m_alltoallv_z                         0.000694                   24   7
  391                map_scatter                           0.000789                   24   7
  392              map_backward                          0.002095                     32   6
  393                map_gather                            0.000716                   16   7
  394                m_alltoallv_z                         0.000497                   16   7
  395                map_scatter                           0.000709                   16   7
  396              dfftw_execute                         0.002502                     30   6
  397        m_sumb_d                              0.000025                            5   3
  398        pothar                                0.000578                            2   3
  399          m_sumb_d                              0.000050                          2   4
  400        m_bcast_d                             0.000834                            4   3
  401      potlok_metagga                        0.000000                              1   2
  402      set_dd_magatom                        0.000004                              1   2
  403      set_dd_paw                            0.956220                              1   2
  404        m_sumb_d                              0.483174                            7   3
  405      augmentation_charge                   0.054861                              1   2
  406        fft3d_mpi                             0.014877                            2   3
  407          fftbrc_mpi                            0.013321                          2   4
  408            fftbas_plan_mpi                       0.013319                        2   5
  409              dfftw_execute                         0.009100                      6   6
  410              map_backward                          0.003992                      4   6
  411                map_gather                            0.001066                    2   7
  412                m_alltoallv_z                         0.001953                    2   7
  413                map_scatter                           0.000967                    2   7
  414      densta                                3.575594                              1   2

 Flat profile

 m_sumb_d                               49.419945       34353
 set_dd_paw                             39.042871          83
 eccp                                   16.967235      226020
 densta                                 15.952783          86
 raccmu_                                13.351110       42983
 init_acc                               11.833068           1
 w1_gemv                                10.255889      429210
 i2                                      9.431195       36853
 eccp_nl                                 9.297077      173660
 total_time                              5.879516           1
 eddiag                                  5.838377          80
 phaser                                  5.600816        5124
 redis_pw                                4.855990       62447
 cnorma                                  4.585105      173660
 eddrmm                                  4.077224          80
 setdij_                                 4.045989         109
 m_alltoall_d                            3.789564      626395
 overl1                                  3.558811      214605
 fft3d                                   3.357977      477441
 augmentation_charge                     3.328656          82
 fftwav                                  2.900679      291414
 soft_charge                             2.745520          81
 eddav                                   2.683060           5
 lapack                                  2.580991        6130
 acc_init_cublas                         2.426117           1
 w1_copy                                 2.161486      410169
 w1_dscal                                2.144106      353637
 dfftw_execute                           2.125249        2364
 hamilt_local                            1.882921       49280
 setup_precond                           1.825262       52360
 apply_precond                           1.756888      391086
 w1_gaxpy                                1.733879      334282
 rpromu_acc                              1.679988       43487
 racc0mu_acc                             1.428627       42983
 newband                                 1.422294       47743
 w1_daxpy                                1.385633      249892
 w1_dot                                  1.338170       48715
 redis_proj                              1.072028       66108
 pw_charge                               0.974656       40651
 hamiltmu                                0.859130       42983
 depsum                                  0.811403          81
 vhamil                                  0.798380      186027
 kinhamil                                0.791580      186027
 acc_init_cusolver                       0.784928           1
 fftext_mpi                              0.744580      186027
 m_alltoallv_z                           0.674954        3273
 orthch                                  0.657660          81
 overl_mu                                0.640909       42983
 zhegv                                   0.631996       76231
 choleski                                0.542809        4536
 rpro_isp                                0.483479         364
 orth1                                   0.440871       36422
 fft3d_mpi                               0.410132      188972
 fftwav_mpi                              0.395884      291414
 i3                                      0.328378       36853
 set_charge                              0.318394          81
 map_gather                              0.293905        3273
 map_scatter                             0.281392        3273
 overl                                   0.244681       28266
 potlok                                  0.200095          83
 lincom                                  0.171084        9296
 m_bcast_z                               0.170434        8594
 fftbas_plan_mpi                         0.154618        2945
 elmin                                   0.140878           1
 acc_cufft_makeplan                      0.136195          19
 broyd                                   0.110506          81
 m_bcast_d                               0.101612       12431
 rspher_all                              0.081906          14
 ggemm                                   0.080092        7810
 proall                                  0.041595           1
 sphpro_fast                             0.040611           2
 w1_projall                              0.038537       41303
 i1                                      0.037888       36853
 brmix                                   0.037290          81
 brget                                   0.033127       14159
 setg0                                   0.027886          83
 map_backward                            0.015059        3102
 map_forward                             0.014774        2788
 truncate_high_frequency_w1              0.014110      189107
 brsav                                   0.008624        3857
 force_and_stress                        0.007259           1
 strnlr                                  0.007068           1
 pothar                                  0.006303          84
 inisym                                  0.004948           1
 fornlr                                  0.002419           1
 fftbrc_mpi                              0.001713        2945
 stufak                                  0.001465           1
 fft_gq                                  0.001371          81
 brpre                                   0.001129         162
 forhar                                  0.000898           2
 strelo                                  0.000847           1
 strehar                                 0.000620           1
 shift_bands_between_low_high            0.000557        4480
 forloc                                  0.000508           1
 set_dd_magatom                          0.000364          83
 vectorpot                               0.000338          82
 fewald                                  0.000324           1
 strkin                                  0.000289           1
 chggra                                  0.000220           1
 brgrid                                  0.000090           1
 rsp                                     0.000049           1
 fordep                                  0.000045           1
 posmap                                  0.000034           2
 crpa_reader                             0.000027           1
 rcp                                     0.000012           1
 acc_cufft_makeplans                     0.000011           3
 potlok_metagga                          0.000010          82
 rotate_active_occupied_orbital          0.000000           1
 redis_pw_over_bands                     0.000000           1
  summed up times     273.5680379867554

 Accumulative profile

 total_time                            273.568038           1
 elmin                                 243.127932           1
 eddrmm                                105.552539          80
 set_dd_paw                             78.230105          83
 m_sumb_d                               49.419945       34353
 i2                                     31.992925       36853
 i3                                     30.442532       36853
 hamiltmu                               18.990326       42983
 eccp                                   16.967235      226020
 densta                                 15.952783          86
 raccmu_                                15.420646       42983
 eddiag                                 14.121403          80
 cnorma                                 13.882182      173660
 w1_gemv                                13.814700      429210
 eddav                                  12.922438           5
 init_acc                               11.833068           1
 set_charge                             10.781271          81
 eccp_nl                                 9.297077      173660
 newband                                 8.729335       47743
 redis_pw                                6.539077       62447
 setdij_                                 6.150730         109
 orthch                                  5.878002          81
 phaser                                  5.600816        5124
 fftwav_mpi                              5.426893      291414
 fft3d_mpi                               5.199442      188972
 soft_charge                             5.083180          81
 fftwav                                  5.031009      291414
 augmentation_charge                     4.575089          82
 force_and_stress                        4.055982           1
 m_alltoall_d                            3.789564      626395
 fftbrc_mpi                              3.561664        2945
 fftbas_plan_mpi                         3.559952        2945
 overl1                                  3.558811      214605
 fft3d                                   3.357977      477441
 redis_proj                              3.178505       66108
 kinhamil                                2.817313      186027
 hamilt_local                            2.788064       49280
 lapack                                  2.580991        6130
 acc_init_cublas                         2.426117           1
 w1_copy                                 2.161486      410169
 w1_dscal                                2.144106      353637
 dfftw_execute                           2.125249        2364
 fftext_mpi                              2.025733      186027
 setup_precond                           1.825262       52360
 apply_precond                           1.756888      391086
 w1_gaxpy                                1.733879      334282
 rpromu_acc                              1.679988       43487
 racc0mu_acc                             1.428627       42983
 w1_daxpy                                1.385633      249892
 w1_projall                              1.378126       41303
 w1_dot                                  1.338170       48715
 strnlr                                  1.114140           1
 rpro_isp                                1.062902         364
 pw_charge                               0.974656       40651
 depsum                                  0.816069          81
 vhamil                                  0.798380      186027
 acc_init_cusolver                       0.784928           1
 map_forward                             0.688130        2788
 m_alltoallv_z                           0.674954        3273
 potlok                                  0.662868          83
 overl_mu                                0.640909       42983
 zhegv                                   0.631996       76231
 i1                                      0.601896       36853
 map_backward                            0.591954        3102
 choleski                                0.542809        4536
 orth1                                   0.440871       36422
 fornlr                                  0.372841           1
 fordep                                  0.339086           1
 map_gather                              0.293905        3273
 map_scatter                             0.281392        3273
 overl                                   0.244681       28266
 brmix                                   0.234046          81
 lincom                                  0.171084        9296
 m_bcast_z                               0.170434        8594
 broyd                                   0.164984          81
 acc_cufft_makeplans                     0.136206           3
 acc_cufft_makeplan                      0.136195          19
 proall                                  0.107953           1
 m_bcast_d                               0.101612       12431
 rspher_all                              0.081906          14
 ggemm                                   0.080092        7810
 fft_gq                                  0.063944          81
 sphpro_fast                             0.041666           2
 brget                                   0.033127       14159
 setg0                                   0.027886          83
 truncate_high_frequency_w1              0.014110      189107
 brsav                                   0.008624        3857
 pothar                                  0.007043          84
 inisym                                  0.004982           1
 stufak                                  0.001465           1
 brpre                                   0.001129         162
 forhar                                  0.000910           2
 strelo                                  0.000856           1
 chggra                                  0.000715           1
 strehar                                 0.000712           1
 forloc                                  0.000584           1
 fewald                                  0.000582           1
 shift_bands_between_low_high            0.000557        4480
 set_dd_magatom                          0.000364          83
 vectorpot                               0.000338          82
 strkin                                  0.000296           1
 brgrid                                  0.000090           1
 rsp                                     0.000049           1
 posmap                                  0.000034           2
 crpa_reader                             0.000027           1
 rcp                                     0.000012           1
 potlok_metagga                          0.000010          82
 rotate_active_occupied_orbital          0.000000           1
 redis_pw_over_bands                     0.000000           1

Profiling took   0.694082  0.493616  0.003404  0.003317 seconds
Profiling took   0.560483 seconds