 vasp.6.3.2 27Jun22 (build Jul  3 2023 11:46:21) complex
 executed on    LinuxNV_CrayMPICH date 2024.04.21  20:55:42

 INCAR:
   ALGO = Normal
   EDIFF = 1e-05
   ENCUT = 520.0
   IBRION = -1
   ISIF = 3
   ISMEAR = -5
   ISPIN = 2
   LAECHG = True
   LASPH = True
   LCHARG = True
   LORBIT = 11
   LREAL = Auto
   LVHAR = True
   LWAVE = False
   MAGMOM = 2*7.0 8*0.6 2*5.0
   NELM = 1000
   NSW = 0
   PREC = Accurate
   SIGMA = 0.05

 POTCAR:    PAW_PBE Gd 23Dec2003
 POTCAR:    PAW_PBE Al 04Jan2001
 POTCAR:    PAW_PBE Ni_pv 06Sep2000
 POTCAR:    PAW_PBE Gd 23Dec2003
   VRHFIN =Gd : [core=Xe4]

   TITEL  = PAW_PBE Gd 23Dec2003
   POMASS =  157.250; ZVAL   =   18.000    mass and valenz
   ENMAX  =  256.472; ENMIN  =  192.354 eV

   TITEL  = PAW_PBE Al 04Jan2001
   POMASS =   26.981; ZVAL   =    3.000    mass and valenz
   ENMAX  =  240.300; ENMIN  =  180.225 eV

   TITEL  = PAW_PBE Ni_pv 06Sep2000
   POMASS =   58.690; ZVAL   =   16.000    mass and valenz
   ENMAX  =  367.986; ENMIN  =  275.989 eV

 Optimization of the real space projectors (new method)

 maximal supplied QI-value         = 13.42
 optimisation between [QCUT,QGAM] = [ 11.67, 23.35] = [ 38.16,152.62] Ry
 Optimized for a Real-space Cutoff    1.63 Angstroem

   l    n(q)    QCUT    max X(q) W(low)/X(q) W(high)/X(q)  e(spline)
   0     11    11.673    10.501    0.14E-04    0.17E-05    0.21E-07
   0     11    11.673     9.148    0.21E-04    0.32E-05    0.45E-07
   1     11    11.673     4.035    0.33E-05    0.11E-04    0.84E-07
   1     11    11.673     4.388    0.11E-04    0.47E-04    0.34E-06
   2     10    11.673    20.656    0.12E-04    0.28E-04    0.54E-06
   2     10    11.673    12.651    0.11E-04    0.26E-04    0.51E-06
   3     10    11.673    61.921    0.19E-03    0.22E-03    0.23E-06
   3     10    11.673    48.328    0.20E-03    0.23E-03    0.23E-06
 Optimization of the real space projectors (new method)

[...]

   l    n(q)    QCUT    max X(q) W(low)/X(q) W(high)/X(q)  e(spline)
   0      8    11.508   176.870    0.11E-03    0.16E-03    0.40E-07
   0      8    11.508   105.762    0.11E-03    0.16E-03    0.39E-07
   1      8    11.508    55.370    0.23E-03    0.10E-03    0.75E-07
   1      8    11.508    20.208    0.21E-03    0.91E-04    0.68E-07
 Optimization of the real space projectors (new method)

 maximal supplied QI-value         = 18.90
 optimisation between [QCUT,QGAM] = [ 11.53, 23.24] = [ 37.21,151.29] Ry
 Optimized for a Real-space Cutoff    1.36 Angstroem

   l    n(q)    QCUT    max X(q) W(low)/X(q) W(high)/X(q)  e(spline)
   1      9    11.527     2.836    0.16E-04    0.30E-04    0.95E-07
   1      9    11.527     4.023    0.73E-04    0.81E-04    0.21E-06
   2      9    11.527    73.368    0.15E-03    0.29E-03    0.28E-06
   2      9    11.527    69.010    0.15E-03    0.29E-03    0.29E-06
   0      9    11.527    54.797    0.43E-04    0.28E-04    0.85E-07
   0      9    11.527    24.266    0.33E-04    0.24E-04    0.75E-07
  PAW_PBE Gd 23Dec2003                  :
  PAW_PBE Al 04Jan2001                  :
  PAW_PBE Ni_pv 06Sep2000               :

 POSCAR: Gd2 Al8 Ni2
  positions in direct lattice
 exchange correlation table for  LEXCH =        8
   RHO(1)=    0.500       N(1)  =     2000
   RHO(2)=  100.500       N(2)  =     4000

 VTST: version 4.2, (08/11/21)

 CHAIN: initializing optimizer

 OPT: Using VASP Dynamics algorithm
 CHAIN: Read ICHAIN             0

 POSCAR: Gd2 Al8 Ni2
  positions in direct lattice

 ion  position               nearest neighbor table
   1  0.885  0.115  0.750-   5 2.98  10 3.07   8 3.07   8 3.07  10 3.07   4 3.18   3 3.18   3 3.18
                             4 3.18   7 3.30   9 3.30   6 3.32   6 3.32
   2  0.115  0.885  0.250-   6 2.98   9 3.07   7 3.07   7 3.07   9 3.07   3 3.18   4 3.18   4 3.18
                             3 3.18   8 3.30  10 3.30   5 3.32   5 3.32
   3  0.500  0.500  0.000-   5 2.88   6 2.88   5 2.88   6 2.88   7 2.97   8 2.97   1 3.18   2 3.18
                             2 3.18   1 3.18   4 3.26   4 3.26
   4  0.500  0.500  0.500-   5 2.88   6 2.88   5 2.88   6 2.88   9 2.97  10 2.97   1 3.18   2 3.18
                             2 3.18   1 3.18   3 3.26   3 3.26
   5  0.076  0.924  0.750-  11 2.30   4 2.88   3 2.88   3 2.88   4 2.88   1 2.98   7 3.00   9 3.00
                             7 3.00   9 3.00   2 3.32   2 3.32
   6  0.924  0.076  0.250-  12 2.30   4 2.88   3 2.88   3 2.88   4 2.88   2 2.98   8 3.00  10 3.00
                             8 3.00  10 3.00   1 3.32   1 3.32
   7  0.690  0.310  0.949-  12 2.38  11 2.49  11 2.49   9 2.60   8 2.86   8 2.86   3 2.97   5 3.00
                             5 3.00   2 3.07   2 3.07   1 3.30
   8  0.310  0.690  0.051-  11 2.38  12 2.49  12 2.49  10 2.60   7 2.86   7 2.86   3 2.97   6 3.00
                             6 3.00   1 3.07   1 3.07   2 3.30
   9  0.690  0.310  0.551-  12 2.38  11 2.49  11 2.49   7 2.60  10 2.86  10 2.86   4 2.97   5 3.00
                             5 3.00   2 3.07   2 3.07   1 3.30
  10  0.310  0.690  0.449-  11 2.38  12 2.49  12 2.49   8 2.60   9 2.86   9 2.86   4 2.97   6 3.00
                             6 3.00   1 3.07   1 3.07   2 3.30
  11  0.224  0.776  0.750-   5 2.30   8 2.38  10 2.38   9 2.49   7 2.49   7 2.49   9 2.49
  12  0.776  0.224  0.250-   6 2.30   7 2.38   9 2.38  10 2.49   8 2.49   8 2.49  10 2.49

  LATTYP: Found a base centered orthorhombic cell.
 ALAT       =     4.1103960000
 B/A-ratio  =     3.7870793958
 C/A-ratio  =     1.5885629998

  Lattice vectors:

 A1 = (   2.0551980000,  -7.7831980000,   0.0000000000)
 A2 = (   2.0551980000,   7.7831980000,   0.0000000000)
 A3 = (   0.0000000000,   0.0000000000,   6.5296230000)

Analysis of symmetry for initial positions (statically):
 Subroutine PRICEL returns:
 Original cell was already a primitive cell.

 Routine SETGRP: Setting up the symmetry group for a
 base centered orthorhombic supercell.

 Subroutine GETGRP returns: Found  8 space group operations
 (whereof  4 operations were pure point group operations)
 out of a pool of  8 trial point group operations.

The static configuration has the point symmetry C_2h.
 The point group associated with its full space group is D_2h.

Analysis of symmetry for dynamics (positions and initial velocities):
 Subroutine PRICEL returns:
 Original cell was already a primitive cell.

[...]

The dynamic configuration has the point symmetry C_2h.
 The point group associated with its full space group is D_2h.

Analysis of structural, dynamic, and magnetic symmetry:
 Subroutine PRICEL returns:
 Original cell was already a primitive cell.

 Routine SETGRP: Setting up the symmetry group for a
 base centered orthorhombic supercell.

 Subroutine GETGRP returns: Found  8 space group operations
 (whereof  4 operations were pure point group operations)
 out of a pool of  8 trial point group operations.

The overall configuration has the point symmetry C_2h.
 The point group associated with its full space group is D_2h.

 Subroutine INISYM returns: Found  8 space group operations
 (whereof  4 operations are pure point group operations),
 and found     1 'primitive' translations

                                     Primitive cell

  volume of cell :     208.8959

  direct lattice vectors                    reciprocal lattice vectors
     2.055198000 -7.783198000  0.000000000     0.243285562 -0.064240946  0.000000000
     2.055198000  7.783198000  0.000000000     0.243285562  0.064240946 -0.000000000
     0.000000000  0.000000000  6.529623000    -0.000000000  0.000000000  0.153148199

  length of vectors
     8.049969561  8.049969561  6.529623000     0.251624251  0.251624251  0.153148199

  position of ions in fractional coordinates (direct lattice)
     0.884783000  0.115217000  0.750000000
     0.115217000  0.884783000  0.250000000
     0.500000000  0.500000000  0.000000000
     0.500000000  0.500000000  0.500000000
     0.076399000  0.923601000  0.750000000
     0.923601000  0.076399000  0.250000000
     0.689735000  0.310265000  0.948874000
     0.310265000  0.689735000  0.051126000
     0.689735000  0.310265000  0.551126000
     0.310265000  0.689735000  0.448874000
     0.223836000  0.776164000  0.750000000
     0.776164000  0.223836000  0.250000000

  ion indices of the primitive-cell ions
   primitive index   ion index
                 1           1
                 2           2
                 3           3
                 4           4
                 5           5
                 6           6
                 7           7
                 8           8
                 9           9
                10          10
                11          11
                12          12

 KPOINTS: Kpoints from vasprun.xml

Automatic generation of k-mesh.
 Grid dimensions read from file:
 generate k-points for:    4    4    5

 Generating k-lattice:

  Cartesian coordinates                     Fractional coordinates (reciprocal lattice)
     0.060821390 -0.016060236  0.000000000     0.250000000 -0.000000000  0.000000000
     0.060821390  0.016060236 -0.000000000    -0.000000000  0.250000000  0.000000000
    -0.000000000  0.000000000  0.030629640     0.000000000  0.000000000  0.200000000

  Length of vectors
     0.062906063  0.062906063  0.030629640

  Shift w.r.t. Gamma in fractional coordinates (k-lattice)
     0.000000000  0.000000000  0.000000000

 TETIRR: Found    122 inequivalent tetrahedra from      480

 Subroutine IBZKPT returns following result:

 Found     21 irreducible k-points:

 Following reciprocal coordinates:
            Coordinates               Weight
  0.000000  0.000000  0.000000      1.000000
  0.250000  0.000000  0.000000      4.000000
  0.500000  0.000000  0.000000      2.000000
  0.250000  0.250000  0.000000      2.000000
  0.500000  0.250000  0.000000      4.000000
 -0.250000  0.250000  0.000000      2.000000
  0.500000  0.500000  0.000000      1.000000
  0.000000  0.000000  0.200000      2.000000
  0.250000  0.000000  0.200000      8.000000
  0.500000  0.000000  0.200000      4.000000
  0.250000  0.250000  0.200000      4.000000
  0.500000  0.250000  0.200000      8.000000
 -0.250000  0.250000  0.200000      4.000000
  0.500000  0.500000  0.200000      2.000000
  0.000000  0.000000  0.400000      2.000000
  0.250000  0.000000  0.400000      8.000000
  0.500000  0.000000  0.400000      4.000000
  0.250000  0.250000  0.400000      4.000000
  0.500000  0.250000  0.400000      8.000000
 -0.250000  0.250000  0.400000      4.000000
  0.500000  0.500000  0.400000      2.000000

 Following cartesian coordinates:
            Coordinates               Weight
  0.000000  0.000000  0.000000      1.000000
  0.060821 -0.016060  0.000000      4.000000
  0.121643 -0.032120  0.000000      2.000000
  0.121643  0.000000  0.000000      2.000000
  0.182464 -0.016060  0.000000      4.000000
  0.000000  0.032120  0.000000      2.000000
  0.243286  0.000000  0.000000      1.000000
  0.000000  0.000000  0.030630      2.000000
  0.060821 -0.016060  0.030630      8.000000
  0.121643 -0.032120  0.030630      4.000000
  0.121643  0.000000  0.030630      4.000000
  0.182464 -0.016060  0.030630      8.000000
  0.000000  0.032120  0.030630      4.000000
[...]
  239          fft3d_mpi                             0.000507                          3   4
  240            fftbrc_mpi                            0.000402                        3   5
  241              fftbas_plan_mpi                       0.000400                      3   6
  242                map_forward                           0.000217                    4   7
  243                  map_gather                            0.000045                  2   8
  244                  m_alltoallv_z                         0.000026                  2   8
  245                  map_scatter                           0.000113                  2   8
  246                map_backward                          0.000098                    2   7
  247                  map_gather                            0.000023                  1   8
  248                  m_alltoallv_z                         0.000011                  1   8
  249                  map_scatter                           0.000047                  1   8
  250          m_sumb_d                              0.000010                          2   4
  251          pothar                                0.000081                          1   4
  252            m_sumb_d                              0.000006                        1   5
  253        brmix                                 0.010300                            1   3
  254          m_sumb_d                              0.000068                          6   4
  255          brpre                                 0.000034                          2   4
  256          setg0                                 0.001274                          1   4
  257          broyd                                 0.007440                          1   4
  258            m_sumb_d                              0.000960                       48   5
  259            brget                                 0.001377                      214   5
  260            brsav                                 0.000287                       46   5
  261        m_bcast_d                             0.000027                            2   3
  262      potlok                                0.042674                              2   2
  263        fft3d_mpi                             0.028205                           36   3
  264          fftbrc_mpi                            0.024430                         36   4
  265            fftbas_plan_mpi                       0.024413                       36   5
  266              map_forward                           0.007299                     40   6
  267                map_gather                            0.002074                   24   7
  268                m_alltoallv_z                         0.003084                   24   7
  269                map_scatter                           0.001927                   24   7
  270              map_backward                          0.006363                     32   6
  271                map_gather                            0.001903                   16   7
  272                m_alltoallv_z                         0.002615                   16   7
  273                map_scatter                           0.001649                   16   7
  274              dfftw_execute                         0.009081                     30   6
  275        m_sumb_d                              0.000029                            5   3
  276        pothar                                0.001824                            2   3
  277          m_sumb_d                              0.000076                          2   4
  278        m_bcast_d                             0.002977                            4   3
  279      potlok_metagga                        0.000000                              1   2
  280      set_dd_magatom                        0.000003                              1   2
  281      set_dd_paw                            1.356396                              1   2
  282        m_sumb_d                              0.470890                            7   3
  283      augmentation_charge                   0.018423                              1   2
  284        fft3d_mpi                             0.005782                            2   3
  285          fftbrc_mpi                            0.004691                          2   4
  286            fftbas_plan_mpi                       0.004691                        2   5
  287              dfftw_execute                         0.002114                      6   6
  288              map_backward                          0.002365                      4   6
  289                map_gather                            0.000693                    2   7
  290                m_alltoallv_z                         0.001120                    2   7
  291                map_scatter                           0.000549                    2   7
  292      densta                                1.349353                              1   2

 Flat profile

 raccmu_                               180.789840      251416
 m_sumb_d                              159.211596      773978
 set_dd_paw                            139.998394         159
 eddav                                 129.399970         161
 lapack                                122.830132      251416
 redis_pw                               58.233644     1400388
 phaser                                 26.650546        7035
 m_alltoall_d                           25.310570     3645320
 densta                                 12.653105         162
 eccp                                   12.438257      121716
 init_acc                               12.337223           1
 redis_proj                             11.823853     1781546
 fft3d                                  11.013877     1476758
 total_time                             10.008876           1
 fftwav                                  8.850827      973926
 orth1                                   8.158877      754374
 racc0mu_acc                             7.313322      251416
 overl                                   7.224859      883990
 w1_copy                                 7.201177     1508496
 hamiltmu                                7.182819      251416
 rpromu_acc                              6.018037      193288
 soft_charge                             5.743444         157
 m_bcast_z                               5.537222      254440
 setup_precond                           4.391543      121716
 m_bcast_d                               4.045491      503155
 overl_mu                                3.838233      251416
 ggemm                                   3.334797      312274
 pw_charge                               2.567311       80150
 acc_init_cublas                         2.431634           1
 vhamil                                  2.274638      502832
 kinhamil                                2.273865      502832
 fftext_mpi                              2.151294      502832
 apply_precond                           2.094471      381116
 setdij_                                 2.088998         185
 augmentation_charge                     1.963930         158
 newband                                 1.928582      258178
 depsum                                  1.921396         157
 set_charge                              1.707529         157
 fftwav_mpi                              1.335769      973926
 acc_init_cusolver                       0.787805           1
 potlok                                  0.733751         159
 broyd                                   0.668607         157
 fft3d_mpi                               0.615628      507621
 rpro_isp                                0.559549         273
 dfftw_execute                           0.460828        1968
 m_alltoallv_z                           0.400594        5421
 map_scatter                             0.366893        5421
 elmin                                   0.313364           1
 map_gather                              0.286583        5421
 lincom                                  0.240125        6804
 brmix                                   0.235997         157
 rspher_all                              0.230343          14
 brget                                   0.205606       32553
 setg0                                   0.203619         159
 w1_projall                              0.196205      190558
 fftbas_plan_mpi                         0.187569        4789
 acc_cufft_makeplan                      0.171499          19
 sphpro_fast                             0.087995           2
 proall                                  0.060582           1
 brsav                                   0.055480        9198
 truncate_high_frequency_w1              0.050944      624548
 map_forward                             0.032049        4480
 map_backward                            0.031483        5098
 orthch                                  0.017719           1
 fft_gq                                  0.016210         157
 pothar                                  0.014576         160
 force_and_stress                        0.013612           1
 choleski                                0.011117          42
 stufak                                  0.007944           1
 strnlr                                  0.006130           1
 brpre                                   0.005568         314
 inisym                                  0.004500           1
 fftbrc_mpi                              0.002620        4789
 forhar                                  0.002459           2
 strelo                                  0.002410           1
 fornlr                                  0.002124           1
 strehar                                 0.001843           1
 forloc                                  0.001296           1
 strkin                                  0.000674           1
 vectorpot                               0.000650         158
 set_dd_magatom                          0.000639         159
 rsp                                     0.000399           1
 fewald                                  0.000357           1
 chggra                                  0.000242           1
 brgrid                                  0.000241           1
 fordep                                  0.000037           1
 crpa_reader                             0.000025           1
 posmap                                  0.000025           2
 rcp                                     0.000017           1
 potlok_metagga                          0.000013         158
 acc_cufft_makeplans                     0.000011           3
 rotate_active_occupied_orbital          0.000000           1
 redis_pw_over_bands                     0.000000           1
  summed up times     1023.576503038406

 Accumulative profile

 total_time                           1023.576503           1
 elmin                                 989.811748           1
 eddav                                 743.663962         161
 set_dd_paw                            213.907547         159
 hamiltmu                              209.547488      251416
 raccmu_                               191.941395      251416
 m_sumb_d                              159.211596      773978
 lapack                                122.830132      251416
 redis_pw                               70.742584     1400388
 newband                                28.201220      258178
 phaser                                 26.650546        7035
 m_alltoall_d                           25.310570     3645320
 redis_proj                             24.625484     1781546
 set_charge                             18.555809         157
 fftwav_mpi                             17.629071      973926
 fftwav                                 16.293302      973926
 densta                                 12.653105         162
 eccp                                   12.438257      121716
 init_acc                               12.337223           1
 soft_charge                            11.761450         157
 fft3d                                  11.013877     1476758
 orth1                                   8.158877      754374
 kinhamil                                8.148636      502832
 racc0mu_acc                             7.313322      251416
 overl                                   7.224859      883990
 w1_copy                                 7.201177     1508496
 rpromu_acc                              6.018037      193288
 fft3d_mpi                               5.955649      507621
 fftext_mpi                              5.874771      502832
 w1_projall                              5.665356      190558
 m_bcast_z                               5.537222      254440
 setup_precond                           4.391543      121716
 force_and_stress                        4.357375           1
 m_bcast_d                               4.045491      503155
 overl_mu                                3.838233      251416
 ggemm                                   3.334797      312274
 augmentation_charge                     2.815058         158
 pw_charge                               2.567311       80150
 acc_init_cublas                         2.431634           1
 vhamil                                  2.274638      502832
 setdij_                                 2.131702         185
 apply_precond                           2.094471      381116
 depsum                                  1.951839         157
 strnlr                                  1.915587           1
 fftbrc_mpi                              1.768619        4789
 fftbas_plan_mpi                         1.765999        4789
 potlok                                  1.644327         159
 brmix                                   1.473049         157
 rpro_isp                                1.405418         273
 broyd                                   1.018204         157
 acc_init_cusolver                       0.787805           1
 map_backward                            0.713717        5098
 fornlr                                  0.641940           1
 dfftw_execute                           0.460828        1968
 fft_gq                                  0.460325         157
 map_forward                             0.403885        4480
 m_alltoallv_z                           0.400594        5421
 map_scatter                             0.366893        5421
 map_gather                              0.286583        5421
 orthch                                  0.277035           1
 lincom                                  0.240125        6804
 rspher_all                              0.230343          14
 brget                                   0.205606       32553
 setg0                                   0.203619         159
 proall                                  0.185088           1
 acc_cufft_makeplans                     0.171510           3
 acc_cufft_makeplan                      0.171499          19
 sphpro_fast                             0.091579           2
 fordep                                  0.067971           1
 brsav                                   0.055480        9198
 truncate_high_frequency_w1              0.050944      624548
 pothar                                  0.016204         160
 choleski                                0.011117          42
 stufak                                  0.007944           1
 brpre                                   0.005568         314
 inisym                                  0.004525           1
 forhar                                  0.002514           2
 strelo                                  0.002419           1
 strehar                                 0.001847           1
 forloc                                  0.001463           1
 chggra                                  0.000840           1
 fewald                                  0.000836           1
 strkin                                  0.000695           1
 vectorpot                               0.000650         158
 set_dd_magatom                          0.000639         159
 rsp                                     0.000399           1
 brgrid                                  0.000241           1
 posmap                                  0.000025           2
 crpa_reader                             0.000025           1
 rcp                                     0.000017           1
 potlok_metagga                          0.000013         158
 rotate_active_occupied_orbital          0.000000           1
 redis_pw_over_bands                     0.000000           1

Profiling took   3.130371  1.553955  0.003197  0.003134 seconds
Profiling took   1.988588 seconds