 vasp.6.3.2 27Jun22 (build Jul  3 2023 11:46:21) complex
 executed on    LinuxNV_CrayMPICH date 2024.04.21  06:30:03

 INCAR:
   ADDGRID = True
   ALGO = Normal
   EDIFF = 0.0012
   ENCUT = 520.0
   IBRION = -1
   ICHARG = 0
   ISIF = 3
   ISMEAR = -5
   ISPIN = 2
   KPOINT_BSE = -1 0 0 0
   LAECHG = True
   LASPH = True
   LCHARG = True
   LELF = True
   LORBIT = 11
   LREAL = Auto
   LVHAR = True
   LWAVE = False
   MAGMOM = 4*7.0 4*5.0 16*0.6
   NELM = 1000
   NSW = 0
   PREC = accurate
   SIGMA = 0.05

 POTCAR:    PAW_PBE Gd 23Dec2003
 POTCAR:    PAW_PBE Ni_pv 06Sep2000
 POTCAR:    PAW_PBE B 06Sep2000
 POTCAR:    PAW_PBE Gd 23Dec2003
   VRHFIN =Gd : [core=Xe4]

   TITEL  = PAW_PBE Gd 23Dec2003
   POMASS =  157.250; ZVAL   =   18.000    mass and valenz
   ENMAX  =  256.472; ENMIN  =  192.354 eV

   TITEL  = PAW_PBE Ni_pv 06Sep2000
   POMASS =   58.690; ZVAL   =   16.000    mass and valenz
   ENMAX  =  367.986; ENMIN  =  275.989 eV

   TITEL  = PAW_PBE B 06Sep2000
   POMASS =   10.811; ZVAL   =    3.000    mass and valenz
   ENMAX  =  318.614; ENMIN  =  238.960 eV

 Optimization of the real space projectors (new method)

 maximal supplied QI-value         = 13.42
 optimisation between [QCUT,QGAM] = [ 11.67, 23.35] = [ 38.16,152.62] Ry
 Optimized for a Real-space Cutoff    1.63 Angstroem

   l    n(q)    QCUT    max X(q) W(low)/X(q) W(high)/X(q)  e(spline)
   0     11    11.673    10.501    0.14E-04    0.17E-05    0.21E-07
   0     11    11.673     9.148    0.21E-04    0.32E-05    0.45E-07
   1     11    11.673     4.035    0.33E-05    0.11E-04    0.84E-07
   1     11    11.673     4.388    0.11E-04    0.47E-04    0.34E-06
   2     10    11.673    20.656    0.12E-04    0.28E-04    0.54E-06
   2     10    11.673    12.651    0.11E-04    0.26E-04    0.51E-06
   3     10    11.673    61.921    0.19E-03    0.22E-03    0.23E-06
   3     10    11.673    48.328    0.20E-03    0.23E-03    0.23E-06
 Optimization of the real space projectors (new method)

[...]

   l    n(q)    QCUT    max X(q) W(low)/X(q) W(high)/X(q)  e(spline)
   1      9    11.527     2.836    0.16E-04    0.30E-04    0.95E-07
   1      9    11.527     4.023    0.73E-04    0.81E-04    0.21E-06
   2      9    11.527    73.368    0.15E-03    0.29E-03    0.28E-06
   2      9    11.527    69.010    0.15E-03    0.29E-03    0.29E-06
   0      9    11.527    54.797    0.43E-04    0.28E-04    0.85E-07
   0      9    11.527    24.266    0.33E-04    0.24E-04    0.75E-07
 Optimization of the real space projectors (new method)

 maximal supplied QI-value         = 22.11
 optimisation between [QCUT,QGAM] = [ 11.50, 23.22] = [ 37.02,150.92] Ry
 Optimized for a Real-space Cutoff    1.21 Angstroem

   l    n(q)    QCUT    max X(q) W(low)/X(q) W(high)/X(q)  e(spline)
   0      8    11.497    53.033    0.18E-03    0.30E-03    0.10E-06
   0      8    11.497    34.740    0.17E-03    0.29E-03    0.10E-06
   1      8    11.497    30.949    0.20E-03    0.12E-03    0.21E-06
   1      8    11.497    19.518    0.18E-03    0.11E-03    0.19E-06
  PAW_PBE Gd 23Dec2003                  :
  PAW_PBE Ni_pv 06Sep2000               :
  PAW_PBE B 06Sep2000                   :

 POSCAR: Gd4 Ni4 B16
  positions in direct lattice
 exchange correlation table for  LEXCH =        8
   RHO(1)=    0.500       N(1)  =     2000
   RHO(2)=  100.500       N(2)  =     4000

 VTST: version 4.2, (08/11/21)

 CHAIN: initializing optimizer

 OPT: Using VASP Dynamics algorithm
 CHAIN: Read ICHAIN             0

 POSCAR: Gd4 Ni4 B16
  positions in direct lattice

 ion  position               nearest neighbor table
   1  0.203  0.203  0.000-  19 2.80  20 2.80  21 2.80  22 2.80  12 2.84  15 2.84   9 2.84  13 2.84
                            14 2.84  10 2.84  11 2.84  16 2.84   2 3.48
   2  0.797  0.797  0.000-  17 2.80  18 2.80  23 2.80  24 2.80  11 2.84  16 2.84   9 2.84  13 2.84
                            14 2.84  10 2.84  15 2.84  12 2.84   1 3.48
   3  0.750  0.250  0.500-  17 2.81  18 2.81  21 2.81  22 2.81  23 2.81  19 2.81  20 2.81  24 2.81
                            11 2.86  15 2.86  12 2.86  16 2.86  13 2.86  14 2.86   9 2.86  10 2.86
   4  0.250  0.750  0.500-  17 2.81  18 2.81  21 2.81  22 2.81  24 2.81  20 2.81  19 2.81  23 2.81
                            12 2.86  16 2.86  15 2.86  11 2.86  13 2.86  14 2.86   9 2.86  10 2.86
   5  0.500  0.271  0.771-  15 2.09  14 2.09  17 2.20  19 2.20  22 2.20  23 2.20   7 2.45   8 2.45
                             3 2.96   4 2.96
   6  0.500  0.729  0.229-  16 2.09  13 2.09  18 2.20  20 2.20  21 2.20  24 2.20   7 2.45   8 2.45
                             3 2.96   4 2.96
   7  0.729  0.500  0.229-  11 2.09  10 2.09  18 2.20  19 2.20  21 2.20  23 2.20   5 2.45   6 2.45
                             3 2.96   4 2.96
   8  0.271  0.500  0.771-  12 2.09   9 2.09  17 2.20  20 2.20  22 2.20  24 2.20   5 2.45   6 2.45
                             4 2.96   3 2.96
   9  0.112  0.276  0.387-  11 1.69  22 1.75  17 1.75  14 1.76   8 2.09   2 2.84   1 2.84   4 2.86
                             3 2.86
  10  0.888  0.724  0.613-  12 1.69  18 1.75  21 1.75  13 1.76   7 2.09   2 2.84   1 2.84   4 2.86
                             3 2.86
  11  0.888  0.276  0.164-   9 1.69  19 1.75  23 1.75  15 1.76   7 2.09   2 2.84   1 2.84   3 2.86
                             4 2.86
  12  0.112  0.724  0.836-  10 1.69  24 1.75  20 1.75  16 1.76   8 2.09   1 2.84   2 2.84   4 2.86
                             3 2.86
  13  0.724  0.888  0.613-  15 1.69  18 1.75  21 1.75  10 1.76   6 2.09   2 2.84   1 2.84   4 2.86
                             3 2.86
  14  0.276  0.112  0.387-  16 1.69  17 1.75  22 1.75   9 1.76   5 2.09   2 2.84   1 2.84   4 2.86
                             3 2.86
  15  0.724  0.112  0.836-  13 1.69  23 1.75  19 1.75  11 1.76   5 2.09   1 2.84   2 2.84   3 2.86
                             4 2.86
  16  0.276  0.888  0.164-  14 1.69  20 1.75  24 1.75  12 1.76   6 2.09   2 2.84   1 2.84   4 2.86
                             3 2.86
  17  0.418  0.418  0.531-  21 1.70  14 1.75   9 1.75   8 2.20   5 2.20   2 2.80   4 2.81   3 2.81

  18  0.887  0.887  0.469-  22 1.70  13 1.75  10 1.75   7 2.20   6 2.20   2 2.80   4 2.81   3 2.81

[...]

  24  0.418  0.887  0.000-  19 1.70  12 1.75  16 1.75   8 2.20   6 2.20   2 2.80   4 2.81   3 2.81

  LATTYP: Found a body centered tetragonal cell.
 ALAT       =     7.5725020000
 C/A-ratio  =     1.1282500817

  Lattice vectors:

 A1 = (  -3.7862510000,   3.7862510000,   4.2718380000)
 A2 = (   3.7862510000,  -3.7862510000,   4.2718380000)
 A3 = (   3.7862510000,   3.7862510000,  -4.2718380000)

Analysis of symmetry for initial positions (statically):
 Subroutine PRICEL returns:
 Original cell was already a primitive cell.

 Routine SETGRP: Setting up the symmetry group for a
 body centered tetragonal supercell.

 Subroutine GETGRP returns: Found 16 space group operations
 (whereof 16 operations were pure point group operations)
 out of a pool of 16 trial point group operations.

The static configuration has the point symmetry D_4h.

Analysis of symmetry for dynamics (positions and initial velocities):
 Subroutine PRICEL returns:
 Original cell was already a primitive cell.

[...]

The dynamic configuration has the point symmetry D_4h.

Analysis of structural, dynamic, and magnetic symmetry:
 Subroutine PRICEL returns:
 Original cell was already a primitive cell.

 Routine SETGRP: Setting up the symmetry group for a
 body centered tetragonal supercell.

 Subroutine GETGRP returns: Found 16 space group operations
 (whereof 16 operations were pure point group operations)
 out of a pool of 16 trial point group operations.

The overall configuration has the point symmetry D_4h.

 Subroutine INISYM returns: Found 16 space group operations
 (whereof 16 operations are pure point group operations),
 and found     1 'primitive' translations

                                     Primitive cell

  volume of cell :     244.9591

  direct lattice vectors                    reciprocal lattice vectors
    -3.786251000  3.786251000  4.271838000     0.000000000  0.132056750  0.117045637
     3.786251000 -3.786251000  4.271838000     0.132056750  0.000000000  0.117045637
     3.786251000  3.786251000 -4.271838000     0.132056750  0.132056750  0.000000000

  length of vectors
     6.849817017  6.849817017  6.849817017     0.176461515  0.176461515  0.186756446

  position of ions in fractional coordinates (direct lattice)
     0.203401000  0.203401000  0.000000000
     0.796599000  0.796599000  0.000000000
     0.750000000  0.250000000  0.500000000
     0.250000000  0.750000000  0.500000000
     0.500000000  0.271456000  0.771456000
     0.500000000  0.728544000  0.228544000
     0.728544000  0.500000000  0.228544000
     0.271456000  0.500000000  0.771456000
     0.111637000  0.275611000  0.387248000
     0.888363000  0.724389000  0.612752000
     0.888363000  0.275611000  0.163975000
     0.111637000  0.724389000  0.836025000
     0.724389000  0.888363000  0.612752000
     0.275611000  0.111637000  0.387248000
     0.724389000  0.111637000  0.836025000
     0.275611000  0.888363000  0.163975000
     0.418073000  0.418073000  0.531254000
     0.886819000  0.886819000  0.468746000
     0.581927000  0.113181000  0.000000000
     0.113181000  0.581927000  1.000000000
     0.581927000  0.581927000  0.468746000
     0.113181000  0.113181000  0.531254000
     0.886819000  0.418073000  0.000000000
     0.418073000  0.886819000  0.000000000

  ion indices of the primitive-cell ions
   primitive index   ion index
                 1           1
                 2           2
                 3           3
                 4           4
                 5           5
                 6           6
                 7           7
                 8           8
                 9           9
                10          10
                11          11
                12          12
                13          13
                14          14
                15          15
                16          16
                17          17
                18          18
                19          19
                20          20
                21          21
                22          22
                23          23
                24          24

 KPOINTS: Kpoints from vasprun.xml

Automatic generation of k-mesh.
 Grid dimensions read from file:
 generate k-points for:    4    4    4

 Generating k-lattice:

  Cartesian coordinates                     Fractional coordinates (reciprocal lattice)
     0.000000000  0.033014187  0.029261409     0.250000000 -0.000000000  0.000000000
     0.033014187  0.000000000  0.029261409    -0.000000000  0.250000000  0.000000000
     0.033014187  0.033014187  0.000000000     0.000000000 -0.000000000  0.250000000

  Length of vectors
     0.044115379  0.044115379  0.046689112

  Shift w.r.t. Gamma in fractional coordinates (k-lattice)
     0.000000000  0.000000000  0.000000000

 TETIRR: Found     80 inequivalent tetrahedra from      384

 Subroutine IBZKPT returns following result:

 Found     13 irreducible k-points:

 Following reciprocal coordinates:
            Coordinates               Weight
[...]
  318                map_forward                           0.000222                    4   7
  319                  map_gather                            0.000043                  2   8
  320                  m_alltoallv_z                         0.000025                  2   8
  321                  map_scatter                           0.000121                  2   8
  322                map_backward                          0.000094                    2   7
  323                  map_gather                            0.000023                  1   8
  324                  m_alltoallv_z                         0.000010                  1   8
  325                  map_scatter                           0.000045                  1   8
  326          m_sumb_d                              0.000012                          2   4
  327          pothar                                0.000085                          1   4
  328            m_sumb_d                              0.000012                        1   5
  329        brmix                                 0.010059                            1   3
  330          m_sumb_d                              0.000093                          6   4
  331          brpre                                 0.000026                          2   4
  332          setg0                                 0.001123                          1   4
  333          broyd                                 0.007402                          1   4
  334            m_sumb_d                              0.000213                       51   5
  335            brget                                 0.001390                      229   5
  336            brsav                                 0.000304                       49   5
  337        m_bcast_d                             0.000029                            2   3
  338      potlok                                0.039038                              2   2
  339        fft3d_mpi                             0.025622                           36   3
  340          fftbrc_mpi                            0.021403                         36   4
  341            fftbas_plan_mpi                       0.021391                       36   5
  342              map_forward                           0.006195                     40   6
  343                map_gather                            0.001907                   24   7
  344                m_alltoallv_z                         0.002297                   24   7
  345                map_scatter                           0.001782                   24   7
  346              map_backward                          0.004980                     32   6
  347                map_gather                            0.001662                   16   7
  348                m_alltoallv_z                         0.001613                   16   7
  349                map_scatter                           0.001518                   16   7
  350              dfftw_execute                         0.008639                     30   6
  351        m_sumb_d                              0.000025                            5   3
  352        pothar                                0.001572                            2   3
  353          m_sumb_d                              0.000106                          2   4
  354        m_bcast_d                             0.002458                            4   3
  355      potlok_metagga                        0.000000                              1   2
  356      set_dd_magatom                        0.000004                              1   2
  357      set_dd_paw                            2.214850                              1   2
  358        m_sumb_d                              0.012235                            7   3
  359      augmentation_charge                   0.176135                              1   2
  360        fft3d_mpi                             0.059698                            2   3
  361          fftbrc_mpi                            0.054094                          2   4
  362            fftbas_plan_mpi                       0.054090                        2   5
  363              dfftw_execute                         0.035875                      6   6
  364              map_backward                          0.017924                      4   6
  365                map_gather                            0.004641                    2   7
  366                m_alltoallv_z                         0.007093                    2   7
  367                map_scatter                           0.006178                    2   7
  368      fftwav_mpi                            2.949316                           2730   2
  369        fftwav                                2.945821                         2730   3
  370          fft3d                                 2.732435                       2730   4
  371      densta                                3.290620                              1   2

 Flat profile

 set_dd_paw                            714.595978         327
 raccmu_                               366.492898      627038
 eddav                                 327.386240         329
 lapack                                300.424137      627038
 m_sumb_d                              241.297406     1916318
 redis_pw                              139.939946     3355651
 m_alltoall_d                           61.357004     8792329
 phaser                                 47.665158        8723
 setdij_                                37.973832         353
 augmentation_charge                    37.655999         327
 densta                                 30.815185         330
 eccp                                   30.392612      299390
 fft3d                                  29.425973     3553589
 redis_proj                             28.053901     4268914
 dfftw_execute                          27.458313        8292
 fftwav                                 21.408977     2340962
 orth1                                  20.073354     1881244
 racc0mu_acc                            18.100066      627038
 overl                                  17.659193     2125890
 hamiltmu                               17.389148      627038
 w1_copy                                17.376314     3637881
 rpromu_acc                             14.298309      476108
 m_bcast_z                              13.529779      630678
 total_time                             13.160348           1
 soft_charge                            12.550126         326
 init_acc                               11.430863           1
 setup_precond                          10.737624      299390
 m_bcast_d                              10.275243     1254735
 overl_mu                                9.710295      627038
 ggemm                                   8.250934      781010
 pw_charge                               6.315138      200538
 vhamil                                  5.725196     1212627
 kinhamil                                5.404595     1212627
 m_alltoallv_z                           5.214932       12591
 fftext_mpi                              5.183732     1212627
 fft3d_mpi                               4.950743     1223892
 apply_precond                           4.903874      913237
 depsum                                  4.832868         326
 newband                                 4.651520      635592
 map_scatter                             4.638547       12591
 set_charge                              3.771028         326
 map_gather                              3.206147       12591
 fftwav_mpi                              3.078544     2340962
 acc_init_cublas                         2.449347           1
 broyd                                   1.503858         325
 potlok                                  1.399050         327
 acc_init_cusolver                       0.792215           1
 elmin                                   0.630204           1
 brmix                                   0.616710         325
 rpro_isp                                0.603792         169
 fftbas_plan_mpi                         0.580752       11265
 w1_projall                              0.475068      473066
 brget                                   0.451145       73221
 setg0                                   0.365137         327
 rspher_all                              0.330309          14
 lincom                                  0.310965        8580
 sphpro_fast                             0.175795           2
 brsav                                   0.124021       20991
 acc_cufft_makeplan                      0.116184          19
 truncate_high_frequency_w1              0.114948     1512017
 map_forward                             0.068872       10624
 map_backward                            0.067947       11906
 proall                                  0.067058           1
 fft_gq                                  0.030768         326
 pothar                                  0.027135         328
 orthch                                  0.020537           1
 force_and_stress                        0.016296           1
 choleski                                0.012403          26
 stufak                                  0.012184           1
 brpre                                   0.009849         650
 fftbrc_mpi                              0.007071       11265
 strnlr                                  0.005037           1
 inisym                                  0.004738           1
 strelo                                  0.002223           1
 forhar                                  0.001837           2
 fornlr                                  0.001732           1
 set_dd_magatom                          0.001714         327
 strehar                                 0.001604           1
 vectorpot                               0.001331         326
 forloc                                  0.000969           1
 rsp                                     0.000858           1
 strkin                                  0.000822           1
 fewald                                  0.000343           1
 chggra                                  0.000235           1
 brgrid                                  0.000219           1
 fordep                                  0.000114           1
 posmap                                  0.000081           2
 rcp                                     0.000035           1
 potlok_metagga                          0.000028         326
 crpa_reader                             0.000027           1
 acc_cufft_makeplans                     0.000015           3
 rotate_active_occupied_orbital          0.000000           1
 redis_pw_over_bands                     0.000000           1
  summed up times     2710.165596961975

 Accumulative profile

 total_time                           2710.165597           1
 elmin                                2660.973902           1
 eddav                                1762.612627         329
 set_dd_paw                            718.694493         327
 hamiltmu                              436.903405      627038
 raccmu_                               394.303260      627038
 lapack                                300.424137      627038
 m_sumb_d                              241.297406     1916318
 redis_pw                              170.414614     3355651
 set_charge                             93.431678         326
 newband                                68.853064      635592
 setdij_                                62.384431         353
 m_alltoall_d                           61.357004     8792329
 redis_proj                             58.936237     4268914
 augmentation_charge                    56.935053         327
 fft3d_mpi                              54.721995     1223892
 phaser                                 47.665158        8723
 fftwav_mpi                             45.384823     2340962
 fftwav                                 42.306279     2340962
 fftbrc_mpi                             41.242581       11265
 fftbas_plan_mpi                        41.235510       11265
 densta                                 30.815185         330
 eccp                                   30.392612      299390
 fft3d                                  29.425973     3553589
 dfftw_execute                          27.458313        8292
 soft_charge                            27.419834         326
 orth1                                  20.073354     1881244
 kinhamil                               19.485801     1212627
 racc0mu_acc                            18.100066      627038
 overl                                  17.659193     2125890
 w1_copy                                17.376314     3637881
 rpromu_acc                             14.298309      476108
 fftext_mpi                             14.081206     1212627
 w1_projall                             14.046896      473066
 m_bcast_z                              13.529779      630678
 init_acc                               11.430863           1
 setup_precond                          10.737624      299390
 m_bcast_d                              10.275243     1254735
 force_and_stress                        9.909418           1
 overl_mu                                9.710295      627038
 ggemm                                   8.250934      781010
 map_backward                            7.067643       11906
 pw_charge                               6.315138      200538
 map_forward                             6.128802       10624
 vhamil                                  5.725196     1212627
 m_alltoallv_z                           5.214932       12591
 depsum                                  4.921539         326
 apply_precond                           4.903874      913237
 map_scatter                             4.638547       12591
 map_gather                              3.206147       12591
 brmix                                   3.170598         325
 potlok                                  3.094523         327
 acc_init_cublas                         2.449347           1
 broyd                                   2.150755         325
 strnlr                                  2.107308           1
 rpro_isp                                1.681533         169
 fordep                                  1.064284           1
 fft_gq                                  0.818938         326
 acc_init_cusolver                       0.792215           1
 fornlr                                  0.705666           1
 brget                                   0.451145       73221
 setg0                                   0.365137         327
 rspher_all                              0.330309          14
 lincom                                  0.310965        8580
 orthch                                  0.293120           1
 proall                                  0.187648           1
 sphpro_fast                             0.183228           2
 brsav                                   0.124021       20991
 acc_cufft_makeplans                     0.116199           3
 acc_cufft_makeplan                      0.116184          19
 truncate_high_frequency_w1              0.114948     1512017
 pothar                                  0.030197         328
 choleski                                0.012403          26
 stufak                                  0.012184           1
 brpre                                   0.009849         650
 inisym                                  0.004819           1
 strelo                                  0.002251           1
 forloc                                  0.002164           1
 forhar                                  0.001897           2
 set_dd_magatom                          0.001714         327
 fewald                                  0.001713           1
 strehar                                 0.001644           1
 vectorpot                               0.001331         326
 rsp                                     0.000858           1
 chggra                                  0.000836           1
 strkin                                  0.000829           1
 brgrid                                  0.000219           1
 posmap                                  0.000081           2
 rcp                                     0.000035           1
 potlok_metagga                          0.000028         326
 crpa_reader                             0.000027           1
 rotate_active_occupied_orbital          0.000000           1
 redis_pw_over_bands                     0.000000           1

Profiling took   7.578429  3.732030  0.003234  0.003125 seconds
Profiling took   4.869036 seconds