 vasp.6.3.2 27Jun22 (build Jul  3 2023 11:46:21) complex
 executed on    LinuxNV_CrayMPICH date 2024.04.21  20:18:43

 INCAR:
   ADDGRID = True
   ALGO = Normal
   EDIFF = 0.0006
   ENCUT = 520.0
   IBRION = -1
   ICHARG = 0
   ISIF = 3
   ISMEAR = -5
   ISPIN = 2
   KPOINT_BSE = -1 0 0 0
   LAECHG = True
   LASPH = True
   LCHARG = True
   LELF = True
   LORBIT = 11
   LREAL = Auto
   LVHAR = True
   LWAVE = False
   MAGMOM = 3*0.6 1*7.0 8*0.6
   NELM = 1000
   NSW = 0
   PREC = accurate
   SIGMA = 0.05

 POTCAR:    PAW_PBE Ca_sv 06Sep2000
 POTCAR:    PAW_PBE Gd 23Dec2003
 POTCAR:    PAW_PBE Al 04Jan2001
 POTCAR:    PAW_PBE Ca_sv 06Sep2000
   VRHFIN =Ca: 3s3p4s

   TITEL  = PAW_PBE Ca_sv 06Sep2000
   POMASS =   40.078; ZVAL   =   10.000    mass and valenz
   ENMAX  =  266.622; ENMIN  =  199.967 eV

   TITEL  = PAW_PBE Gd 23Dec2003
   POMASS =  157.250; ZVAL   =   18.000    mass and valenz
   ENMAX  =  256.472; ENMIN  =  192.354 eV

   TITEL  = PAW_PBE Al 04Jan2001
   POMASS =   26.981; ZVAL   =    3.000    mass and valenz
   ENMAX  =  240.300; ENMIN  =  180.225 eV

 Optimization of the real space projectors (new method)

 maximal supplied QI-value         = 16.25
 optimisation between [QCUT,QGAM] = [ 11.54, 23.24] = [ 37.28,151.24] Ry
 Optimized for a Real-space Cutoff    1.58 Angstroem

   l    n(q)    QCUT    max X(q) W(low)/X(q) W(high)/X(q)  e(spline)
   0     11    11.539    11.817    0.25E-04    0.22E-05    0.26E-07
   0     11    11.539     8.461    0.39E-04    0.49E-05    0.55E-07
   1     11    11.539     3.957    0.21E-05    0.44E-05    0.32E-07
   1     11    11.539     4.314    0.56E-04    0.44E-04    0.19E-06
   2     10    11.539    14.565    0.25E-03    0.21E-04    0.75E-06
   2     10    11.539    14.552    0.23E-03    0.22E-04    0.72E-06
 Optimization of the real space projectors (new method)

[...]

   l    n(q)    QCUT    max X(q) W(low)/X(q) W(high)/X(q)  e(spline)
   0     11    11.673    10.501    0.14E-04    0.17E-05    0.21E-07
   0     11    11.673     9.148    0.21E-04    0.32E-05    0.45E-07
   1     11    11.673     4.035    0.33E-05    0.11E-04    0.84E-07
   1     11    11.673     4.388    0.11E-04    0.47E-04    0.34E-06
   2     10    11.673    20.656    0.12E-04    0.28E-04    0.54E-06
   2     10    11.673    12.651    0.11E-04    0.26E-04    0.51E-06
   3     10    11.673    61.921    0.19E-03    0.22E-03    0.23E-06
   3     10    11.673    48.328    0.20E-03    0.23E-03    0.23E-06
 Optimization of the real space projectors (new method)

 maximal supplied QI-value         = 19.84
 optimisation between [QCUT,QGAM] = [ 11.51, 23.22] = [ 37.09,150.92] Ry
 Optimized for a Real-space Cutoff    1.18 Angstroem

   l    n(q)    QCUT    max X(q) W(low)/X(q) W(high)/X(q)  e(spline)
   0      8    11.508   176.870    0.11E-03    0.16E-03    0.40E-07
   0      8    11.508   105.762    0.11E-03    0.16E-03    0.39E-07
   1      8    11.508    55.370    0.23E-03    0.10E-03    0.75E-07
   1      8    11.508    20.208    0.21E-03    0.91E-04    0.68E-07
  PAW_PBE Ca_sv 06Sep2000               :
  PAW_PBE Gd 23Dec2003                  :
  PAW_PBE Al 04Jan2001                  :

 POSCAR: Ca3 Gd1 Al8
  positions in direct lattice
 exchange correlation table for  LEXCH =        8
   RHO(1)=    0.500       N(1)  =     2000
   RHO(2)=  100.500       N(2)  =     4000

 VTST: version 4.2, (08/11/21)

 CHAIN: initializing optimizer

 OPT: Using VASP Dynamics algorithm
 CHAIN: Read ICHAIN             0

 POSCAR: Ca3 Gd1 Al8
  positions in direct lattice

 ion  position               nearest neighbor table
   1  0.625  0.625  0.625-
   2  0.000  0.000  0.000-
   3  0.500  0.500  0.500-
   4  0.125  0.125  0.125-   6 3.30   8 3.30  12 3.30   7 3.32  11 3.32   5 3.32   5 3.32  11 3.32
                             7 3.32   9 3.33   9 3.33   9 3.33
   5  0.563  0.563  0.063-   9 2.81  10 2.82   7 2.84  11 2.84  11 2.84   7 2.84   4 3.32   4 3.32

   6  0.063  0.063  0.562-   9 2.82  10 2.83   8 2.83  12 2.83   8 2.84  12 2.84   4 3.30
   7  0.563  0.063  0.563-   9 2.81  10 2.82   5 2.84  11 2.84   5 2.84  11 2.84   4 3.32   4 3.32

   8  0.063  0.562  0.063-   9 2.82  10 2.83   6 2.83  12 2.83   6 2.84  12 2.84   4 3.30
   9  0.812  0.812  0.812-   7 2.81  11 2.81   5 2.81   8 2.82  12 2.82   6 2.82   4 3.33   4 3.33
                             4 3.33
  10  0.313  0.313  0.313-   7 2.82  11 2.82   5 2.82   8 2.83  12 2.83   6 2.83
  11  0.063  0.563  0.563-   9 2.81  10 2.82   5 2.84   7 2.84   5 2.84   7 2.84   4 3.32   4 3.32

  12  0.562  0.063  0.063-   9 2.82  10 2.83   6 2.83   8 2.83   6 2.84   8 2.84   4 3.30

  LATTYP: Found a trigonal (rhomboedric) cell.
 ALAT       =     9.7508908568
 COS(alpha) =     0.8306454303

  Lattice vectors:

 A1 = (   9.3289210000,  -2.8374470000,   0.0000000000)
 A2 = (   9.3289210000,   2.8374470000,   0.0000000000)
 A3 = (   8.4658940000,   0.0000000000,   4.8382330000)

Analysis of symmetry for initial positions (statically):
 Subroutine PRICEL returns:
 Original cell was already a primitive cell.

 Routine SETGRP: Setting up the symmetry group for a
 trigonal (rhombohedral) supercell.

 Subroutine GETGRP returns: Found  6 space group operations
 (whereof  6 operations were pure point group operations)
 out of a pool of 12 trial point group operations.

The static configuration has the point symmetry C_3v.

Analysis of symmetry for dynamics (positions and initial velocities):
 Subroutine PRICEL returns:
 Original cell was already a primitive cell.

[...]

The dynamic configuration has the point symmetry C_3v.

Analysis of structural, dynamic, and magnetic symmetry:
 Subroutine PRICEL returns:
 Original cell was already a primitive cell.

 Routine SETGRP: Setting up the symmetry group for a
 trigonal (rhombohedral) supercell.

 Subroutine GETGRP returns: Found  6 space group operations
 (whereof  6 operations were pure point group operations)
 out of a pool of 12 trial point group operations.

The overall configuration has the point symmetry C_3v.

 Subroutine INISYM returns: Found  6 space group operations
 (whereof  6 operations are pure point group operations),
 and found     1 'primitive' translations

                                     Primitive cell

  volume of cell :     256.1391

  direct lattice vectors                    reciprocal lattice vectors
     9.328921000 -2.837447000  0.000000000     0.053596766 -0.176214745 -0.093783111
     9.328921000  2.837447000  0.000000000     0.053596766  0.176214745 -0.093783111
     8.465894000  0.000000000  4.838233000    -0.000000000  0.000000000  0.206687028

  length of vectors
     9.750890857  9.750890857  9.750890205     0.206687014  0.206687014  0.206687028

  position of ions in fractional coordinates (direct lattice)
     0.624963000  0.624963000  0.624963000
     0.000119000  0.000119000  0.000119000
     0.500006000  0.500006000  0.500006000
     0.124971000  0.124971000  0.124971000
     0.562645000  0.562645000  0.062939000
     0.062572000  0.062572000  0.561619000
     0.562645000  0.062939000  0.562645000
     0.062572000  0.561619000  0.062572000
     0.812399000  0.812399000  0.812399000
     0.312551000  0.312551000  0.312551000
     0.062939000  0.562645000  0.562645000
     0.561619000  0.062572000  0.062572000

  ion indices of the primitive-cell ions
   primitive index   ion index
                 1           1
                 2           2
                 3           3
                 4           4
                 5           5
                 6           6
                 7           7
                 8           8
                 9           9
                10          10
                11          11
                12          12

 KPOINTS: Kpoints from vasprun.xml

Automatic generation of k-mesh.
 Grid dimensions read from file:
 generate k-points for:    4    4    4

 Generating k-lattice:

  Cartesian coordinates                     Fractional coordinates (reciprocal lattice)
     0.013399192 -0.044053686 -0.023445778     0.250000000  0.000000000 -0.000000000
     0.013399192  0.044053686 -0.023445778     0.000000000  0.250000000 -0.000000000
    -0.000000000  0.000000000  0.051671757     0.000000000  0.000000000  0.250000000

  Length of vectors
     0.051671753  0.051671753  0.051671757

  Shift w.r.t. Gamma in fractional coordinates (k-lattice)
     0.000000000  0.000000000  0.000000000

 TETIRR: Found     30 inequivalent tetrahedra from      384

 Subroutine IBZKPT returns following result:

 Found     13 irreducible k-points:

 Following reciprocal coordinates:
            Coordinates               Weight
  0.000000  0.000000  0.000000      1.000000
  0.250000  0.000000  0.000000      6.000000
  0.500000  0.000000  0.000000      3.000000
  0.250000  0.250000  0.000000      6.000000
  0.500000  0.250000  0.000000     12.000000
 -0.250000  0.250000  0.000000      6.000000
  0.500000  0.500000  0.000000      3.000000
  0.250000  0.250000  0.250000      2.000000
  0.500000  0.250000  0.250000      6.000000
 -0.250000  0.250000  0.250000      6.000000
  0.500000  0.500000  0.250000      6.000000
 -0.250000  0.500000  0.250000      6.000000
  0.500000  0.500000  0.500000      1.000000

 Following cartesian coordinates:
            Coordinates               Weight
  0.000000  0.000000  0.000000      1.000000
  0.013399 -0.044054 -0.023446      6.000000
  0.026798 -0.088107 -0.046892      3.000000
  0.026798  0.000000 -0.046892      6.000000
  0.040198 -0.044054 -0.070337     12.000000
  0.000000  0.088107  0.000000      6.000000
  0.053597  0.000000 -0.093783      3.000000
  0.026798  0.000000  0.004780      2.000000
  0.040198 -0.044054 -0.018666      6.000000
  0.000000  0.088107  0.051672      6.000000
  0.053597  0.000000 -0.042111      6.000000
  0.013399  0.132161  0.028226      6.000000
  0.053597  0.000000  0.009560      1.000000

 SYSTEM =  unknown system
 POSCAR =  Ca3 Gd1 Al8

 Startparameter for this run:
   NWRITE =      2    write-flag & timer
   PREC   = accura    normal or accurate (medium, high low for compatibility)
   ISTART =      0    job   : 0-new  1-cont  2-samecut
   ICHARG =      0    charge: 1-file 2-atom 10-const
   ISPIN  =      2    spin polarized calculation?
   LNONCOLLINEAR =      F non collinear calculations
   LSORBIT =      F    spin-orbit coupling
   INIWAV =      1    electr: 0-lowe 1-rand  2-diag
   LASPH  =      T    aspherical Exc in radial PAW
 Electronic Relaxation 1
   ENCUT  =  520.0 eV  38.22 Ry    6.18 a.u.  18.13 18.13 18.13*2*pi/ulx,y,z
   ENINI  =  520.0     initial cutoff
   ENAUG  =  537.2 eV  augmentation charge cutoff
   NELM   =   1000;   NELMIN=  2; NELMDL= -5     # of ELM steps
   EDIFF  = 0.6E-03   stopping-criterion for ELM
   LREAL  =      T    real-space projection
   NLSPLINE    = F    spline interpolate recip. space projectors
   LCOMPAT=      F    compatible to vasp.4.4
   GGA_COMPAT  = T    GGA compatible to vasp.4.4-vasp.4.6
   LMAXPAW     = -100 max onsite density
   LMAXMIX     =    2 max onsite mixed and CHGCAR
   VOSKOWN=      0    Vosko Wilk Nusair interpolation
   ROPT   =   -0.00025  -0.00025  -0.00025
 Ionic relaxation
   EDIFFG = 0.6E-02   stopping-criterion for IOM
[...]
  318                map_forward                           0.000395                    4   7
  319                  map_gather                            0.000065                  2   8
  320                  m_alltoallv_z                         0.000028                  2   8
  321                  map_scatter                           0.000261                  2   8
  322                map_backward                          0.000148                    2   7
  323                  map_gather                            0.000034                  1   8
  324                  m_alltoallv_z                         0.000013                  1   8
  325                  map_scatter                           0.000080                  1   8
  326          m_sumb_d                              0.000010                          2   4
  327          pothar                                0.000113                          1   4
  328            m_sumb_d                              0.000022                        1   5
  329        brmix                                 0.022994                            1   3
  330          m_sumb_d                              0.000067                          6   4
  331          brpre                                 0.000099                          2   4
  332          setg0                                 0.003626                          1   4
  333          broyd                                 0.014827                          1   4
  334            m_sumb_d                              0.000661                       49   5
  335            brget                                 0.003087                      219   5
  336            brsav                                 0.000656                       47   5
  337        m_bcast_d                             0.000033                            2   3
  338      potlok                                0.107268                              2   2
  339        fft3d_mpi                             0.072084                           36   3
  340          fftbrc_mpi                            0.059824                         36   4
  341            fftbas_plan_mpi                       0.059800                       36   5
  342              map_forward                           0.017088                     40   6
  343                map_gather                            0.004341                   24   7
  344                m_alltoallv_z                         0.007587                   24   7
  345                map_scatter                           0.004894                   24   7
  346              map_backward                          0.013607                     32   6
  347                map_gather                            0.002909                   16   7
  348                m_alltoallv_z                         0.006415                   16   7
  349                map_scatter                           0.004016                   16   7
  350              dfftw_execute                         0.027152                     30   6
  351        m_sumb_d                              0.000030                            5   3
  352        pothar                                0.005419                            2   3
  353          m_sumb_d                              0.000414                          2   4
  354        m_bcast_d                             0.008304                            4   3
  355      potlok_metagga                        0.000000                              1   2
  356      set_dd_magatom                        0.000004                              1   2
  357      set_dd_paw                            1.342349                              1   2
  358        m_sumb_d                              0.000242                            7   3
  359      augmentation_charge                   0.459173                              1   2
  360        fft3d_mpi                             0.190263                            2   3
  361          fftbrc_mpi                            0.159816                          2   4
  362            fftbas_plan_mpi                       0.159812                        2   5
  363              dfftw_execute                         0.089586                      6   6
  364              map_backward                          0.070023                      4   6
  365                map_gather                            0.025093                    2   7
  366                m_alltoallv_z                         0.016464                    2   7
  367                map_scatter                           0.028451                    2   7
  368      fftwav_mpi                            3.735367                           1014   2
  369        fftwav                                3.733850                         1014   3
  370          fft3d                                 3.506680                       1014   4
  371      densta                                0.248199                              1   2

 Flat profile

 set_dd_paw                             87.844431          65
 raccmu_                                81.292398       45745
 total_time                             30.907356           1
 eddav                                  25.312135          67
 setdij_                                23.703486          91
 lapack                                 20.162382       45745
 phaser                                 18.758412        1911
 m_sumb_d                               18.532301      145240
 augmentation_charge                    17.443931          65
 dfftw_execute                          17.414492        2004
 init_acc                               12.409178           1
 redis_pw                               10.428667      231993
 fft3d                                   6.105072      250309
 fft3d_mpi                               5.059492       86058
 m_alltoall_d                            4.345048      610243
 map_scatter                             4.273800        2635
 map_gather                              3.798887        2635
 m_alltoallv_z                           3.364838        2635
 eccp                                    2.876354       22646
 acc_init_cublas                         2.431498           1
 set_charge                              2.421318          64
 hamiltmu                                2.135197       45745
 redis_proj                              1.932127      293074
 fftwav                                  1.922429      166608
 orth1                                   1.479671      137287
 rpromu_acc                              1.313180       34903
 racc0mu_acc                             1.293757       45745
 soft_charge                             1.239989          64
 w1_copy                                 1.205503      251103
 overl                                   1.174546      144782
 densta                                  1.145184          68
 m_bcast_z                               1.060190       47097
 setup_precond                           0.818904       22646
 pw_charge                               0.805525       16444
 acc_init_cusolver                       0.790747           1
 m_bcast_d                               0.781729       91625
 potlok                                  0.735860          65
 overl_mu                                0.702560       45745
 ggemm                                   0.589619       57939
 rspher_all                              0.562221          14
 broyd                                   0.392890          63
 newband                                 0.386802       47487
 vhamil                                  0.384895       83701
 kinhamil                                0.373519       83701
 fftext_mpi                              0.354865       83701
 depsum                                  0.353596          64
 apply_precond                           0.332902       61055
 brmix                                   0.319138          63
 rpro_isp                                0.302897         169
 setg0                                   0.229141          65
 fftwav_mpi                              0.222626      166608
 elmin                                   0.191201           1
 fftbas_plan_mpi                         0.143512        2357
 brget                                   0.137754        9744
 acc_cufft_makeplan                      0.113843          19
 lincom                                  0.065336        1768
 proall                                  0.051568           1
 sphpro_fast                             0.041731           2
 brsav                                   0.034887        2538
 w1_projall                              0.032004       33551
 force_and_stress                        0.021574           1
 stufak                                  0.020710           1
 fft_gq                                  0.018957          64
 map_backward                            0.018561        2474
 map_forward                             0.017167        2240
 pothar                                  0.011811          66
 orthch                                  0.010781           1
 truncate_high_frequency_w1              0.009054      106347
 choleski                                0.008246          26
 forhar                                  0.007788           2
 strelo                                  0.005498           1
 brpre                                   0.005018         126
 strehar                                 0.004716           1
 inisym                                  0.004384           1
 strnlr                                  0.004004           1
 forloc                                  0.003969           1
 fftbrc_mpi                              0.001626        2357
 fornlr                                  0.001380           1
 brgrid                                  0.000584           1
 strkin                                  0.000455           1
 fewald                                  0.000342           1
 chggra                                  0.000319           1
 set_dd_magatom                          0.000298          65
 vectorpot                               0.000268          64
 rsp                                     0.000258           1
 fordep                                  0.000069           1
 crpa_reader                             0.000027           1
 posmap                                  0.000025           2
 rcp                                     0.000020           1
 acc_cufft_makeplans                     0.000009           3
 potlok_metagga                          0.000006          64
 rotate_active_occupied_orbital          0.000001           1
 redis_pw_over_bands                     0.000000           1
  summed up times     425.2174451351166

 Accumulative profile

 total_time                            425.217445           1
 elmin                                 351.376246           1
 eddav                                 197.315863          67
 set_dd_paw                             87.859200          65
 hamiltmu                               87.161193       45745
 raccmu_                                83.288715       45745
 setdij_                                43.505978          91
 set_charge                             37.087295          64
 fft3d_mpi                              34.691178       86058
 augmentation_charge                    29.781050          65
 fftbrc_mpi                             29.032882        2357
 fftbas_plan_mpi                        29.031257        2357
 lapack                                 20.162382       45745
 phaser                                 18.758412        1911
 m_sumb_d                               18.532301      145240
 dfftw_execute                          17.414492        2004
 force_and_stress                       17.191968           1
 redis_pw                               12.543366      231993
 init_acc                               12.409178           1
 fftwav_mpi                              7.651323      166608
 fftwav                                  7.428697      166608
 fft3d                                   6.105072      250309
 newband                                 5.802524       47487
 map_forward                             5.752109        2240
 map_backward                            5.721144        2474
 soft_charge                             4.570647          64
 m_alltoall_d                            4.345048      610243
 map_scatter                             4.273800        2635
 redis_proj                              4.162475      293074
 map_gather                              3.798887        2635
 m_alltoallv_z                           3.364838        2635
 eccp                                    2.876354       22646
 fordep                                  2.842532           1
 acc_init_cublas                         2.431498           1
 strnlr                                  2.168744           1
 orth1                                   1.479671      137287
 potlok                                  1.432631          65
 kinhamil                                1.352386       83701
 rpromu_acc                              1.313180       34903
 racc0mu_acc                             1.293757       45745
 w1_copy                                 1.205503      251103
 overl                                   1.174546      144782
 brmix                                   1.168752          63
 densta                                  1.145184          68
 m_bcast_z                               1.060190       47097
 fftext_mpi                              0.978867       83701
 w1_projall                              0.962588       33551
 rpro_isp                                0.831444         169
 setup_precond                           0.818904       22646
 pw_charge                               0.805525       16444
 acc_init_cusolver                       0.790747           1
 m_bcast_d                               0.781729       91625
 fornlr                                  0.724671           1
 overl_mu                                0.702560       45745
 broyd                                   0.607577          63
 ggemm                                   0.589619       57939
 rspher_all                              0.562221          14
 fft_gq                                  0.557231          64
 vhamil                                  0.384895       83701
 depsum                                  0.381975          64
 apply_precond                           0.332902       61055
 setg0                                   0.229141          65
 orthch                                  0.211551           1
 proall                                  0.202149           1
 brget                                   0.137754        9744
 acc_cufft_makeplans                     0.113852           3
 acc_cufft_makeplan                      0.113843          19
 lincom                                  0.065336        1768
 sphpro_fast                             0.043268           2
 brsav                                   0.034887        2538
 stufak                                  0.020710           1
 pothar                                  0.013256          66
 truncate_high_frequency_w1              0.009054      106347
 choleski                                0.008246          26
 forhar                                  0.007882           2
 strelo                                  0.005852           1
 brpre                                   0.005018         126
 strehar                                 0.004720           1
 inisym                                  0.004409           1
 forloc                                  0.004012           1
 chggra                                  0.001220           1
 fewald                                  0.000706           1
 brgrid                                  0.000584           1
 strkin                                  0.000459           1
 set_dd_magatom                          0.000298          65
 vectorpot                               0.000268          64
 rsp                                     0.000258           1
 crpa_reader                             0.000027           1
 posmap                                  0.000025           2
 rcp                                     0.000020           1
 potlok_metagga                          0.000006          64
 rotate_active_occupied_orbital          0.000001           1
 redis_pw_over_bands                     0.000000           1

Profiling took   0.544276  0.261791  0.003216  0.003109 seconds
Profiling took   0.329969 seconds