 vasp.6.3.2 27Jun22 (build Jul  3 2023 11:46:21) complex
 executed on    LinuxNV_CrayMPICH date 2024.04.21  09:55:59

 INCAR:
   ADDGRID = True
   ALGO = Fast
   EDIFF = 0.0001
   ENCUT = 520.0
   IBRION = -1
   ISIF = 3
   ISMEAR = -5
   ISPIN = 2
   LAECHG = True
   LASPH = True
   LCHARG = True
   LORBIT = 11
   LREAL = Auto
   LVHAR = True
   LWAVE = False
   MAGMOM = 2*7.0 12*0.6
   NELM = 1000
   NSW = 0
   PREC = Accurate
   SIGMA = 0.05

 POTCAR:    PAW_PBE Gd 23Dec2003
 POTCAR:    PAW_PBE Cu_pv 06Sep2000
 POTCAR:    PAW_PBE S 06Sep2000
 POTCAR:    PAW_PBE Gd 23Dec2003
   VRHFIN =Gd : [core=Xe4]

   TITEL  = PAW_PBE Gd 23Dec2003
   POMASS =  157.250; ZVAL   =   18.000    mass and valenz
   ENMAX  =  256.472; ENMIN  =  192.354 eV

   TITEL  = PAW_PBE Cu_pv 06Sep2000
   POMASS =   63.546; ZVAL   =   17.000    mass and valenz
   ENMAX  =  368.648; ENMIN  =  276.486 eV

   TITEL  = PAW_PBE S 06Sep2000
   POMASS =   32.066; ZVAL   =    6.000    mass and valenz
   ENMAX  =  258.689; ENMIN  =  194.016 eV

 Optimization of the real space projectors (new method)

 maximal supplied QI-value         = 13.42
 optimisation between [QCUT,QGAM] = [ 11.67, 23.35] = [ 38.16,152.62] Ry
 Optimized for a Real-space Cutoff    1.63 Angstroem

   l    n(q)    QCUT    max X(q) W(low)/X(q) W(high)/X(q)  e(spline)
   0     11    11.673    10.501    0.14E-04    0.17E-05    0.21E-07
   0     11    11.673     9.148    0.21E-04    0.32E-05    0.45E-07
   1     11    11.673     4.035    0.33E-05    0.11E-04    0.84E-07
   1     11    11.673     4.388    0.11E-04    0.47E-04    0.34E-06
   2     10    11.673    20.656    0.12E-04    0.28E-04    0.54E-06
   2     10    11.673    12.651    0.11E-04    0.26E-04    0.51E-06
   3     10    11.673    61.921    0.19E-03    0.22E-03    0.23E-06
   3     10    11.673    48.328    0.20E-03    0.23E-03    0.23E-06
 Optimization of the real space projectors (new method)

[...]

   l    n(q)    QCUT    max X(q) W(low)/X(q) W(high)/X(q)  e(spline)
   1      9    11.527     3.172    0.21E-04    0.38E-04    0.11E-06
   1      9    11.527     4.083    0.67E-04    0.79E-04    0.20E-06
   2      9    11.527    65.342    0.13E-03    0.28E-03    0.26E-06
   2      9    11.527    61.381    0.13E-03    0.29E-03    0.26E-06
   0      9    11.527    65.742    0.32E-04    0.21E-04    0.72E-07
   0      9    11.527    30.431    0.28E-04    0.19E-04    0.65E-07
 Optimization of the real space projectors (new method)

 maximal supplied QI-value         = 19.84
 optimisation between [QCUT,QGAM] = [ 11.51, 23.22] = [ 37.09,150.92] Ry
 Optimized for a Real-space Cutoff    1.21 Angstroem

   l    n(q)    QCUT    max X(q) W(low)/X(q) W(high)/X(q)  e(spline)
   0      8    11.508   187.594    0.96E-04    0.18E-03    0.54E-07
   0      8    11.508   164.243    0.96E-04    0.18E-03    0.54E-07
   1      8    11.508    67.533    0.18E-03    0.65E-04    0.94E-07
   1      8    11.508    50.729    0.18E-03    0.63E-04    0.92E-07
  PAW_PBE Gd 23Dec2003                  :
  PAW_PBE Cu_pv 06Sep2000               :
  PAW_PBE S 06Sep2000                   :

 POSCAR: Gd2 Cu6 S6
  positions in direct lattice
 exchange correlation table for  LEXCH =        8
   RHO(1)=    0.500       N(1)  =     2000
   RHO(2)=  100.500       N(2)  =     4000

 VTST: version 4.2, (08/11/21)

 CHAIN: initializing optimizer

 OPT: Using VASP Dynamics algorithm
 CHAIN: Read ICHAIN             0

 POSCAR: Gd2 Cu6 S6
  positions in direct lattice

 ion  position               nearest neighbor table
   1  0.667  0.667  0.667-  14 2.78  12 2.78  13 2.78  10 2.79   9 2.79  11 2.79
   2  0.333  0.333  0.333-   9 2.78  11 2.78  10 2.78  13 2.79  14 2.79  12 2.79
   3  0.789  0.458  0.124-  12 2.38  13 2.38  14 2.39  11 2.43
   4  0.458  0.124  0.789-  13 2.38  14 2.38  12 2.39  10 2.43
   5  0.124  0.789  0.458-  14 2.38  12 2.38  13 2.39   9 2.43
   6  0.876  0.211  0.542-   9 2.38  11 2.38  10 2.39  14 2.43
   7  0.542  0.876  0.211-  10 2.38   9 2.38  11 2.39  13 2.43
   8  0.211  0.542  0.876-  11 2.38  10 2.38   9 2.39  12 2.43
   9  0.248  0.916  0.583-   6 2.38   7 2.38   8 2.39   5 2.43   2 2.78   1 2.79
  10  0.583  0.248  0.916-   7 2.38   8 2.38   6 2.39   4 2.43   2 2.78   1 2.79
  11  0.916  0.583  0.248-   8 2.38   6 2.38   7 2.39   3 2.43   2 2.78   1 2.79
  12  0.084  0.417  0.752-   3 2.38   5 2.38   4 2.39   8 2.43   1 2.78   2 2.79
  13  0.417  0.752  0.084-   4 2.38   3 2.38   5 2.39   7 2.43   1 2.78   2 2.79
  14  0.752  0.084  0.417-   5 2.38   4 2.38   3 2.39   6 2.43   1 2.78   2 2.79

  LATTYP: Found a trigonal (rhomboedric) cell.
 ALAT       =     7.5390006478
 COS(alpha) =     0.5967849555

  Lattice vectors:

 A1 = (   6.7363090000,  -3.3850660000,   0.0000000000)
 A2 = (   6.7363090000,   3.3850660000,   0.0000000000)
 A3 = (   5.0352780000,   0.0000000000,   5.6109280000)

Analysis of symmetry for initial positions (statically):
 Subroutine PRICEL returns:
 Original cell was already a primitive cell.

 Routine SETGRP: Setting up the symmetry group for a
 trigonal (rhombohedral) supercell.

 Subroutine GETGRP returns: Found  6 space group operations
 (whereof  6 operations were pure point group operations)
 out of a pool of 12 trial point group operations.

The static configuration has the point symmetry S_6 .

Analysis of symmetry for dynamics (positions and initial velocities):
 Subroutine PRICEL returns:
 Original cell was already a primitive cell.

[...]

The dynamic configuration has the point symmetry S_6 .

Analysis of structural, dynamic, and magnetic symmetry:
 Subroutine PRICEL returns:
 Original cell was already a primitive cell.

 Routine SETGRP: Setting up the symmetry group for a
 trigonal (rhombohedral) supercell.

 Subroutine GETGRP returns: Found  6 space group operations
 (whereof  6 operations were pure point group operations)
 out of a pool of 12 trial point group operations.

The overall configuration has the point symmetry S_6 .

 Subroutine INISYM returns: Found  6 space group operations
 (whereof  6 operations are pure point group operations),
 and found     1 'primitive' translations

                                     Primitive cell

  volume of cell :     255.8903

  direct lattice vectors                    reciprocal lattice vectors
     6.736309000 -3.385066000  0.000000000     0.074224624 -0.147707607 -0.066609590
     6.736309000  3.385066000  0.000000000     0.074224624  0.147707607 -0.066609590
     5.035278000  0.000000000  5.610928000    -0.000000000  0.000000000  0.178223638

  length of vectors
     7.539000648  7.539000648  7.539001098     0.178223650  0.178223650  0.178223638

  position of ions in fractional coordinates (direct lattice)
     0.666626000  0.666626000  0.666626000
     0.333374000  0.333374000  0.333374000
     0.789446000  0.458127000  0.123698000
     0.458127000  0.123698000  0.789446000
     0.123698000  0.789446000  0.458127000
     0.876302000  0.210554000  0.541873000
     0.541873000  0.876302000  0.210554000
     0.210554000  0.541873000  0.876302000
     0.248105000  0.916172000  0.583163000
     0.583163000  0.248105000  0.916172000
     0.916172000  0.583163000  0.248105000
     0.083828000  0.416837000  0.751895000
     0.416837000  0.751895000  0.083828000
     0.751895000  0.083828000  0.416837000

  ion indices of the primitive-cell ions
   primitive index   ion index
                 1           1
                 2           2
                 3           3
                 4           4
                 5           5
                 6           6
                 7           7
                 8           8
                 9           9
                10          10
                11          11
                12          12
                13          13
                14          14

 KPOINTS: Kpoints from vasprun.xml

Automatic generation of k-mesh.
 Grid dimensions read from file:
 generate k-points for:    4    4    4

 Generating k-lattice:

  Cartesian coordinates                     Fractional coordinates (reciprocal lattice)
     0.018556156 -0.036926902 -0.016652398     0.250000000 -0.000000000 -0.000000000
     0.018556156  0.036926902 -0.016652398    -0.000000000  0.250000000 -0.000000000
    -0.000000000  0.000000000  0.044555909     0.000000000  0.000000000  0.250000000

  Length of vectors
     0.044555913  0.044555913  0.044555909

  Shift w.r.t. Gamma in fractional coordinates (k-lattice)
     0.500000000  0.500000000  0.500000000

 TETIRR: Found     50 inequivalent tetrahedra from      384

 Subroutine IBZKPT returns following result:

 Found     12 irreducible k-points:

 Following reciprocal coordinates:
            Coordinates               Weight
  0.125000  0.125000  0.125000      2.000000
  0.375000  0.125000  0.125000      6.000000
 -0.375000  0.125000  0.125000      6.000000
 -0.125000  0.125000  0.125000      6.000000
  0.375000  0.375000  0.125000      6.000000
 -0.375000  0.375000  0.125000      6.000000
  0.375000 -0.125000 -0.375000      6.000000
 -0.125000  0.375000  0.125000      6.000000
  0.125000 -0.125000 -0.375000      6.000000
 -0.375000 -0.375000  0.125000      6.000000
  0.375000  0.375000  0.375000      2.000000
 -0.375000  0.375000  0.375000      6.000000

 Following cartesian coordinates:
            Coordinates               Weight
  0.018556  0.000000  0.005626      2.000000
  0.037112 -0.036927 -0.011027      6.000000
 -0.018556  0.073854  0.038930      6.000000
  0.000000  0.036927  0.022278      6.000000
  0.055668  0.000000 -0.027679      6.000000
  0.000000  0.110781  0.022278      6.000000
  0.018556 -0.073854 -0.083486      6.000000
  0.018556  0.073854  0.005626      6.000000
  0.000000 -0.036927 -0.066834      6.000000
 -0.055668  0.000000  0.072235      6.000000
  0.055668  0.000000  0.016877      2.000000
  0.000000  0.110781  0.066834      6.000000

 SYSTEM =  unknown system
 POSCAR =  Gd2 Cu6 S6

 Startparameter for this run:
   NWRITE =      2    write-flag & timer
   PREC   = accura    normal or accurate (medium, high low for compatibility)
   ISTART =      0    job   : 0-new  1-cont  2-samecut
   ICHARG =      2    charge: 1-file 2-atom 10-const
   ISPIN  =      2    spin polarized calculation?
   LNONCOLLINEAR =      F non collinear calculations
   LSORBIT =      F    spin-orbit coupling
   INIWAV =      1    electr: 0-lowe 1-rand  2-diag
   LASPH  =      T    aspherical Exc in radial PAW
 Electronic Relaxation 1
   ENCUT  =  520.0 eV  38.22 Ry    6.18 a.u.  14.02 14.02 14.02*2*pi/ulx,y,z
   ENINI  =  520.0     initial cutoff
   ENAUG  =  758.2 eV  augmentation charge cutoff
   NELM   =   1000;   NELMIN=  2; NELMDL= -5     # of ELM steps
   EDIFF  = 0.1E-03   stopping-criterion for ELM
   LREAL  =      T    real-space projection
   NLSPLINE    = F    spline interpolate recip. space projectors
   LCOMPAT=      F    compatible to vasp.4.4
   GGA_COMPAT  = T    GGA compatible to vasp.4.4-vasp.4.6
   LMAXPAW     = -100 max onsite density
   LMAXMIX     =    2 max onsite mixed and CHGCAR
   VOSKOWN=      0    Vosko Wilk Nusair interpolation
   ROPT   =   -0.00025  -0.00025  -0.00025
 Ionic relaxation
   EDIFFG = 0.1E-02   stopping-criterion for IOM
[...]
  382            brsav                                 0.000361                       49   5
  383        m_bcast_d                             0.000027                            2   3
  384      potlok                                0.041759                              2   2
  385        fft3d_mpi                             0.026884                           36   3
  386          fftbrc_mpi                            0.023084                         36   4
  387            fftbas_plan_mpi                       0.023062                       36   5
  388              map_forward                           0.006466                     40   6
  389                map_gather                            0.002160                   24   7
  390                m_alltoallv_z                         0.002131                   24   7
  391                map_scatter                           0.001975                   24   7
  392              map_backward                          0.005541                     32   6
  393                map_gather                            0.001881                   16   7
  394                m_alltoallv_z                         0.001856                   16   7
  395                map_scatter                           0.001603                   16   7
  396              dfftw_execute                         0.009242                     30   6
  397        m_sumb_d                              0.000027                            5   3
  398        pothar                                0.001727                            2   3
  399          m_sumb_d                              0.000113                          2   4
  400        m_bcast_d                             0.002929                            4   3
  401      potlok_metagga                        0.000000                              1   2
  402      set_dd_magatom                        0.000004                              1   2
  403      set_dd_paw                            1.843577                              1   2
  404        m_sumb_d                              0.691021                            7   3
  405      augmentation_charge                   0.149133                              1   2
  406        fft3d_mpi                             0.055443                            2   3
  407          fftbrc_mpi                            0.049322                          2   4
  408            fftbas_plan_mpi                       0.049319                        2   5
  409              dfftw_execute                         0.029070                      6   6
  410              map_backward                          0.020022                      4   6
  411                map_gather                            0.006153                    2   7
  412                m_alltoallv_z                         0.008025                    2   7
  413                map_scatter                           0.005835                    2   7
  414      densta                                1.039594                              1   2

 Flat profile

 set_dd_paw                            407.022950         352
 m_sumb_d                              263.980039       66056
 raccmu_                               119.997007      198280
 eccp                                   98.447791     1206399
 w1_gemv                                65.722062     2754536
 i2                                     58.706302      191629
 eccp_nl                                53.057987      960015
 setdij_                                33.482326         378
 augmentation_charge                    33.000958         351
 eddrmm                                 32.262127         349
 phaser                                 31.061430        8652
 eddiag                                 27.594550         349
 dfftw_execute                          26.668740        8820
 cnorma                                 25.440894      960015
 redis_pw                               24.962901      127380
 overl1                                 22.848398     1377268
 densta                                 20.794509         355
 fft3d                                  17.073035     2402158
 m_alltoall_d                           15.969350     2768588
 fftwav                                 13.941093     1429070
 w1_dscal                               12.863350     2140636
 total_time                             12.149496           1
 w1_copy                                11.591149     2190547
 w1_gaxpy                               11.466576     2186120
 hamilt_local                           10.934542      242904
 apply_precond                          10.925989     2438243
 soft_charge                            10.814808         350
 init_acc                                9.054279           1
 setup_precond                           8.616190      246384
 w1_daxpy                                7.740573     1434486
 rpromu_acc                              7.327043      198976
 racc0mu_acc                             6.979906      198280
 w1_dot                                  6.847318      242776
 newband                                 6.662156      206776
 m_alltoallv_z                           6.031538       13495
 pw_charge                               5.763108      194831
 hamiltmu                                5.738996      198280
 map_scatter                             5.627098       13495
 fft3d_mpi                               5.459914      985179
 kinhamil                                4.166460      973088
 map_gather                              4.140658       13495
 vhamil                                  4.065148      973088
 zhegv                                   4.047048      474467
 depsum                                  3.955334         350
 redis_proj                              3.942179       94856
 fftext_mpi                              3.864210      973088
 set_charge                              3.841871         350
 acc_init_cublas                         3.635080           1
 eddav                                   3.280069           5
 overl_mu                                2.998298      198280
 lapack                                  2.897117        6651
 choleski                                2.047418        8400
 fftwav_mpi                              1.993773     1429070
 broyd                                   1.964066         350
 i3                                      1.899126      191629
 potlok                                  1.602143         352
 orth1                                   1.517562       87057
 orthch                                  1.306875         350
 acc_init_cusolver                       1.166510           1
 brmix                                   0.806859         350
 elmin                                   0.679646           1
 fftbas_plan_mpi                         0.625491       12091
 brget                                   0.594993       79281
 rpro_isp                                0.462208         156
 setg0                                   0.440335         352
 overl                                   0.359106       38920
 lincom                                  0.353357       16896
 m_bcast_z                               0.308626        9435
 acc_cufft_makeplan                      0.261885          19
 rspher_all                              0.225275          14
 i1                                      0.217833      191629
 w1_projall                              0.169847      196480
 brsav                                   0.163275       22756
 m_bcast_d                               0.125632       14011
 ggemm                                   0.120196        8451
 sphpro_fast                             0.091734           2
 map_backward                            0.075118       12786
 truncate_high_frequency_w1              0.072181      976568
 map_forward                             0.070140       11396
 proall                                  0.061518           1
 fft_gq                                  0.039188         350
 pothar                                  0.030213         353
 brpre                                   0.014395         700
 force_and_stress                        0.014373           1
 stufak                                  0.008761           1
 fftbrc_mpi                              0.007333       12091
 inisym                                  0.004535           1
 strnlr                                  0.003869           1
 forhar                                  0.002774           2
 strelo                                  0.002360           1
 strehar                                 0.001799           1
 set_dd_magatom                          0.001683         352
 vectorpot                               0.001474         351
 forloc                                  0.001439           1
 fornlr                                  0.001356           1
 shift_bands_between_low_high            0.001048        8376
 strkin                                  0.000789           1
 fewald                                  0.000378           1
 rsp                                     0.000376           1
 chggra                                  0.000261           1
 brgrid                                  0.000240           1
 fordep                                  0.000086           1
 potlok_metagga                          0.000031         351
 rcp                                     0.000026           1
 crpa_reader                             0.000025           1
 posmap                                  0.000024           2
 acc_cufft_makeplans                     0.000010           3
 rotate_active_occupied_orbital          0.000001           1
 redis_pw_over_bands                     0.000000           1
  summed up times     1619.383525848389

 Accumulative profile

 total_time                           1619.383526           1
 elmin                                1580.384704           1
 eddrmm                                651.360663         349
 set_dd_paw                            645.664443         352
 m_sumb_d                              263.980039       66056
 i2                                    201.412020      191629
 i3                                    175.949339      191629
 hamiltmu                              150.049214      198280
 raccmu_                               129.975211      198280
 eccp                                   98.447791     1206399
 w1_gemv                                88.570460     2754536
 set_charge                             85.871277         350
 cnorma                                 78.498881      960015
 eddiag                                 73.118743         349
 setdij_                                59.383147         378
 fft3d_mpi                              55.151908      985179
 eccp_nl                                53.057987      960015
 augmentation_charge                    52.771159         351
 fftbrc_mpi                             43.246117       12091
 fftbas_plan_mpi                        43.238784       12091
 newband                                42.517346      206776
 redis_pw                               32.244944      127380
 phaser                                 31.061430        8652
 orthch                                 27.181595         350
 dfftw_execute                          26.668740        8820
 fftwav_mpi                             26.562024     1429070
 soft_charge                            24.722257         350
 fftwav                                 24.568251     1429070
 overl1                                 22.848398     1377268
 densta                                 20.794509         355
 eddav                                  18.414439           5
 fft3d                                  17.073035     2402158
 m_alltoall_d                           15.969350     2768588
 hamilt_local                           15.427459      242904
 kinhamil                               14.762776      973088
 w1_dscal                               12.863350     2140636
 redis_proj                             12.629487       94856
 w1_copy                                11.591149     2190547
 w1_gaxpy                               11.466576     2186120
 apply_precond                          10.925989     2438243
 fftext_mpi                             10.596316      973088
 init_acc                                9.054279           1
 map_backward                            8.745231       12786
 setup_precond                           8.616190      246384
 force_and_stress                        8.156318           1
 w1_daxpy                                7.740573     1434486
 rpromu_acc                              7.327043      198976
 map_forward                             7.199321       11396
 racc0mu_acc                             6.979906      198280
 w1_projall                              6.963205      196480
 w1_dot                                  6.847318      242776
 m_alltoallv_z                           6.031538       13495
 pw_charge                               5.763108      194831
 map_scatter                             5.627098       13495
 brmix                                   4.231571         350
 map_gather                              4.140658       13495
 vhamil                                  4.065148      973088
 zhegv                                   4.047048      474467
 depsum                                  4.018783         350
 acc_init_cublas                         3.635080           1
 i1                                      3.426785      191629
 potlok                                  3.399709         352
 overl_mu                                2.998298      198280
 broyd                                   2.945765         350
 lapack                                  2.897117        6651
 choleski                                2.047418        8400
 orth1                                   1.517562       87057
 strnlr                                  1.476340           1
 rpro_isp                                1.269719         156
 acc_init_cusolver                       1.166510           1
 fft_gq                                  0.999598         350
 fordep                                  0.940182           1
 brget                                   0.594993       79281
 fornlr                                  0.492355           1
 setg0                                   0.440335         352
 overl                                   0.359106       38920
 lincom                                  0.353357       16896
 m_bcast_z                               0.308626        9435
 acc_cufft_makeplans                     0.261895           3
 acc_cufft_makeplan                      0.261885          19
 rspher_all                              0.225275          14
 brsav                                   0.163275       22756
 proall                                  0.141407           1
 m_bcast_d                               0.125632       14011
 ggemm                                   0.120196        8451
 sphpro_fast                             0.095121           2
 truncate_high_frequency_w1              0.072181      976568
 pothar                                  0.033555         353
 brpre                                   0.014395         700
 stufak                                  0.008761           1
 inisym                                  0.004559           1
 forloc                                  0.002977           1
 forhar                                  0.002825           2
 strelo                                  0.002389           1
 strehar                                 0.001803           1
 set_dd_magatom                          0.001683         352
 vectorpot                               0.001474         351
 shift_bands_between_low_high            0.001048        8376
 fewald                                  0.000901           1
 chggra                                  0.000865           1
 strkin                                  0.000795           1
 rsp                                     0.000376           1
 brgrid                                  0.000240           1
 potlok_metagga                          0.000031         351
 rcp                                     0.000026           1
 crpa_reader                             0.000025           1
 posmap                                  0.000024           2
 rotate_active_occupied_orbital          0.000001           1
 redis_pw_over_bands                     0.000000           1

Profiling took   3.581096  2.621215  0.003195  0.003098 seconds
Profiling took   3.048553 seconds