 vasp.6.3.2 27Jun22 (build Jul  3 2023 11:46:21) complex
 executed on    LinuxNV_CrayMPICH date 2024.04.22  03:28:49

 INCAR:
   ADDGRID = True
   ALGO = Fast
   EDIFF = 0.0001
   ENCUT = 520.0
   IBRION = -1
   ISIF = 3
   ISMEAR = -5
   ISPIN = 2
   LAECHG = True
   LASPH = True
   LCHARG = True
   LORBIT = 11
   LREAL = Auto
   LVHAR = True
   LWAVE = False
   MAGMOM = 1*7.0 4*0.6
   NELM = 1000
   NSW = 0
   PREC = Accurate
   SIGMA = 0.05

 POTCAR:    PAW_PBE Eu 23Dec2003
 POTCAR:    PAW_PBE Si 05Jan2001
 POTCAR:    PAW_PBE Ru_pv 28Jan2005
 POTCAR:    PAW_PBE Eu 23Dec2003
   VRHFIN =Eu : [core=Kr4d]

   TITEL  = PAW_PBE Eu 23Dec2003
   POMASS =  151.965; ZVAL   =   17.000    mass and valenz
   ENMAX  =  249.668; ENMIN  =  187.251 eV

   TITEL  = PAW_PBE Si 05Jan2001
   POMASS =   28.085; ZVAL   =    4.000    mass and valenz
   ENMAX  =  245.345; ENMIN  =  184.009 eV

   TITEL  = PAW_PBE Ru_pv 28Jan2005
   POMASS =  101.070; ZVAL   =   14.000    mass and valenz
   ENMAX  =  240.049; ENMIN  =  180.037 eV

 Optimization of the real space projectors (new method)

 maximal supplied QI-value         = 13.42
 optimisation between [QCUT,QGAM] = [ 11.67, 23.35] = [ 38.16,152.62] Ry
 Optimized for a Real-space Cutoff    1.63 Angstroem

   l    n(q)    QCUT    max X(q) W(low)/X(q) W(high)/X(q)  e(spline)
   0     11    11.673    10.400    0.14E-04    0.18E-05    0.24E-07
   0     11    11.673    10.768    0.21E-04    0.32E-05    0.49E-07
   1     11    11.673     4.094    0.40E-05    0.13E-04    0.93E-07
   1     11    11.673     4.009    0.11E-04    0.46E-04    0.33E-06
   2     10    11.673    29.030    0.79E-04    0.60E-04    0.70E-06
   2     10    11.673    19.941    0.80E-04    0.60E-04    0.71E-06
   3     10    11.673    88.889    0.23E-03    0.29E-03    0.30E-06
   3     10    11.673    76.102    0.23E-03    0.30E-03    0.30E-06
 Optimization of the real space projectors (new method)

[...]

   l    n(q)    QCUT    max X(q) W(low)/X(q) W(high)/X(q)  e(spline)
   0      8    11.508   159.560    0.71E-04    0.15E-03    0.51E-07
   0      8    11.508   115.863    0.70E-04    0.15E-03    0.51E-07
   1      8    11.508    88.339    0.16E-03    0.38E-04    0.82E-07
   1      8    11.508    48.592    0.15E-03    0.36E-04    0.79E-07
 Optimization of the real space projectors (new method)

 maximal supplied QI-value         = 15.12
 optimisation between [QCUT,QGAM] = [ 11.64, 23.28] = [ 37.95,151.78] Ry
 Optimized for a Real-space Cutoff    1.49 Angstroem

   l    n(q)    QCUT    max X(q) W(low)/X(q) W(high)/X(q)  e(spline)
   1     10    11.641     3.180    0.30E-04    0.36E-05    0.54E-07
   1     10    11.641     5.351    0.12E-03    0.51E-04    0.30E-06
   2      9    11.641    66.565    0.22E-03    0.78E-04    0.20E-06
   2      9    11.641    63.466    0.22E-03    0.79E-04    0.20E-06
   0     10    11.641    85.644    0.61E-04    0.23E-04    0.12E-06
   0     10    11.641    44.119    0.56E-04    0.21E-04    0.11E-06
  PAW_PBE Eu 23Dec2003                  :
  PAW_PBE Si 05Jan2001                  :
  PAW_PBE Ru_pv 28Jan2005               :

 POSCAR: Eu1 Si2 Ru2
  positions in direct lattice
 exchange correlation table for  LEXCH =        8
   RHO(1)=    0.500       N(1)  =     2000
   RHO(2)=  100.500       N(2)  =     4000

 VTST: version 4.2, (08/11/21)

 CHAIN: initializing optimizer

 OPT: Using VASP Dynamics algorithm
 CHAIN: Read ICHAIN             0

 POSCAR: Eu1 Si2 Ru2
  positions in direct lattice

 ion  position               nearest neighbor table
   1  0.000  0.000  0.000-   5 3.26   4 3.26   4 3.26   5 3.26   4 3.26   5 3.26   5 3.26   4 3.26
                             3 3.30   3 3.30   2 3.30   2 3.30   3 3.30   2 3.30   3 3.30   2 3.30
   2  0.361  0.361  0.000-   4 2.39   5 2.39   4 2.39   5 2.39   3 2.75   1 3.30   1 3.30   1 3.30
                             1 3.30
   3  0.639  0.639  0.000-   5 2.39   5 2.39   4 2.39   4 2.39   2 2.75   1 3.30   1 3.30   1 3.30
                             1 3.30
   4  0.250  0.750  0.500-   2 2.39   3 2.39   2 2.39   3 2.39   5 3.00   5 3.00   5 3.00   5 3.00
                             1 3.26   1 3.26   1 3.26   1 3.26
   5  0.750  0.250  0.500-   3 2.39   2 2.39   2 2.39   3 2.39   4 3.00   4 3.00   4 3.00   4 3.00
                             1 3.26   1 3.26   1 3.26   1 3.26

  LATTYP: Found a body centered tetragonal cell.
 ALAT       =     4.2387240000
 C/A-ratio  =     2.3320947530

  Lattice vectors:

 A1 = (  -2.1193620000,   2.1193620000,   4.9425530000)
 A2 = (   2.1193620000,  -2.1193620000,   4.9425530000)
 A3 = (   2.1193620000,   2.1193620000,  -4.9425530000)

Analysis of symmetry for initial positions (statically):
 Subroutine PRICEL returns:
 Original cell was already a primitive cell.

 Routine SETGRP: Setting up the symmetry group for a
 body centered tetragonal supercell.

 Subroutine GETGRP returns: Found 16 space group operations
 (whereof 16 operations were pure point group operations)
 out of a pool of 16 trial point group operations.

The static configuration has the point symmetry D_4h.

Analysis of symmetry for dynamics (positions and initial velocities):
 Subroutine PRICEL returns:
 Original cell was already a primitive cell.

[...]

The dynamic configuration has the point symmetry D_4h.

Analysis of structural, dynamic, and magnetic symmetry:
 Subroutine PRICEL returns:
 Original cell was already a primitive cell.

 Routine SETGRP: Setting up the symmetry group for a
 body centered tetragonal supercell.

 Subroutine GETGRP returns: Found 16 space group operations
 (whereof 16 operations were pure point group operations)
 out of a pool of 16 trial point group operations.

The overall configuration has the point symmetry D_4h.

 Subroutine INISYM returns: Found 16 space group operations
 (whereof 16 operations are pure point group operations),
 and found     1 'primitive' translations

                                     Primitive cell

  volume of cell :      88.8018

  direct lattice vectors                    reciprocal lattice vectors
    -2.119362000  2.119362000  4.942553000    -0.000000000  0.235920055  0.101162294
     2.119362000 -2.119362000  4.942553000     0.235920055 -0.000000000  0.101162294
     2.119362000  2.119362000 -4.942553000     0.235920055  0.235920055 -0.000000000

  length of vectors
     5.780330504  5.780330504  5.780330504     0.256694531  0.256694531  0.333641342

  position of ions in fractional coordinates (direct lattice)
     0.000000000  0.000000000  0.000000000
     0.360866000  0.360866000  1.000000000
     0.639134000  0.639134000  1.000000000
     0.250000000  0.750000000  0.500000000
     0.750000000  0.250000000  0.500000000

  ion indices of the primitive-cell ions
   primitive index   ion index
                 1           1
                 2           2
                 3           3
                 4           4
                 5           5

 KPOINTS: Kpoints from vasprun.xml

Automatic generation of k-mesh.
 Grid dimensions read from file:
 generate k-points for:    6    6    6

 Generating k-lattice:

  Cartesian coordinates                     Fractional coordinates (reciprocal lattice)
    -0.000000000  0.039320009  0.016860382     0.166666667  0.000000000 -0.000000000
     0.039320009 -0.000000000  0.016860382     0.000000000  0.166666667 -0.000000000
     0.039320009  0.039320009 -0.000000000    -0.000000000 -0.000000000  0.166666667

  Length of vectors
     0.042782422  0.042782422  0.055606890

  Shift w.r.t. Gamma in fractional coordinates (k-lattice)
     0.500000000  0.500000000  0.500000000

 TETIRR: Found    278 inequivalent tetrahedra from     1296

 Subroutine IBZKPT returns following result:

 Found     28 irreducible k-points:

 Following reciprocal coordinates:
            Coordinates               Weight
  0.083333  0.083333  0.083333      8.000000
  0.250000  0.083333  0.083333     16.000000
  0.416667  0.083333  0.083333      8.000000
 -0.083333  0.083333  0.083333      4.000000
  0.250000  0.250000  0.083333      8.000000
  0.416667  0.250000  0.083333     16.000000
 -0.416667  0.250000  0.083333      8.000000
 -0.250000  0.250000  0.083333      8.000000
 -0.083333  0.250000  0.083333      8.000000
  0.416667  0.416667  0.083333      4.000000
 -0.416667  0.416667  0.083333      8.000000
 -0.250000  0.416667  0.083333     16.000000
 -0.083333  0.416667  0.083333      8.000000
 -0.416667 -0.416667  0.083333      8.000000
 -0.250000 -0.416667  0.083333     16.000000
 -0.083333 -0.416667  0.083333      8.000000
 -0.250000 -0.250000  0.083333      8.000000
 -0.083333 -0.250000  0.083333      8.000000
 -0.083333 -0.083333  0.083333      2.000000
  0.250000  0.250000  0.250000      2.000000
 -0.250000  0.250000  0.250000      4.000000
 -0.416667  0.416667  0.250000      8.000000
 -0.250000  0.416667  0.250000      8.000000
 -0.416667 -0.416667  0.250000      8.000000
 -0.250000 -0.416667  0.250000      8.000000
 -0.250000 -0.250000  0.250000      2.000000
 -0.416667  0.416667  0.416667      4.000000
 -0.416667 -0.416667  0.416667      2.000000

 Following cartesian coordinates:
            Coordinates               Weight
  0.039320  0.039320  0.016860      8.000000
  0.039320  0.078640  0.033721     16.000000
  0.039320  0.117960  0.050581      8.000000
  0.039320  0.000000  0.000000      4.000000
  0.078640  0.078640  0.050581      8.000000
  0.078640  0.117960  0.067442     16.000000
  0.078640 -0.078640 -0.016860      8.000000
  0.078640 -0.039320  0.000000      8.000000
  0.078640  0.000000  0.016860      8.000000
  0.117960  0.117960  0.084302      4.000000
  0.117960 -0.078640  0.000000      8.000000
  0.117960 -0.039320  0.016860     16.000000
  0.117960  0.000000  0.033721      8.000000
 -0.078640 -0.078640 -0.084302      8.000000
 -0.078640 -0.039320 -0.067442     16.000000
 -0.078640  0.000000 -0.050581      8.000000
 -0.039320 -0.039320 -0.050581      8.000000
 -0.039320  0.000000 -0.033721      8.000000
  0.000000  0.000000 -0.016860      2.000000
  0.117960  0.117960  0.050581      2.000000
  0.117960  0.000000  0.000000      4.000000
  0.157280 -0.039320  0.000000      8.000000
  0.157280  0.000000  0.016860      8.000000
 -0.039320 -0.039320 -0.084302      8.000000
 -0.039320  0.000000 -0.067442      8.000000
  0.000000  0.000000 -0.050581      2.000000
  0.196600  0.000000  0.000000      4.000000
  0.000000  0.000000 -0.084302      2.000000

 SYSTEM =  unknown system
 POSCAR =  Eu1 Si2 Ru2

 Startparameter for this run:
   NWRITE =      2    write-flag & timer
   PREC   = accura    normal or accurate (medium, high low for compatibility)
   ISTART =      0    job   : 0-new  1-cont  2-samecut
   ICHARG =      2    charge: 1-file 2-atom 10-const
   ISPIN  =      2    spin polarized calculation?
   LNONCOLLINEAR =      F non collinear calculations
   LSORBIT =      F    spin-orbit coupling
   INIWAV =      1    electr: 0-lowe 1-rand  2-diag
   LASPH  =      T    aspherical Exc in radial PAW
 Electronic Relaxation 1
   ENCUT  =  520.0 eV  38.22 Ry    6.18 a.u.  10.75 10.75 10.75*2*pi/ulx,y,z
   ENINI  =  520.0     initial cutoff
   ENAUG  =  549.6 eV  augmentation charge cutoff
[...]
  382            brget                                 0.000551                      184   5
  383        m_bcast_d                             0.000015                            2   3
  384      potlok                                0.028102                              2   2
  385        fft3d_mpi                             0.018952                           36   3
  386          fftbrc_mpi                            0.016213                         36   4
  387            fftbas_plan_mpi                       0.016192                       36   5
  388              map_forward                           0.004670                     40   6
  389                map_gather                            0.001529                   24   7
  390                m_alltoallv_z                         0.001592                   24   7
  391                map_scatter                           0.001369                   24   7
  392              map_backward                          0.004022                     32   6
  393                map_gather                            0.001235                   16   7
  394                m_alltoallv_z                         0.001413                   16   7
  395                map_scatter                           0.001185                   16   7
  396              dfftw_execute                         0.005762                     30   6
  397        m_sumb_d                              0.000025                            5   3
  398        pothar                                0.001228                            2   3
  399          m_sumb_d                              0.000082                          2   4
  400        m_bcast_d                             0.001827                            4   3
  401      potlok_metagga                        0.000000                              1   2
  402      set_dd_magatom                        0.000004                              1   2
  403      set_dd_paw                            1.416097                              1   2
  404        m_sumb_d                              0.940926                            7   3
  405      augmentation_charge                   0.122378                              1   2
  406        fft3d_mpi                             0.031871                            2   3
  407          fftbrc_mpi                            0.028271                          2   4
  408            fftbas_plan_mpi                       0.028267                        2   5
  409              dfftw_execute                         0.018893                      6   6
  410              map_backward                          0.009102                      4   6
  411                map_gather                            0.002369                    2   7
  412                m_alltoallv_z                         0.004218                    2   7
  413                map_scatter                           0.002508                    2   7
  414      densta                                0.701757                              1   2

 Flat profile

 m_sumb_d                               40.939687       23622
 raccmu_                                18.338547       20093
 set_dd_paw                             18.073570          38
 init_acc                               11.291836           1
 total_time                              9.885904           1
 phaser                                  7.724311        2604
 eccp                                    6.705836       83388
 setdij_                                 5.553802          64
 densta                                  4.278078          41
 w1_gemv                                 3.935222      161868
 i2                                      3.658059       14726
 eccp_nl                                 3.475348       63228
 augmentation_charge                     3.366121          37
 redis_pw                                2.742484       40666
 acc_init_cublas                         2.460247           1
 eddav                                   2.435844           5
 dfftw_execute                           2.432775        1284
 lapack                                  2.325760        5367
 eddiag                                  2.256862          35
 eddrmm                                  2.249705          35
 m_alltoall_d                            1.725813      266266
 cnorma                                  1.671525       63228
 fft3d                                   1.372214      192508
 overl1                                  1.346138       80934
 fftwav                                  1.212893      118908
 soft_charge                             1.089617          36
 rpromu_acc                              0.960429       20877
 w1_copy                                 0.876611      167874
 hamilt_local                            0.836060       17640
 acc_init_cusolver                       0.799880           1
 m_alltoallv_z                           0.793440        1563
 w1_dscal                                0.786631      132120
 setup_precond                           0.711444       20160
 apply_precond                           0.669805      147486
 racc0mu_acc                             0.647426       20093
 w1_gaxpy                                0.637108      123152
 newband                                 0.606003       22333
 redis_proj                              0.522343       45840
 w1_daxpy                                0.504999       91944
 hamiltmu                                0.492005       20093
 w1_dot                                  0.482073       17256
 fft3d_mpi                               0.432400       75015
 rpro_isp                                0.426587         364
 pw_charge                               0.397671       14428
 map_scatter                             0.375524        1563
 kinhamil                                0.319999       73600
 vhamil                                  0.319862       73600
 map_gather                              0.319448        1563
 overl_mu                                0.305169       20093
 orthch                                  0.296301          36
 fftext_mpi                              0.295203       73600
 orth1                                   0.294418       24053
 set_charge                              0.292447          36
 depsum                                  0.292413          36
 zhegv                                   0.245509       28716
 choleski                                0.226778        2016
 rspher_all                              0.189815          14
 overl                                   0.177522       20652
 m_bcast_z                               0.166279        7383
 fftwav_mpi                              0.160321      118908
 potlok                                  0.141633          38
 i3                                      0.123475       14726
 acc_cufft_makeplan                      0.119755          19
 fftbas_plan_mpi                         0.097118        1415
 m_bcast_d                               0.091353       10815
 lincom                                  0.081503        4256
 elmin                                   0.078550           1
 ggemm                                   0.072225        6767
 proall                                  0.043666           1
 sphpro_fast                             0.037360           2
 brmix                                   0.035159          36
 setg0                                   0.028875          38
 broyd                                   0.028090          36
 w1_projall                              0.017312       18693
 i1                                      0.014650       14726
 brget                                   0.010091        3468
 force_and_stress                        0.008797           1
 map_backward                            0.008025        1482
 strnlr                                  0.007548           1
 map_forward                             0.007226        1348
 truncate_high_frequency_w1              0.005681       76120
 inisym                                  0.004534           1
 pothar                                  0.003927          39
 fornlr                                  0.002590           1
 stufak                                  0.002480           1
 brsav                                   0.002414         817
 fft_gq                                  0.001992          36
 forhar                                  0.001947           2
 strelo                                  0.001650           1
 strehar                                 0.001249           1
 forloc                                  0.001032           1
 fftbrc_mpi                              0.000901        1415
 brpre                                   0.000689          72
 fewald                                  0.000354           1
 shift_bands_between_low_high            0.000251        1960
 chggra                                  0.000247           1
 strkin                                  0.000227           1
 set_dd_magatom                          0.000163          38
 brgrid                                  0.000160           1
 vectorpot                               0.000158          37
 rsp                                     0.000093           1
 fordep                                  0.000048           1
 crpa_reader                             0.000027           1
 posmap                                  0.000022           2
 rcp                                     0.000011           1
 acc_cufft_makeplans                     0.000010           3
 potlok_metagga                          0.000003          37
 rotate_active_occupied_orbital          0.000000           1
 redis_pw_over_bands                     0.000000           1
  summed up times     179.4933898448944

 Accumulative profile

 total_time                            179.493390           1
 elmin                                 143.055894           1
 eddrmm                                 53.890443          35
 set_dd_paw                             53.383183          38
 m_sumb_d                               40.939687       23622
 hamiltmu                               20.909252       20093
 raccmu_                                19.291142       20093
 eddav                                  15.041653           5
 i2                                     12.178969       14726
 i3                                     11.495240       14726
 init_acc                               11.291836           1
 setdij_                                 8.240491          64
 phaser                                  7.724311        2604
 force_and_stress                        7.166840           1
 set_charge                              7.152231          36
 eccp                                    6.705836       83388
 eddiag                                  5.532516          35
 w1_gemv                                 5.281360      161868
 cnorma                                  5.146874       63228
 fft3d_mpi                               4.963621       75015
 augmentation_charge                     4.575890          37
 densta                                  4.278078          41
 fftbrc_mpi                              4.034457        1415
 fftbas_plan_mpi                         4.033556        1415
 newband                                 3.615299       22333
 redis_pw                                3.494453       40666
 eccp_nl                                 3.475348       63228
 orthch                                  2.470586          36
 acc_init_cublas                         2.460247           1
 dfftw_execute                           2.432775        1284
 lapack                                  2.325760        5367
 fftwav_mpi                              2.248663      118908
 fftwav                                  2.088342      118908
 soft_charge                             2.067082          36
 m_alltoall_d                            1.725813      266266
 strnlr                                  1.622269           1
 redis_proj                              1.496187       45840
 fft3d                                   1.372214      192508
 overl1                                  1.346138       80934
 hamilt_local                            1.163264       17640
 kinhamil                                1.133448       73600
 rpro_isp                                0.994717         364
 rpromu_acc                              0.960429       20877
 map_forward                             0.881536        1348
 w1_copy                                 0.876611      167874
 fftext_mpi                              0.813450       73600
 acc_init_cusolver                       0.799880           1
 m_alltoallv_z                           0.793440        1563
 w1_dscal                                0.786631      132120
 fordep                                  0.780590           1
 setup_precond                           0.711444       20160
 apply_precond                           0.669805      147486
 racc0mu_acc                             0.647426       20093
 w1_gaxpy                                0.637108      123152
 map_backward                            0.622127        1482
 w1_projall                              0.608051       18693
 fornlr                                  0.540370           1
 w1_daxpy                                0.504999       91944
 potlok                                  0.502022          38
 w1_dot                                  0.482073       17256
 pw_charge                               0.397671       14428
 map_scatter                             0.375524        1563
 vhamil                                  0.319862       73600
 map_gather                              0.319448        1563
 overl_mu                                0.305169       20093
 depsum                                  0.294917          36
 orth1                                   0.294418       24053
 zhegv                                   0.245509       28716
 choleski                                0.226778        2016
 i1                                      0.222528       14726
 rspher_all                              0.189815          14
 overl                                   0.177522       20652
 m_bcast_z                               0.166279        7383
 proall                                  0.157737           1
 acc_cufft_makeplans                     0.119765           3
 acc_cufft_makeplan                      0.119755          19
 brmix                                   0.112707          36
 m_bcast_d                               0.091353       10815
 lincom                                  0.081503        4256
 ggemm                                   0.072225        6767
 fft_gq                                  0.062276          36
 broyd                                   0.046252          36
 sphpro_fast                             0.038311           2
 setg0                                   0.028875          38
 brget                                   0.010091        3468
 truncate_high_frequency_w1              0.005681       76120
 inisym                                  0.004556           1
 pothar                                  0.004324          39
 stufak                                  0.002480           1
 brsav                                   0.002414         817
 forhar                                  0.001957           2
 strelo                                  0.001749           1
 strehar                                 0.001252           1
 forloc                                  0.001171           1
 chggra                                  0.000792           1
 brpre                                   0.000689          72
 fewald                                  0.000597           1
 shift_bands_between_low_high            0.000251        1960
 strkin                                  0.000239           1
 set_dd_magatom                          0.000163          38
 brgrid                                  0.000160           1
 vectorpot                               0.000158          37
 rsp                                     0.000093           1
 crpa_reader                             0.000027           1
 posmap                                  0.000022           2
 rcp                                     0.000011           1
 potlok_metagga                          0.000003          37
 rotate_active_occupied_orbital          0.000000           1
 redis_pw_over_bands                     0.000000           1

Profiling took   0.302481  0.203157  0.003209  0.003114 seconds
Profiling took   0.238848 seconds