 vasp.6.3.2 27Jun22 (build Jul  3 2023 11:46:21) complex
 executed on    LinuxNV_CrayMPICH date 2024.04.22  03:15:00

 INCAR:
   ADDGRID = True
   ALGO = Normal
   EDIFF = 0.00205
   ENCUT = 520.0
   IBRION = -1
   ICHARG = 0
   ISIF = 3
   ISMEAR = -5
   ISPIN = 2
   KPOINT_BSE = -1 0 0 0
   LAECHG = True
   LASPH = True
   LCHARG = True
   LELF = True
   LORBIT = 11
   LREAL = Auto
   LVHAR = True
   LWAVE = False
   MAGMOM = 4*7.0 34*5.0 3*0.6
   NELM = 1000
   NSW = 0
   PREC = accurate
   SIGMA = 0.05

 POTCAR:    PAW_PBE Gd 23Dec2003
 POTCAR:    PAW_PBE Fe_pv 02Aug2007
 POTCAR:    PAW_PBE C 08Apr2002
 POTCAR:    PAW_PBE Gd 23Dec2003
   VRHFIN =Gd : [core=Xe4]

   TITEL  = PAW_PBE Gd 23Dec2003
   POMASS =  157.250; ZVAL   =   18.000    mass and valenz
   ENMAX  =  256.472; ENMIN  =  192.354 eV

   TITEL  = PAW_PBE Fe_pv 02Aug2007
   POMASS =   55.847; ZVAL   =   14.000    mass and valenz
   ENMAX  =  293.238; ENMIN  =  219.928 eV

   TITEL  = PAW_PBE C 08Apr2002
   POMASS =   12.011; ZVAL   =    4.000    mass and valenz
   ENMAX  =  400.000; ENMIN  =  300.000 eV

 Optimization of the real space projectors (new method)

 maximal supplied QI-value         = 13.42
 optimisation between [QCUT,QGAM] = [ 11.67, 23.35] = [ 38.16,152.62] Ry
 Optimized for a Real-space Cutoff    1.63 Angstroem

   l    n(q)    QCUT    max X(q) W(low)/X(q) W(high)/X(q)  e(spline)
   0     11    11.673    10.501    0.14E-04    0.17E-05    0.21E-07
   0     11    11.673     9.148    0.21E-04    0.32E-05    0.45E-07
   1     11    11.673     4.035    0.33E-05    0.11E-04    0.84E-07
   1     11    11.673     4.388    0.11E-04    0.47E-04    0.34E-06
   2     10    11.673    20.656    0.12E-04    0.28E-04    0.54E-06
   2     10    11.673    12.651    0.11E-04    0.26E-04    0.51E-06
   3     10    11.673    61.921    0.19E-03    0.22E-03    0.23E-06
   3     10    11.673    48.328    0.20E-03    0.23E-03    0.23E-06
 Optimization of the real space projectors (new method)

[...]

   l    n(q)    QCUT    max X(q) W(low)/X(q) W(high)/X(q)  e(spline)
   1     10    11.565     4.267    0.91E-04    0.15E-03    0.13E-06
   1     10    11.565     5.750    0.14E-03    0.22E-03    0.20E-06
   2      9    11.565    53.656    0.13E-03    0.57E-04    0.16E-06
   2      9    11.565    49.521    0.13E-03    0.59E-04    0.16E-06
   0     10    11.565    31.246    0.61E-04    0.74E-05    0.89E-07
   0     10    11.565    12.201    0.44E-04    0.68E-05    0.74E-07
 Optimization of the real space projectors (new method)

 maximal supplied QI-value         = 25.13
 optimisation between [QCUT,QGAM] = [ 11.56, 23.12] = [ 37.43,149.72] Ry
 Optimized for a Real-space Cutoff    1.04 Angstroem

   l    n(q)    QCUT    max X(q) W(low)/X(q) W(high)/X(q)  e(spline)
   0      7    11.561   115.676    0.20E-03    0.60E-03    0.21E-06
   0      7    11.561    87.132    0.20E-03    0.59E-03    0.21E-06
   1      7    11.561     4.429    0.23E-03    0.35E-03    0.15E-06
   1      7    11.561     2.733    0.18E-03    0.25E-03    0.12E-06
  PAW_PBE Gd 23Dec2003                  :
  PAW_PBE Fe_pv 02Aug2007               :
  PAW_PBE C 08Apr2002                   :

 POSCAR: Gd4 Fe34 C3
  positions in direct lattice
 exchange correlation table for  LEXCH =        8
   RHO(1)=    0.500       N(1)  =     2000
   RHO(2)=  100.500       N(2)  =     4000

 VTST: version 4.2, (08/11/21)

 CHAIN: initializing optimizer

 OPT: Using VASP Dynamics algorithm
 CHAIN: Read ICHAIN             0

 POSCAR: Gd4 Fe34 C3
  positions in direct lattice

 ion  position               nearest neighbor table
   1  0.350  0.336  0.424-  39 2.52  41 2.52   5 3.03  17 3.06  25 3.06  29 3.07  31 3.08  23 3.10
                            11 3.12   7 3.12   9 3.13  27 3.16  22 3.17
   2  0.338  0.340  0.926-  40 2.54  24 3.03  30 3.05  10 3.05  18 3.05   6 3.05  26 3.10  28 3.11
                            16 3.14   8 3.14  32 3.14  21 3.15  12 3.17
   3  0.650  0.664  0.576-  40 2.52  41 2.52  11 3.03  19 3.06  29 3.06  25 3.07  21 3.08  27 3.10
                             5 3.12  13 3.12  15 3.13  23 3.16  32 3.17
   4  0.662  0.660  0.074-  39 2.54  28 3.03  26 3.05  16 3.05  20 3.05  12 3.05  30 3.10  24 3.11
                            10 3.14  14 3.14  22 3.14  31 3.15   6 3.17
   5  0.655  0.144  0.578-  33 2.46  35 2.47  13 2.55  15 2.56  23 2.57  32 2.58  29 2.64  19 2.65
                            25 2.65   1 3.03   3 3.12
   6  0.656  0.149  0.077-  34 2.46  36 2.47  16 2.52  14 2.55  24 2.55  31 2.56  26 2.62  30 2.64
                            20 2.66   2 3.05   4 3.17
   7  0.655  0.659  0.322-  39 1.90  37 2.46  36 2.46  11 2.55  25 2.55  27 2.57  15 2.60  22 2.63
                            20 2.64  31 2.66   1 3.12
   8  0.658  0.656  0.825-  40 1.90  38 2.47  35 2.48  12 2.55  28 2.55  16 2.56  26 2.56  19 2.65
                            32 2.66  21 2.66   2 3.14
   9  0.146  0.658  0.578-  41 1.90  33 2.46  38 2.48  29 2.56  11 2.56  21 2.57  13 2.60  19 2.63
                            27 2.65  23 2.66   1 3.13
  10  0.148  0.658  0.077-  37 2.47  34 2.47  12 2.52  30 2.55  22 2.56  14 2.56  28 2.64  20 2.65
                            24 2.68   2 3.05   4 3.14
  11  0.345  0.856  0.422-  33 2.46  36 2.47   7 2.55   9 2.56  27 2.57  22 2.58  25 2.64  17 2.65
                            29 2.65   3 3.03   1 3.12
  12  0.344  0.851  0.923-  34 2.46  35 2.47  10 2.52   8 2.55  28 2.55  21 2.56  30 2.62  26 2.64
                            18 2.66   4 3.05   2 3.17
  13  0.345  0.341  0.678-  40 1.90  38 2.46  35 2.46   5 2.55  29 2.55  23 2.57   9 2.60  32 2.63
                            18 2.64  21 2.66   3 3.12
  14  0.342  0.344  0.175-  39 1.90  37 2.47  36 2.48   6 2.55  24 2.55  10 2.56  30 2.56  17 2.65
                            22 2.66  31 2.66   4 3.14
  15  0.854  0.342  0.422-  41 1.90  33 2.46  37 2.48  25 2.56   5 2.56  31 2.57   7 2.60  17 2.63
                            23 2.65  27 2.66   3 3.13
  16  0.852  0.342  0.923-  38 2.47  34 2.47   6 2.52  26 2.55  32 2.56   8 2.56  24 2.64  18 2.65
                            28 2.68   4 3.05   2 3.14
  17  0.097  0.096  0.299-  20 2.39  36 2.62  33 2.63  15 2.63  11 2.65  14 2.65  37 2.66  25 2.71
                            30 2.74  22 2.74  24 2.74  27 2.74  31 2.74   1 3.06
  18  0.096  0.095  0.799-  19 2.39  34 2.62  35 2.63  38 2.64  13 2.64  16 2.65  12 2.66  29 2.71
                            28 2.72  26 2.73  21 2.73  32 2.73  23 2.74   2 3.05
  19  0.903  0.904  0.701-  18 2.39  35 2.62  33 2.63   9 2.63   5 2.65   8 2.65  38 2.66  29 2.71
                            26 2.74  32 2.74  28 2.74  23 2.74  21 2.74   3 3.06
  20  0.904  0.905  0.201-  17 2.39  34 2.62  36 2.63  37 2.64   7 2.64  10 2.65   6 2.66  25 2.71
                            24 2.72  30 2.73  31 2.73  22 2.73  27 2.74   4 3.05
  21  0.285  0.715  0.751-  40 1.85  38 2.41  35 2.42  28 2.44  29 2.46  12 2.56   9 2.57   8 2.66
                            13 2.66  18 2.73  19 2.74   3 3.08   2 3.15
  22  0.285  0.714  0.249-  39 1.85  37 2.43  36 2.44  27 2.44  30 2.46  10 2.56  11 2.58   7 2.63
                            14 2.66  20 2.73  17 2.74   4 3.14   1 3.17
  23  0.999  0.286  0.608-  41 1.85  38 2.43  33 2.43  32 2.44  29 2.46  13 2.57   5 2.57  15 2.65
                             9 2.66  19 2.74  18 2.74   1 3.10   3 3.16
  24  0.999  0.283  0.107-  34 2.41  37 2.42  31 2.44  30 2.47   6 2.55  14 2.55  16 2.64  10 2.68
                            20 2.72  17 2.74   2 3.03   4 3.11
  25  0.717  0.999  0.392-  36 2.42  33 2.42  27 2.46  31 2.46   7 2.55  15 2.56  11 2.64   5 2.65
                            17 2.71  20 2.71   1 3.06   3 3.07
  26  0.713  0.001  0.893-  35 2.42  34 2.43  32 2.46  28 2.47  16 2.55   8 2.56   6 2.62  12 2.64
                            18 2.73  19 2.74   4 3.05   2 3.10
  27  0.001  0.714  0.392-  41 1.85  37 2.43  33 2.43  22 2.44  25 2.46   7 2.57  11 2.57   9 2.65
                            15 2.66  17 2.74  20 2.74   3 3.10   1 3.16
  28  0.001  0.717  0.893-  34 2.41  38 2.42  21 2.44  26 2.47  12 2.55   8 2.55  10 2.64  16 2.68
                            18 2.72  19 2.74   4 3.03   2 3.11
  29  0.283  0.001  0.608-  35 2.42  33 2.42  23 2.46  21 2.46  13 2.55   9 2.56   5 2.64  11 2.65
                            19 2.71  18 2.71   3 3.06   1 3.07
  30  0.287  0.999  0.107-  36 2.42  34 2.43  22 2.46  24 2.47  10 2.55  14 2.56  12 2.62   6 2.64
                            20 2.73  17 2.74   2 3.05   4 3.10
  31  0.715  0.285  0.249-  39 1.85  37 2.41  36 2.42  24 2.44  25 2.46   6 2.56  15 2.57  14 2.66
                             7 2.66  20 2.73  17 2.74   1 3.08   4 3.15
  32  0.715  0.286  0.751-  40 1.85  38 2.43  35 2.44  23 2.44  26 2.46  16 2.56   5 2.58  13 2.63
                             8 2.66  18 2.73  19 2.74   2 3.14   3 3.17
  33  0.000  0.000  0.500-  25 2.42  29 2.42  27 2.43  23 2.43   5 2.46  11 2.46   9 2.46  15 2.46
                            17 2.63  19 2.63
  34  0.000  0.000  0.000-  24 2.41  28 2.41  26 2.43  30 2.43   6 2.46  12 2.46  10 2.47  16 2.47
                            18 2.62  20 2.62
  35  0.500  0.998  0.751-  21 2.42  26 2.42  29 2.42  32 2.44  13 2.46   5 2.47  12 2.47   8 2.48
                            19 2.62  18 2.63
  36  0.500  0.002  0.249-  31 2.42  30 2.42  25 2.42  22 2.44   7 2.46  11 2.47   6 2.47  14 2.48
                            17 2.62  20 2.63
  37  0.998  0.501  0.248-  31 2.41  24 2.42  22 2.43  27 2.43   7 2.46  10 2.47  14 2.47  15 2.48
                            20 2.64  17 2.66
  38  0.002  0.499  0.752-  21 2.41  28 2.42  32 2.43  23 2.43  13 2.46  16 2.47   8 2.47   9 2.48
                            18 2.64  19 2.66
  39  0.500  0.499  0.249-  31 1.85  22 1.85  14 1.90   7 1.90   1 2.52   4 2.54
  40  0.500  0.501  0.751-  21 1.85  32 1.85   8 1.90  13 1.90   3 2.52   2 2.54
  41  0.000  0.500  0.500-  23 1.85  27 1.85   9 1.90  15 1.90   1 2.52   3 2.52

  LATTYP: Found a triclinic cell.
 ALAT       =     6.4423270000
 B/A-ratio  =     1.3380702085
 C/A-ratio  =     2.0018858450
 COS(alpha) =     0.0035817065
 COS(beta)  =     0.1136455270
 COS(gamma) =     0.6651269008

  Lattice vectors:

 A1 = (  -6.4423270000,   0.0000000000,   0.0000000000)
 A2 = (  -5.7335840000,   6.4370290000,   0.0000000000)
 A3 = (  -1.4656640000,  -1.2436350000, -12.7527540000)

Analysis of symmetry for initial positions (statically):
 Subroutine PRICEL returns:
 Original cell was already a primitive cell.

 Routine SETGRP: Setting up the symmetry group for a
 triclinic supercell.

 Subroutine GETGRP returns: Found  2 space group operations
 (whereof  2 operations were pure point group operations)
 out of a pool of  2 trial point group operations.

The static configuration has the point symmetry S_2 .

Analysis of symmetry for dynamics (positions and initial velocities):
 Subroutine PRICEL returns:
 Original cell was already a primitive cell.

[...]

The dynamic configuration has the point symmetry S_2 .

Analysis of structural, dynamic, and magnetic symmetry:
 Subroutine PRICEL returns:
 Original cell was already a primitive cell.

 Routine SETGRP: Setting up the symmetry group for a
 triclinic supercell.

[...]
  318                map_forward                           0.000237                    4   7
  319                  map_gather                            0.000050                  2   8
  320                  m_alltoallv_z                         0.000028                  2   8
  321                  map_scatter                           0.000128                  2   8
  322                map_backward                          0.000098                    2   7
  323                  map_gather                            0.000025                  1   8
  324                  m_alltoallv_z                         0.000012                  1   8
  325                  map_scatter                           0.000045                  1   8
  326          m_sumb_d                              0.000009                          2   4
  327          pothar                                0.000094                          1   4
  328            m_sumb_d                              0.000017                        1   5
  329        brmix                                 0.015619                            1   3
  330          m_sumb_d                              0.000035                          6   4
  331          brpre                                 0.000043                          2   4
  332          setg0                                 0.001560                          1   4
  333          broyd                                 0.012063                          1   4
  334            brget                                 0.003258                      326   5
  335            brsav                                 0.001535                      163   5
  336            m_sumb_d                              0.000166                       47   5
  337        m_bcast_d                             0.000029                            2   3
  338      potlok                                0.053496                              2   2
  339        fft3d_mpi                             0.033100                           36   3
  340          fftbrc_mpi                            0.027344                         36   4
  341            fftbas_plan_mpi                       0.027319                       36   5
  342              map_forward                           0.008106                     40   6
  343                map_gather                            0.002442                   24   7
  344                m_alltoallv_z                         0.003098                   24   7
  345                map_scatter                           0.002364                   24   7
  346              map_backward                          0.007213                     32   6
  347                map_gather                            0.002118                   16   7
  348                m_alltoallv_z                         0.002855                   16   7
  349                map_scatter                           0.002034                   16   7
  350              dfftw_execute                         0.010273                     30   6
  351        m_sumb_d                              0.000027                            5   3
  352        pothar                                0.002421                            2   3
  353          m_sumb_d                              0.000202                          2   4
  354        m_bcast_d                             0.003695                            4   3
  355      potlok_metagga                        0.000000                              1   2
  356      set_dd_magatom                        0.000004                              1   2
  357      set_dd_paw                            5.579869                              1   2
  358        m_sumb_d                              0.494620                            7   3
  359      augmentation_charge                   0.215589                              1   2
  360        fft3d_mpi                             0.074657                            2   3
  361          fftbrc_mpi                            0.066292                          2   4
  362            fftbas_plan_mpi                       0.066290                        2   5
  363              dfftw_execute                         0.039979                      6   6
  364              map_backward                          0.026031                      4   6
  365                map_gather                            0.009301                    2   7
  366                m_alltoallv_z                         0.008638                    2   7
  367                map_scatter                           0.008083                    2   7
  368      fftwav_mpi                           21.271116                          13080   2
  369        fftwav                               21.254176                        13080   3
  370          fft3d                                19.721640                      13080   4
  371      densta                               20.984425                              1   2

 Flat profile

 set_dd_paw                           5070.522449         998
 eddav                                4567.465277        1000
 lapack                               3649.733288     8140118
 raccmu_                              3354.341210     8140118
 m_sumb_d                             2480.265072    24541772
 redis_pw                             2049.412424    43976784
 m_alltoall_d                          807.095963    ********
 densta                                479.469568        1001
 eccp                                  468.096231     4360000
 orth1                                 406.390389    24420914
 redis_proj                            375.485404    55702392
 fft3d                                 375.052067    47263970
 fftwav                                295.967928    31178402
 phaser                                288.590859       40260
 hamiltmu                              249.685156     8140118
 racc0mu_acc                           237.878193     8140118
 w1_copy                               232.744438    48256704
 overl                                 231.647963    27811176
 m_bcast_z                             176.267028     8157558
 rpromu_acc                            175.943464     5954678
 ggemm                                 169.050469    10340118
 soft_charge                           164.923453         997
 setup_precond                         159.381368     4360000
 augmentation_charge                   139.658456         998
 setdij_                               136.256951        1024
 m_bcast_d                             133.406844    16282237
 overl_mu                              126.143719     8140118
 pw_charge                             107.580826     3297506
 dfftw_execute                          93.170857       24396
 kinhamil                               73.289616    16085568
 vhamil                                 73.140508    16085568
 depsum                                 71.208061         997
 fftext_mpi                             68.410720    16085568
 newband                                65.229123     8180118
 apply_precond                          64.156351    11725568
 fftwav_mpi                             41.165176    31178402
 total_time                             26.834203           1
 fft3d_mpi                              24.175225    16119647
 m_alltoallv_z                          20.698651       38089
 map_scatter                            18.979874       38089
 map_gather                             18.707721       38089
 set_charge                             15.150421         997
 init_acc                               11.039332           1
 broyd                                   7.984650         996
 w1_projall                              5.773176     5940118
 potlok                                  5.348919         998
 brmix                                   2.924849         996
 rpro_isp                                2.893158         260
 brget                                   2.460101      235955
 acc_init_cublas                         2.420711           1
 elmin                                   2.253692           1
 fftbas_plan_mpi                         1.761500       34079
 lincom                                  1.683112       40040
 truncate_high_frequency_w1              1.597684    20445568
 setg0                                   1.555597         998
 sphpro_fast                             1.460805           2
 acc_init_cusolver                       0.787962           1
 brsav                                   0.693287       68456
 rspher_all                              0.476434          14
 proall                                  0.227842           1
 map_backward                            0.215322       36062
 map_forward                             0.208753       32096
 orthch                                  0.171062           1
 fft_gq                                  0.119401         997
 acc_cufft_makeplan                      0.115474          19
 pothar                                  0.087439         999
 force_and_stress                        0.082500           1
 brpre                                   0.046128        1992
 choleski                                0.037952          40
 stufak                                  0.028343           1
 fftbrc_mpi                              0.020168       34079
 strnlr                                  0.018955           1
 fornlr                                  0.007565           1
 strkin                                  0.006976           1
 set_dd_magatom                          0.004518         998
 inisym                                  0.004243           1
 vectorpot                               0.004093         997
 forhar                                  0.003532           2
 strelo                                  0.002818           1
 strehar                                 0.002142           1
 forloc                                  0.001808           1
 rsp                                     0.001730           1
 fewald                                  0.000362           1
 brgrid                                  0.000291           1
 chggra                                  0.000263           1
 fordep                                  0.000236           1
 potlok_metagga                          0.000099         997
 rcp                                     0.000059           1
 posmap                                  0.000028           2
 crpa_reader                             0.000027           1
 acc_cufft_makeplans                     0.000010           3
 rotate_active_occupied_orbital          0.000000           1
 redis_pw_over_bands                     0.000000           1
  summed up times     27837.30807113647

 Accumulative profile

 total_time                          27837.308071           1
 elmin                               27712.630793           1
 eddav                               20766.874205        1000
 set_dd_paw                           5562.959710         998
 hamiltmu                             4302.336237     8140118
 raccmu_                              3718.363122     8140118
 lapack                               3649.733288     8140118
 m_sumb_d                             2480.265072    24541772
 redis_pw                             2453.401269    43976784
 newband                              1037.105834     8180118
 m_alltoall_d                          807.095963    ********
 redis_proj                            778.592521    55702392
 set_charge                            693.370877         997
 fftwav_mpi                            597.585609    31178402
 fftwav                                556.420432    31178402
 densta                                479.469568        1001
 eccp                                  468.096231     4360000
 orth1                                 406.390389    24420914
 soft_charge                           388.852517         997
 fft3d                                 375.052067    47263970
 fft3d_mpi                             292.537634    16119647
 phaser                                288.590859       40260
 kinhamil                              261.147451    16085568
 racc0mu_acc                           237.878193     8140118
 w1_copy                               232.744438    48256704
 overl                                 231.647963    27811176
 setdij_                               225.405216        1024
 augmentation_charge                   215.543136         998
 fftext_mpi                            187.857834    16085568
 w1_projall                            177.006732     5940118
 m_bcast_z                             176.267028     8157558
 rpromu_acc                            175.943464     5954678
 ggemm                                 169.050469    10340118
 setup_precond                         159.381368     4360000
 fftbrc_mpi                            153.762845       34079
 fftbas_plan_mpi                       153.742677       34079
 m_bcast_d                             133.406844    16282237
 overl_mu                              126.143719     8140118
 pw_charge                             107.580826     3297506
 dfftw_execute                          93.170857       24396
 vhamil                                 73.140508    16085568
 depsum                                 71.677979         997
 apply_precond                          64.156351    11725568
 map_backward                           32.487790       36062
 map_forward                            26.322531       32096
 force_and_stress                       23.346646           1
 m_alltoallv_z                          20.698651       38089
 map_scatter                            18.979874       38089
 map_gather                             18.707721       38089
 brmix                                  15.966318         996
 broyd                                  11.334341         996
 init_acc                               11.039332           1
 potlok                                 10.500820         998
 rpro_isp                                9.429361         260
 strnlr                                  8.413901           1
 fft_gq                                  3.771076         997
 fornlr                                  2.810829           1
 brget                                   2.460101      235955
 acc_init_cublas                         2.420711           1
 sphpro_fast                             1.708745           2
 lincom                                  1.683112       40040
 truncate_high_frequency_w1              1.597684    20445568
 setg0                                   1.555597         998
 fordep                                  1.325671           1
 orthch                                  0.942080           1
 proall                                  0.809307           1
 acc_init_cusolver                       0.787962           1
 brsav                                   0.693287       68456
 rspher_all                              0.476434          14
 acc_cufft_makeplans                     0.115484           3
 acc_cufft_makeplan                      0.115474          19
 pothar                                  0.097247         999
 brpre                                   0.046128        1992
 choleski                                0.037952          40
 stufak                                  0.028343           1
 strkin                                  0.006984           1
 set_dd_magatom                          0.004518         998
 inisym                                  0.004271           1
 vectorpot                               0.004093         997
 forhar                                  0.003579           2
 strelo                                  0.003023           1
 forloc                                  0.002868           1
 fewald                                  0.002244           1
 strehar                                 0.002149           1
 rsp                                     0.001730           1
 chggra                                  0.000902           1
 brgrid                                  0.000291           1
 potlok_metagga                          0.000099         997
 rcp                                     0.000059           1
 posmap                                  0.000028           2
 crpa_reader                             0.000027           1
 rotate_active_occupied_orbital          0.000000           1
 redis_pw_over_bands                     0.000000           1

Profiling took 100.894491 48.535734  0.003223  0.003122 seconds
Profiling took  62.883587 seconds