 vasp.6.3.2 27Jun22 (build Jul  3 2023 11:46:21) complex
 executed on    LinuxNV_CrayMPICH date 2024.04.22  02:09:30

 INCAR:
   ADDGRID = True
   ALGO = Normal
   EDIFF = 0.00415
   ENCUT = 520.0
   IBRION = -1
   ICHARG = 0
   ISIF = 3
   ISMEAR = -5
   ISPIN = 2
   KPOINT_BSE = -1 0 0 0
   LAECHG = True
   LASPH = True
   LCHARG = True
   LELF = True
   LORBIT = 11
   LREAL = Auto
   LVHAR = True
   LWAVE = False
   MAGMOM = 18*0.6 2*7.0 63*0.6
   NELM = 1000
   NSW = 0
   PREC = accurate
   SIGMA = 0.05

 POTCAR:    PAW_PBE Ca_sv 06Sep2000
 POTCAR:    PAW_PBE Eu 23Dec2003
 POTCAR:    PAW_PBE P 06Sep2000
 POTCAR:    PAW_PBE S 06Sep2000
 POTCAR:    PAW_PBE O 08Apr2002
 POTCAR:    PAW_PBE Ca_sv 06Sep2000
   VRHFIN =Ca: 3s3p4s

   TITEL  = PAW_PBE Ca_sv 06Sep2000
   POMASS =   40.078; ZVAL   =   10.000    mass and valenz
   ENMAX  =  266.622; ENMIN  =  199.967 eV

   TITEL  = PAW_PBE Eu 23Dec2003
   POMASS =  151.965; ZVAL   =   17.000    mass and valenz
   ENMAX  =  249.668; ENMIN  =  187.251 eV

   TITEL  = PAW_PBE P 06Sep2000
   POMASS =   30.974; ZVAL   =    5.000    mass and valenz
   ENMAX  =  255.040; ENMIN  =  191.280 eV

   TITEL  = PAW_PBE S 06Sep2000
   POMASS =   32.066; ZVAL   =    6.000    mass and valenz
   ENMAX  =  258.689; ENMIN  =  194.016 eV

   TITEL  = PAW_PBE O 08Apr2002
   POMASS =   16.000; ZVAL   =    6.000    mass and valenz
   ENMAX  =  400.000; ENMIN  =  300.000 eV

 Optimization of the real space projectors (new method)

 maximal supplied QI-value         = 16.25
 optimisation between [QCUT,QGAM] = [ 11.54, 23.24] = [ 37.28,151.24] Ry
 Optimized for a Real-space Cutoff    1.58 Angstroem

   l    n(q)    QCUT    max X(q) W(low)/X(q) W(high)/X(q)  e(spline)
   0     11    11.539    11.817    0.25E-04    0.22E-05    0.26E-07
   0     11    11.539     8.461    0.39E-04    0.49E-05    0.55E-07
   1     11    11.539     3.957    0.21E-05    0.44E-05    0.32E-07
   1     11    11.539     4.314    0.56E-04    0.44E-04    0.19E-06
   2     10    11.539    14.565    0.25E-03    0.21E-04    0.75E-06
   2     10    11.539    14.552    0.23E-03    0.22E-04    0.72E-06
 Optimization of the real space projectors (new method)

[...]

   l    n(q)    QCUT    max X(q) W(low)/X(q) W(high)/X(q)  e(spline)
   0      8    11.508   187.594    0.96E-04    0.18E-03    0.54E-07
   0      8    11.508   164.243    0.96E-04    0.18E-03    0.54E-07
   1      8    11.508    67.533    0.18E-03    0.65E-04    0.94E-07
   1      8    11.508    50.729    0.18E-03    0.63E-04    0.92E-07
 Optimization of the real space projectors (new method)

 maximal supplied QI-value         = 24.76
 optimisation between [QCUT,QGAM] = [ 11.64, 23.27] = [ 37.91,151.63] Ry
 Optimized for a Real-space Cutoff    1.14 Angstroem

   l    n(q)    QCUT    max X(q) W(low)/X(q) W(high)/X(q)  e(spline)
   0      8    11.635    20.381    0.10E-03    0.33E-03    0.24E-06
   0      8    11.635    15.268    0.11E-03    0.35E-03    0.26E-06
   1      7    11.635     5.964    0.24E-03    0.31E-03    0.30E-06
   1      7    11.635     5.382    0.22E-03    0.25E-03    0.26E-06
  PAW_PBE Ca_sv 06Sep2000               :
  PAW_PBE Eu 23Dec2003                  :
  PAW_PBE P 06Sep2000                   :
  PAW_PBE S 06Sep2000                   :
  PAW_PBE O 08Apr2002                   :

 POSCAR: Ca18 Eu2 P12 S3 O48
  positions in direct lattice
 exchange correlation table for  LEXCH =        8
   RHO(1)=    0.500       N(1)  =     2000
   RHO(2)=  100.500       N(2)  =     4000

 VTST: version 4.2, (08/11/21)

 CHAIN: initializing optimizer

 OPT: Using VASP Dynamics algorithm
 CHAIN: Read ICHAIN             0

 POSCAR: Ca18 Eu2 P12 S3 O48
  positions in direct lattice

 ion  position               nearest neighbor table
   1  0.238  0.140  0.121-  63 2.30  39 2.31  62 2.41  37 2.46  36 2.51  34 2.95
   2  0.004  0.502  0.165-  43 2.40  44 2.44  38 2.45  39 2.45  42 2.51  45 2.52
   3  0.512  0.497  0.169-  45 2.37  38 2.39  42 2.39  44 2.40  43 2.43  39 2.45
   4  0.254  0.611  0.368-  45 2.35  46 2.38  47 2.38  40 2.49  41 2.51
   5  0.254  0.640  0.624-  53 2.35  78 2.36  79 2.37  50 2.52  51 2.55
   6  0.241  0.745  0.009-  82 2.30  42 2.35  83 2.39  48 2.46  49 2.48  24 3.06
   7  0.767  0.885  0.129-  49 2.30  54 2.32  48 2.39  62 2.46  63 2.54  34 2.93
   8  0.493  0.996  0.335-  66 2.38  58 2.38  55 2.40  67 2.43  59 2.44  54 2.45
   9  0.002  0.002  0.329-  55 2.41  67 2.42  54 2.43  59 2.47  58 2.49  66 2.53
  10  0.002  0.997  0.670-  64 2.40  52 2.41  65 2.44  60 2.46  61 2.47  53 2.49
  11  0.510  0.003  0.667-  53 2.38  61 2.42  64 2.42  52 2.45  60 2.45  65 2.45
  12  0.238  0.113  0.870-  65 2.31  71 2.32  70 2.40  56 2.48  57 2.50  34 2.93
  13  0.764  0.258  0.992-  36 2.29  37 2.37  77 2.38  70 2.45  71 2.51  29 3.06
  14  0.750  0.358  0.375-  40 2.34  41 2.36  66 2.37  69 2.53  68 2.53
  15  0.750  0.388  0.633-  74 2.37  72 2.37  73 2.38  78 2.48  79 2.52
  16  0.489  0.505  0.830-  81 2.35  74 2.35  75 2.38  77 2.39  76 2.41  80 2.44
  17  0.998  0.499  0.836-  76 2.41  80 2.46  81 2.46  75 2.47  77 2.53  74 2.57
  18  0.767  0.863  0.878-  57 2.29  80 2.32  56 2.40  83 2.44  82 2.55  34 2.93
  19  0.754  0.742  0.494-  51 2.39  50 2.40  59 2.42  46 2.54  47 2.57  33 2.90  35 2.93  23 3.16

  20  0.251  0.257  0.506-  69 2.40  68 2.40  60 2.41  72 2.55  73 2.56  35 2.92  33 2.92  30 3.16

  21  0.253  0.326  0.292-  67 1.54  40 1.55  41 1.55  39 1.57
  22  0.258  0.392  0.015-  76 1.55  36 1.55  37 1.56  42 1.57
  23  0.753  0.724  0.309-  44 1.54  47 1.56  46 1.56  54 1.57  19 3.16
  24  0.258  0.780  0.188-  55 1.55  49 1.56  48 1.56  45 1.57   6 3.06
  25  0.257  0.828  0.796-  81 1.54  57 1.55  56 1.56  53 1.57
  26  0.253  0.900  0.518-  58 1.54  51 1.55  50 1.55  60 1.57
  27  0.754  0.100  0.482-  61 1.53  69 1.55  68 1.55  59 1.57
  28  0.748  0.171  0.202-  38 1.55  63 1.55  62 1.56  66 1.57
  29  0.747  0.218  0.814-  64 1.55  70 1.56  71 1.56  74 1.57  13 3.06
  30  0.251  0.276  0.691-  75 1.54  73 1.55  72 1.56  65 1.57  20 3.16
  31  0.748  0.612  0.985-  43 1.54  82 1.55  83 1.56  77 1.58
  32  0.753  0.673  0.708-  52 1.54  79 1.55  78 1.55  80 1.57
  33  0.000  0.500  0.500-  19 2.90  20 2.92
  34  0.001  0.000  1.000-   7 2.93  18 2.93  12 2.93   1 2.95
  35  0.502  0.500  0.500-  20 2.92  19 2.93
  36  0.063  0.323  0.045-  22 1.55  13 2.29   1 2.51
  37  0.433  0.295  0.038-  22 1.56  13 2.37   1 2.46
  38  0.756  0.320  0.173-  28 1.55   3 2.39   2 2.45
  39  0.253  0.330  0.200-  21 1.57   1 2.31   3 2.45   2 2.45
  40  0.439  0.408  0.319-  21 1.55  14 2.34   4 2.49
  41  0.065  0.407  0.319-  21 1.55  14 2.36   4 2.51
  42  0.276  0.527  0.064-  22 1.57   6 2.35   3 2.39   2 2.51
  43  0.755  0.579  0.074-  31 1.54   2 2.40   3 2.43
  44  0.755  0.603  0.252-  23 1.54   3 2.40   2 2.44
  45  0.274  0.639  0.231-  24 1.57   4 2.35   3 2.37   2 2.52
  46  0.568  0.724  0.364-  23 1.56   4 2.38  19 2.54
  47  0.942  0.725  0.363-  23 1.56   4 2.38  19 2.57
  48  0.435  0.795  0.129-  24 1.56   7 2.39   6 2.46
  49  0.065  0.769  0.137-  24 1.56   7 2.30   6 2.48
  50  0.068  0.818  0.546-  26 1.55  19 2.40   5 2.52
  51  0.441  0.820  0.545-  26 1.55  19 2.39   5 2.55
  52  0.755  0.819  0.675-  32 1.54  10 2.41  11 2.45
  53  0.273  0.834  0.704-  25 1.57   5 2.35  11 2.38  10 2.49
  54  0.749  0.864  0.265-  23 1.57   7 2.32   9 2.43   8 2.45
  55  0.252  0.899  0.247-  24 1.55   8 2.40   9 2.41
  56  0.435  0.909  0.832-  25 1.56  18 2.40  12 2.48
  57  0.064  0.909  0.816-  25 1.55  18 2.29  12 2.50
  58  0.250  0.926  0.429-  26 1.54   8 2.38   9 2.49
  59  0.752  0.965  0.434-  27 1.57  19 2.42   8 2.44   9 2.47
  60  0.252  0.035  0.566-  26 1.57  20 2.41  11 2.45  10 2.46
  61  0.756  0.074  0.571-  27 1.53  11 2.42  10 2.47
  62  0.576  0.091  0.161-  28 1.56   1 2.41   7 2.46
  63  0.944  0.091  0.185-  28 1.55   1 2.30   7 2.54
  64  0.756  0.100  0.754-  29 1.55  10 2.40  11 2.42
  65  0.254  0.136  0.735-  30 1.57  12 2.31  10 2.44  11 2.45
  66  0.723  0.165  0.293-  28 1.57  14 2.37   8 2.38   9 2.53
  67  0.252  0.180  0.325-  21 1.54   9 2.42   8 2.43
  68  0.938  0.180  0.453-  27 1.55  20 2.40  14 2.53
  69  0.568  0.181  0.456-  27 1.55  20 2.40  14 2.53
  70  0.575  0.196  0.875-  29 1.56  12 2.40  13 2.45
  71  0.942  0.235  0.863-  29 1.56  12 2.32  13 2.51
  72  0.438  0.274  0.636-  30 1.56  15 2.37  20 2.55
  73  0.065  0.276  0.637-  30 1.55  15 2.38  20 2.56
  74  0.721  0.358  0.771-  29 1.57  16 2.35  15 2.37  17 2.57
  75  0.250  0.396  0.748-  30 1.54  16 2.38  17 2.47
  76  0.252  0.423  0.926-  22 1.55  16 2.41  17 2.41
  77  0.720  0.477  0.936-  31 1.58  13 2.38  16 2.39  17 2.53
  78  0.568  0.592  0.680-  32 1.55   5 2.36  15 2.48
  79  0.941  0.591  0.683-  32 1.55   5 2.37  15 2.52
  80  0.748  0.671  0.800-  32 1.57  18 2.32  16 2.44  17 2.46
  81  0.250  0.680  0.826-  25 1.54  16 2.35  17 2.46
  82  0.944  0.675  0.954-  31 1.55   6 2.30  18 2.55
  83  0.578  0.714  0.965-  31 1.56   6 2.39  18 2.44

  LATTYP: Found a triclinic cell.
 ALAT       =    17.0286483286
 B/A-ratio  =     0.5782598455
 C/A-ratio  =     0.3927729242
 COS(alpha) =     0.0003349249
 COS(beta)  =     0.0004717932
 COS(gamma) =     0.0015493120

  Lattice vectors:

 A1 = (  -0.0080340000,  -0.0263800000, -17.0286260000)
 A2 = (  -0.0032980000,  -9.8469830000,   0.0000000000)
 A3 = (  -6.6883920000,   0.0000000000,   0.0000000000)

Analysis of symmetry for initial positions (statically):
 Subroutine PRICEL returns:
 Original cell was already a primitive cell.

 Routine SETGRP: Setting up the symmetry group for a
 triclinic supercell.

 Subroutine GETGRP returns: Found  1 space group operations
 (whereof  1 operations were pure point group operations)
 out of a pool of  2 trial point group operations.

The static configuration has the point symmetry C_1 .

Analysis of symmetry for dynamics (positions and initial velocities):
 Subroutine PRICEL returns:
 Original cell was already a primitive cell.

[...]

The dynamic configuration has the point symmetry C_1 .

Analysis of structural, dynamic, and magnetic symmetry:
 Subroutine PRICEL returns:
 Original cell was already a primitive cell.

 Routine SETGRP: Setting up the symmetry group for a
 triclinic supercell.

 Subroutine GETGRP returns: Found  1 space group operations
 (whereof  1 operations were pure point group operations)
 out of a pool of  2 trial point group operations.

The overall configuration has the point symmetry C_1 .

 Subroutine INISYM returns: Found  1 space group operations
 (whereof  1 operations are pure point group operations),
 and found     1 'primitive' translations

                                     Primitive cell

  volume of cell :    1121.5135

  direct lattice vectors                    reciprocal lattice vectors
     6.688392000  0.000000000  0.000000000     0.149512768 -0.000050076 -0.000070462
     0.003298000  9.846983000  0.000000000     0.000000000  0.101553948 -0.000157323
     0.008034000  0.026380000 17.028626000     0.000000000  0.000000000  0.058724644

  length of vectors
     6.688392000  9.846983552 17.028648329     0.149512793  0.101554070  0.058724644

[...]
  315                map_forward                           0.000393                    4   7
  316                  map_gather                            0.000062                  2   8
  317                  m_alltoallv_z                         0.000030                  2   8
  318                  map_scatter                           0.000259                  2   8
  319                map_backward                          0.000147                    2   7
  320                  map_gather                            0.000036                  1   8
  321                  m_alltoallv_z                         0.000013                  1   8
  322                  map_scatter                           0.000078                  1   8
  323          m_sumb_d                              0.000007                          2   4
  324          pothar                                0.000123                          1   4
  325            m_sumb_d                              0.000030                        1   5
  326        brmix                                 0.028020                            1   3
  327          m_sumb_d                              0.000075                          6   4
  328          brpre                                 0.000086                          2   4
  329          setg0                                 0.003582                          1   4
  330          broyd                                 0.019981                          1   4
  331            m_sumb_d                              0.001556                       50   5
  332            brget                                 0.003909                      224   5
  333            brsav                                 0.000920                       48   5
  334        m_bcast_d                             0.000140                            2   3
  335      potlok                                0.126645                              2   2
  336        fft3d_mpi                             0.070361                           36   3
  337          fftbrc_mpi                            0.058008                         36   4
  338            fftbas_plan_mpi                       0.057983                       36   5
  339              map_forward                           0.017677                     40   6
  340                map_gather                            0.004269                   24   7
  341                m_alltoallv_z                         0.008255                   24   7
  342                map_scatter                           0.004886                   24   7
  343              map_backward                          0.014178                     32   6
  344                map_gather                            0.003106                   16   7
  345                m_alltoallv_z                         0.006425                   16   7
  346                map_scatter                           0.004399                   16   7
  347              dfftw_execute                         0.024103                     30   6
  348        m_sumb_d                              0.000030                            5   3
  349        pothar                                0.005070                            2   3
  350          m_sumb_d                              0.000367                          2   4
  351        m_bcast_d                             0.008298                            4   3
  352      potlok_metagga                        0.000000                              1   2
  353      set_dd_magatom                        0.000005                              1   2
  354      set_dd_paw                            6.352461                              1   2
  355        m_sumb_d                              0.211052                            7   3
  356      augmentation_charge                   0.377102                              1   2
  357        fft3d_mpi                             0.185010                            2   3
  358          fftbrc_mpi                            0.156264                          2   4
  359            fftbas_plan_mpi                       0.156260                        2   5
  360              dfftw_execute                         0.085574                      6   6
  361              map_backward                          0.070462                      4   6
  362                map_gather                            0.024643                    2   7
  363                m_alltoallv_z                         0.016769                    2   7
  364                map_scatter                           0.029038                    2   7
  365      fftwav_mpi                           10.866863                           3420   2
  366        fftwav                               10.862234                         3420   3
  367          fft3d                                 9.956161                       3420   4
  368      densta                                9.416508                              1   2

 Flat profile

 set_dd_paw                            776.956226         126
 eddav                                 184.956351         128
 raccmu_                               138.858001      286160
 lapack                                135.198633      286160
 m_sumb_d                              105.506259      872328
 redis_pw                               72.497563     1551561
 total_time                             34.990922           1
 dfftw_execute                          29.995025        3468
 m_alltoall_d                           29.977046     4105185
 setdij_                                27.640863         152
 fft3d                                  24.867446     1676137
 augmentation_charge                    24.337291         126
 eccp                                   19.551669      145920
 phaser                                 18.313466        1614
 densta                                 16.941897         129
 orth1                                  15.659214      858624
 hamiltmu                               13.372488      286160
 redis_proj                             13.241822     1970448
 fftwav                                 12.050876     1111342
 init_acc                               10.764514           1
 fft3d_mpi                               8.682797      569226
 racc0mu_acc                             8.406507      286160
 w1_copy                                 8.171129     1694385
 overl                                   8.152750      983682
 rpromu_acc                              7.654049      216176
 map_scatter                             7.406947        4953
 m_bcast_z                               7.348550      290720
 map_gather                              6.586999        4953
 m_alltoallv_z                           5.763118        4953
 soft_charge                             5.701234         125
 setup_precond                           5.398646      145920
 pw_charge                               5.300667      109432
 ggemm                                   5.107862      359888
 m_bcast_d                               4.855116      572577
 overl_mu                                4.513639      286160
 vhamil                                  2.618060      564795
 kinhamil                                2.531055      564795
 acc_init_cublas                         2.431903           1
 fftext_mpi                              2.389989      564795
 depsum                                  2.379477         125
 apply_precond                           2.290878      418875
 newband                                 2.289245      287696
 fftwav_mpi                              1.455309     1111342
 potlok                                  1.366426         126
 broyd                                   1.357607         124
 rpro_isp                                0.874339          78
 acc_init_cusolver                       0.791967           1
 sphpro_fast                             0.665794           2
 brmix                                   0.635163         124
 rspher_all                              0.616097          14
 setg0                                   0.452799         126
 elmin                                   0.443416           1
 brget                                   0.435988       24512
 fftbas_plan_mpi                         0.251783        4431
 w1_projall                              0.206168      212432
 proall                                  0.146962           1
 stufak                                  0.128182           1
 brsav                                   0.119429        6822
 set_charge                              0.113095         125
 acc_cufft_makeplan                      0.108972          19
 lincom                                  0.103404        1548
 orthch                                  0.089968           1
 force_and_stress                        0.059259           1
 truncate_high_frequency_w1              0.057891      710715
 fft_gq                                  0.036641         125
 map_forward                             0.034052        4192
 map_backward                            0.033892        4670
 pothar                                  0.017935         127
 choleski                                0.013825          12
 brpre                                   0.011077         248
 forhar                                  0.008816           2
 rsp                                     0.008059           1
 strnlr                                  0.007358           1
 strelo                                  0.005871           1
 strehar                                 0.004779           1
 strkin                                  0.004727           1
 forloc                                  0.004408           1
 inisym                                  0.004340           1
 fftbrc_mpi                              0.003003        4431
 fornlr                                  0.002481           1
 brgrid                                  0.000615           1
 set_dd_magatom                          0.000559         126
 vectorpot                               0.000499         125
 chggra                                  0.000410           1
 fewald                                  0.000394           1
 fordep                                  0.000239           1
 rcp                                     0.000203           1
 posmap                                  0.000029           2
 crpa_reader                             0.000027           1
 potlok_metagga                          0.000011         125
 acc_cufft_makeplans                     0.000010           3
 rotate_active_occupied_orbital          0.000000           1
 redis_pw_over_bands                     0.000000           1
  summed up times     1832.342464923859

 Accumulative profile

 total_time                           1832.342465           1
 elmin                                1726.367606           1
 eddav                                 808.482016         128
 set_dd_paw                            802.275902         126
 hamiltmu                              176.864441      286160
 raccmu_                               151.778148      286160
 lapack                                135.198633      286160
 m_sumb_d                              105.506259      872328
 redis_pw                               87.987551     1551561
 set_charge                             69.429348         125
 fft3d_mpi                              62.759792      569226
 setdij_                                60.483406         152
 fftbrc_mpi                             50.074819        4431
 fftbas_plan_mpi                        50.071816        4431
 augmentation_charge                    47.589282         126
 newband                                39.162767      287696
 fftwav_mpi                             34.371454     1111342
 fftwav                                 32.916145     1111342
 dfftw_execute                          29.995025        3468
 m_alltoall_d                           29.977046     4105185
 redis_proj                             27.728878     1970448
 fft3d                                  24.867446     1676137
 force_and_stress                       21.434516           1
 soft_charge                            19.613316         125
 eccp                                   19.551669      145920
 phaser                                 18.313466        1614
 densta                                 16.941897         129
 orth1                                  15.659214      858624
 init_acc                               10.764514           1
 map_backward                           10.605963        4670
 map_forward                             9.219045        4192
 kinhamil                                9.095746      564795
 racc0mu_acc                             8.406507      286160
 w1_copy                                 8.171129     1694385
 overl                                   8.152750      983682
 rpromu_acc                              7.654049      216176
 map_scatter                             7.406947        4953
 m_bcast_z                               7.348550      290720
 map_gather                              6.586999        4953
 fftext_mpi                              6.564691      564795
 w1_projall                              6.409330      212432
 m_alltoallv_z                           5.763118        4953
 setup_precond                           5.398646      145920
 pw_charge                               5.300667      109432
 ggemm                                   5.107862      359888
 m_bcast_d                               4.855116      572577
 overl_mu                                4.513639      286160
 brmix                                   3.194195         124
 strnlr                                  3.103879           1
 rpro_isp                                2.839544          78
 vhamil                                  2.618060      564795
 depsum                                  2.490757         125
 potlok                                  2.481800         126
 acc_init_cublas                         2.431903           1
 fordep                                  2.375394           1
 apply_precond                           2.290878      418875
 broyd                                   2.079335         124
 fornlr                                  1.032767           1
 fft_gq                                  0.933169         125
 acc_init_cusolver                       0.791967           1
 sphpro_fast                             0.696801           2
 rspher_all                              0.616097          14
 setg0                                   0.452799         126
 brget                                   0.435988       24512
 orthch                                  0.435540           1
 proall                                  0.332637           1
 stufak                                  0.128182           1
 brsav                                   0.119429        6822
 acc_cufft_makeplans                     0.108982           3
 acc_cufft_makeplan                      0.108972          19
 lincom                                  0.103404        1548
 truncate_high_frequency_w1              0.057891      710715
 pothar                                  0.020588         127
 choleski                                0.013825          12
 brpre                                   0.011077         248
 fewald                                  0.010456           1
 forhar                                  0.008862           2
 rsp                                     0.008059           1
 strelo                                  0.006088           1
 strehar                                 0.004783           1
 strkin                                  0.004752           1
 forloc                                  0.004676           1
 inisym                                  0.004369           1
 chggra                                  0.001314           1
 brgrid                                  0.000615           1
 set_dd_magatom                          0.000559         126
 vectorpot                               0.000499         125
 rcp                                     0.000203           1
 posmap                                  0.000029           2
 crpa_reader                             0.000027           1
 potlok_metagga                          0.000011         125
 rotate_active_occupied_orbital          0.000000           1
 redis_pw_over_bands                     0.000000           1

Profiling took   3.571853  1.728346  0.003241  0.003124 seconds
Profiling took   2.290690 seconds