 vasp.6.3.2 27Jun22 (build Jul  3 2023 11:46:21) complex
 executed on    LinuxNV_CrayMPICH date 2024.05.14  19:35:41

 INCAR:
   ADDGRID = True
   ALGO = Normal
   EDIFF = 0.0012
   ENCUT = 520.0
   IBRION = -1
   ICHARG = 0
   ISIF = 3
   ISMEAR = -5
   ISPIN = 2
   KPOINT_BSE = -1 0 0 0
   LAECHG = True
   LASPH = True
   LCHARG = True
   LELF = True
   LORBIT = 11
   LREAL = Auto
   LVHAR = True
   LWAVE = False
   MAGMOM = 4*7.0 4*5.0 16*0.6
   NUPDOWN = 10
   NELM = 1000
   NSW = 0
   PREC = accurate
   SIGMA = 0.05

 POTCAR:    PAW_PBE Gd 23Dec2003
 POTCAR:    PAW_PBE Mn_pv 02Aug2007
 POTCAR:    PAW_PBE B 06Sep2000
 POTCAR:    PAW_PBE Gd 23Dec2003
   VRHFIN =Gd : [core=Xe4]

   TITEL  = PAW_PBE Gd 23Dec2003
   POMASS =  157.250; ZVAL   =   18.000    mass and valenz
   ENMAX  =  256.472; ENMIN  =  192.354 eV

   TITEL  = PAW_PBE Mn_pv 02Aug2007
   POMASS =   54.938; ZVAL   =   13.000    mass and valenz
   ENMAX  =  269.864; ENMIN  =  202.398 eV

   TITEL  = PAW_PBE B 06Sep2000
   POMASS =   10.811; ZVAL   =    3.000    mass and valenz
   ENMAX  =  318.614; ENMIN  =  238.960 eV

 Optimization of the real space projectors (new method)

 maximal supplied QI-value         = 13.42
 optimisation between [QCUT,QGAM] = [ 11.67, 23.35] = [ 38.16,152.62] Ry
 Optimized for a Real-space Cutoff    1.63 Angstroem

   l    n(q)    QCUT    max X(q) W(low)/X(q) W(high)/X(q)  e(spline)
   0     11    11.673    10.501    0.14E-04    0.17E-05    0.21E-07
   0     11    11.673     9.148    0.21E-04    0.32E-05    0.45E-07
   1     11    11.673     4.035    0.33E-05    0.11E-04    0.84E-07
   1     11    11.673     4.388    0.11E-04    0.47E-04    0.34E-06
   2     10    11.673    20.656    0.12E-04    0.28E-04    0.54E-06
   2     10    11.673    12.651    0.11E-04    0.26E-04    0.51E-06
   3     10    11.673    61.921    0.19E-03    0.22E-03    0.23E-06
   3     10    11.673    48.328    0.20E-03    0.23E-03    0.23E-06
 Optimization of the real space projectors (new method)

[...]

   l    n(q)    QCUT    max X(q) W(low)/X(q) W(high)/X(q)  e(spline)
   1     10    11.539     3.658    0.56E-04    0.12E-03    0.13E-06
   1     10    11.539     5.612    0.11E-03    0.23E-03    0.24E-06
   2      9    11.539    55.373    0.45E-04    0.92E-04    0.22E-06
   2      9    11.539    50.863    0.47E-04    0.95E-04    0.22E-06
   0     10    11.539    79.536    0.46E-04    0.27E-04    0.11E-06
   0     10    11.539    38.668    0.38E-04    0.25E-04    0.10E-06
 Optimization of the real space projectors (new method)

 maximal supplied QI-value         = 22.11
 optimisation between [QCUT,QGAM] = [ 11.50, 23.22] = [ 37.02,150.92] Ry
 Optimized for a Real-space Cutoff    1.21 Angstroem

   l    n(q)    QCUT    max X(q) W(low)/X(q) W(high)/X(q)  e(spline)
   0      8    11.497    53.033    0.18E-03    0.30E-03    0.10E-06
   0      8    11.497    34.740    0.17E-03    0.29E-03    0.10E-06
   1      8    11.497    30.949    0.20E-03    0.12E-03    0.21E-06
   1      8    11.497    19.518    0.18E-03    0.11E-03    0.19E-06
  PAW_PBE Gd 23Dec2003                  :
  PAW_PBE Mn_pv 02Aug2007               :
  PAW_PBE B 06Sep2000                   :

 POSCAR: Gd4 Mn4 B16
  positions in direct lattice
 exchange correlation table for  LEXCH =        8
   RHO(1)=    0.500       N(1)  =     2000
   RHO(2)=  100.500       N(2)  =     4000

 VTST: version 4.2, (08/11/21)

 CHAIN: initializing optimizer

 OPT: Using VASP Dynamics algorithm
 CHAIN: Read ICHAIN             0

 POSCAR: Gd4 Mn4 B16
  positions in direct lattice

 ion  position               nearest neighbor table
   1  0.000  0.874  0.850-  12 2.61  12 2.61  13 2.66  13 2.66  19 2.69  19 2.69  23 2.70  23 2.70
                            21 2.71  21 2.71   9 2.72   9 2.72  10 2.73  10 2.73   8 3.05   5 3.05
   2  0.000  0.374  0.650-  18 2.61  18 2.61  10 2.66  10 2.66  16 2.69  16 2.69   9 2.70   9 2.70
                            17 2.71  17 2.71  23 2.72  23 2.72  13 2.73  13 2.73   5 3.05   8 3.05
   3  0.000  0.126  0.150-  20 2.61  20 2.61  14 2.66  14 2.66  21 2.69  21 2.69  11 2.70  11 2.70
                            19 2.71  19 2.71  24 2.72  24 2.72  15 2.73  15 2.73   7 3.05   6 3.05
   4  0.000  0.626  0.350-  22 2.61  22 2.61  15 2.66  15 2.66  17 2.69  17 2.69  24 2.70  24 2.70
                            16 2.71  16 2.71  11 2.72  11 2.72  14 2.73  14 2.73   6 3.05   7 3.05
   5  0.000  0.372  0.916-  23 2.25  23 2.25  12 2.27  12 2.27  20 2.28  20 2.28  19 2.28  19 2.28
                            10 2.29  10 2.29   6 2.46   2 3.05   1 3.05   3 3.06   1 3.08
   6  0.000  0.628  0.084-  11 2.25  11 2.25  20 2.27  20 2.27  12 2.28  12 2.28  21 2.28  21 2.28
                            15 2.29  15 2.29   5 2.46   4 3.05   3 3.05   1 3.06   3 3.08
   7  0.000  0.128  0.416-  24 2.25  24 2.25  22 2.27  22 2.27  18 2.28  18 2.28  17 2.28  17 2.28
                            14 2.29  14 2.29   8 2.46   3 3.05   4 3.05   2 3.06   4 3.08
   8  0.000  0.872  0.584-   9 2.25   9 2.25  18 2.27  18 2.27  22 2.28  22 2.28  16 2.28  16 2.28
                            13 2.29  13 2.29   7 2.46   1 3.05   2 3.05   4 3.06   2 3.08
   9  0.500  0.720  0.684-  16 1.80  13 1.81  10 1.86   8 2.25   8 2.25   2 2.70   2 2.70   1 2.72
                             1 2.72
  10  0.500  0.524  0.810-  12 1.73  23 1.81   9 1.86   5 2.29   5 2.29   2 2.66   2 2.66   1 2.73
                             1 2.73
  11  0.500  0.780  0.184-  21 1.80  15 1.81  14 1.86   6 2.25   6 2.25   3 2.70   3 2.70   4 2.72
                             4 2.72
  12  0.500  0.612  0.954-  20 1.69  21 1.73  10 1.73   5 2.27   5 2.27   6 2.28   6 2.28   1 2.61
                             1 2.61
  13  0.500  0.024  0.690-  18 1.73   9 1.81  23 1.86   8 2.29   8 2.29   1 2.66   1 2.66   2 2.73
                             2 2.73
  14  0.500  0.976  0.310-  22 1.73  24 1.81  11 1.86   7 2.29   7 2.29   3 2.66   3 2.66   4 2.73
                             4 2.73
  15  0.500  0.476  0.190-  20 1.73  11 1.81  24 1.86   6 2.29   6 2.29   4 2.66   4 2.66   3 2.73
                             3 2.73
  16  0.500  0.639  0.532-  22 1.73   9 1.80  17 1.81   8 2.28   8 2.28   2 2.69   2 2.69   4 2.71
                             4 2.71
  17  0.500  0.361  0.468-  18 1.73  24 1.80  16 1.81   7 2.28   7 2.28   4 2.69   4 2.69   2 2.71
                             2 2.71
  18  0.500  0.112  0.546-  22 1.69  17 1.73  13 1.73   8 2.27   8 2.27   7 2.28   7 2.28   2 2.61
                             2 2.61
  19  0.500  0.139  0.968-  20 1.73  23 1.80  21 1.81   5 2.28   5 2.28   1 2.69   1 2.69   3 2.71
                             3 2.71
  20  0.500  0.388  0.046-  12 1.69  19 1.73  15 1.73   6 2.27   6 2.27   5 2.28   5 2.28   3 2.61
                             3 2.61
  21  0.500  0.861  0.032-  12 1.73  11 1.80  19 1.81   6 2.28   6 2.28   3 2.69   3 2.69   1 2.71
                             1 2.71
  22  0.500  0.888  0.454-  18 1.69  16 1.73  14 1.73   7 2.27   7 2.27   8 2.28   8 2.28   4 2.61
                             4 2.61
  23  0.500  0.220  0.816-  19 1.80  10 1.81  13 1.86   5 2.25   5 2.25   1 2.70   1 2.70   2 2.72
                             2 2.72
  24  0.500  0.280  0.316-  17 1.80  14 1.81  15 1.86   7 2.25   7 2.25   4 2.70   4 2.70   3 2.72
                             3 2.72

  LATTYP: Found a simple orthorhombic cell.
 ALAT       =     3.4287560000
 B/A-ratio  =     1.7308997782
 C/A-ratio  =     3.3469220324

  Lattice vectors:

 A1 = (   3.4287560000,   0.0000000000,   0.0000000000)
 A2 = (   0.0000000000,   5.9348330000,   0.0000000000)
 A3 = (   0.0000000000,   0.0000000000,  11.4757790000)

Analysis of symmetry for initial positions (statically):
 Subroutine PRICEL returns:
 Original cell was already a primitive cell.

 Routine SETGRP: Setting up the symmetry group for a
 simple orthorhombic supercell.

 Subroutine GETGRP returns: Found  8 space group operations
 (whereof  4 operations were pure point group operations)
 out of a pool of  8 trial point group operations.

The static configuration has the point symmetry C_2h.
 The point group associated with its full space group is D_2h.

Analysis of symmetry for dynamics (positions and initial velocities):
 Subroutine PRICEL returns:
 Original cell was already a primitive cell.

[...]

The dynamic configuration has the point symmetry C_2h.
 The point group associated with its full space group is D_2h.

Analysis of structural, dynamic, and magnetic symmetry:
 Subroutine PRICEL returns:
 Original cell was already a primitive cell.

 Routine SETGRP: Setting up the symmetry group for a
 simple orthorhombic supercell.

 Subroutine GETGRP returns: Found  8 space group operations
 (whereof  4 operations were pure point group operations)
 out of a pool of  8 trial point group operations.

The overall configuration has the point symmetry C_2h.
 The point group associated with its full space group is D_2h.

 Subroutine INISYM returns: Found  8 space group operations
 (whereof  4 operations are pure point group operations),
 and found     1 'primitive' translations

                                     Primitive cell

  volume of cell :     233.5217

  direct lattice vectors                    reciprocal lattice vectors
     3.428756000  0.000000000  0.000000000     0.291650966  0.000000000  0.000000000
     0.000000000  5.934833000  0.000000000     0.000000000  0.168496738  0.000000000
     0.000000000  0.000000000 11.475779000     0.000000000  0.000000000  0.087140054

  length of vectors
     3.428756000  5.934833000 11.475779000     0.291650966  0.168496738  0.087140054

  position of ions in fractional coordinates (direct lattice)
     0.000000000  0.874421000  0.849655000
     0.000000000  0.374421000  0.650345000
     0.000000000  0.125579000  0.150345000
     0.000000000  0.625579000  0.349655000
     0.000000000  0.372120000  0.915873000
     0.000000000  0.627880000  0.084127000
     0.000000000  0.127880000  0.415873000
     0.000000000  0.872120000  0.584127000
     0.500000000  0.719950000  0.683516000
     0.500000000  0.524346000  0.809903000
     0.500000000  0.780050000  0.183516000
     0.500000000  0.611588000  0.954045000
     0.500000000  0.024346000  0.690097000
     0.500000000  0.975654000  0.309903000
     0.500000000  0.475654000  0.190097000
     0.500000000  0.639137000  0.532485000
     0.500000000  0.360863000  0.467515000
     0.500000000  0.111588000  0.545955000
     0.500000000  0.139137000  0.967515000
     0.500000000  0.388412000  0.045955000
     0.500000000  0.860863000  0.032485000
     0.500000000  0.888412000  0.454045000
     0.500000000  0.219950000  0.816484000
     0.500000000  0.280050000  0.316484000

  ion indices of the primitive-cell ions
   primitive index   ion index
                 1           1
                 2           2
                 3           3
                 4           4
                 5           5
                 6           6
                 7           7
                 8           8
                 9           9
                10          10
                11          11
                12          12
                13          13
                14          14
[...]
  318                map_forward                           0.000189                    4   7
  319                  map_gather                            0.000042                  2   8
  320                  m_alltoallv_z                         0.000027                  2   8
  321                  map_scatter                           0.000090                  2   8
  322                map_backward                          0.000085                    2   7
  323                  map_gather                            0.000020                  1   8
  324                  m_alltoallv_z                         0.000012                  1   8
  325                  map_scatter                           0.000036                  1   8
  326          m_sumb_d                              0.000009                          2   4
  327          pothar                                0.000084                          1   4
  328            m_sumb_d                              0.000013                        1   5
  329        brmix                                 0.007320                            1   3
  330          m_sumb_d                              0.000034                          6   4
  331          brpre                                 0.000022                          2   4
  332          setg0                                 0.000833                          1   4
  333          broyd                                 0.005445                          1   4
  334            m_sumb_d                              0.000750                       51   5
  335            brget                                 0.000992                      229   5
  336            brsav                                 0.000211                       49   5
  337        m_bcast_d                             0.000032                            2   3
  338      potlok                                0.030689                              2   2
  339        fft3d_mpi                             0.019779                           36   3
  340          fftbrc_mpi                            0.016712                         36   4
  341            fftbas_plan_mpi                       0.016697                       36   5
  342              map_forward                           0.004638                     40   6
  343                map_gather                            0.001605                   24   7
  344                m_alltoallv_z                         0.001552                   24   7
  345                map_scatter                           0.001290                   24   7
  346              map_backward                          0.004074                     32   6
  347                map_gather                            0.001319                   16   7
  348                m_alltoallv_z                         0.001360                   16   7
  349                map_scatter                           0.001193                   16   7
  350              dfftw_execute                         0.006291                     30   6
  351        m_sumb_d                              0.000026                            5   3
  352        pothar                                0.001210                            2   3
  353          m_sumb_d                              0.000087                          2   4
  354        m_bcast_d                             0.001998                            4   3
  355      potlok_metagga                        0.000000                              1   2
  356      set_dd_magatom                        0.000005                              1   2
  357      set_dd_paw                            2.201226                              1   2
  358        m_sumb_d                              0.003713                            7   3
  359      augmentation_charge                   0.127342                              1   2
  360        fft3d_mpi                             0.036247                            2   3
  361          fftbrc_mpi                            0.033079                          2   4
  362            fftbas_plan_mpi                       0.033077                        2   5
  363              dfftw_execute                         0.022375                      6   6
  364              map_backward                          0.010348                      4   6
  365                map_gather                            0.002286                    2   7
  366                m_alltoallv_z                         0.004762                    2   7
  367                map_scatter                           0.003291                    2   7
  368      fftwav_mpi                            5.113284                           5940   2
  369        fftwav                                5.105880                         5940   3
  370          fft3d                                 4.880671                       5940   4
  371      densta                               11.251089                              1   2

 Flat profile

 set_dd_paw                            300.793225         137
 eddav                                 265.156030         139
 raccmu_                               249.089590      529839
 lapack                                240.510560      529839
 m_sumb_d                              193.098564     1610205
 redis_pw                              113.580973     2802951
 m_alltoall_d                           51.794418     7428319
 densta                                 38.988252         140
 phaser                                 35.778981        8730
 fft3d                                  28.129233     2997725
 eccp                                   27.367172      275220
 redis_proj                             24.027782     3548248
 fftwav                                 18.733376     1977268
 orth1                                  17.020993     1589817
 racc0mu_acc                            15.436080      529839
 w1_copy                                15.017942     3061371
 hamiltmu                               14.958357      529839
 overl                                  14.369278     1765754
 setdij_                                13.675190         163
 rpromu_acc                             12.679429      395079
 init_acc                               12.562099           1
 augmentation_charge                    12.393036         137
 total_time                             12.381590           1
 m_bcast_z                              11.783658      537759
 soft_charge                            11.229181         136
 setup_precond                          10.039889      275220
 m_bcast_d                               8.508673     1059957
 overl_mu                                8.188279      529839
 dfftw_execute                           7.708016        3732
 ggemm                                   7.159811      671619
 pw_charge                               5.377733      179894
 vhamil                                  4.719666     1020457
 kinhamil                                4.672331     1020457
 depsum                                  4.407928         136
 fftext_mpi                              4.291765     1020457
 newband                                 4.201708      538179
 apply_precond                           4.142671      745237
 fftwav_mpi                              2.644243     1977268
 m_alltoallv_z                           2.100688        5371
 fft3d_mpi                               1.599530     1025262
 rpro_isp                                1.298093         390
 map_scatter                             1.092343        5371
 set_charge                              1.003301         136
 map_gather                              0.938113        5371
 acc_init_cublas                         0.603150           1
 potlok                                  0.513455         137
 w1_projall                              0.423700      388059
 sphpro_fast                             0.378077           2
 broyd                                   0.368006         135
 elmin                                   0.312890           1
 lincom                                  0.300570        8400
 fftbas_plan_mpi                         0.280478        4805
 rspher_all                              0.261402          14
 brmix                                   0.148054         135
 brget                                   0.116956       27165
 setg0                                   0.116180         137
 truncate_high_frequency_w1              0.102684     1295677
 proall                                  0.078915           1
 acc_cufft_makeplan                      0.072625          19
 acc_init_cusolver                       0.063603           1
 orthch                                  0.042405           1
 brsav                                   0.031145        7577
 map_backward                            0.030602        5066
 map_forward                             0.026476        4544
 force_and_stress                        0.023461           1
 choleski                                0.017552          60
 pothar                                  0.011406         138
 strnlr                                  0.010893           1
 stufak                                  0.010292           1
 fft_gq                                  0.008060         136
 inisym                                  0.004224           1
 fornlr                                  0.003747           1
 brpre                                   0.003279         270
 fftbrc_mpi                              0.002760        4805
 forhar                                  0.001864           2
 strelo                                  0.001831           1
 strkin                                  0.001515           1
 strehar                                 0.001263           1
 forloc                                  0.000989           1
 rsp                                     0.000941           1
 set_dd_magatom                          0.000654         137
 vectorpot                               0.000583         136
 fewald                                  0.000356           1
 chggra                                  0.000233           1
 brgrid                                  0.000190           1
 fordep                                  0.000115           1
 crpa_reader                             0.000067           1
 posmap                                  0.000061           2
 rcp                                     0.000033           1
 potlok_metagga                          0.000008         136
 acc_cufft_makeplans                     0.000008           3
 rotate_active_occupied_orbital          0.000000           1
 redis_pw_over_bands                     0.000000           1
  summed up times     1839.027528047562

 Accumulative profile

 total_time                           1839.027528           1
 elmin                                1779.561525           1
 eddav                                1390.404871         139
 hamiltmu                              308.897727      529839
 set_dd_paw                            301.168368         137
 raccmu_                               272.713948      529839
 lapack                                240.510560      529839
 m_sumb_d                              193.098564     1610205
 redis_pw                              139.224939     2802951
 newband                                62.589040      538179
 m_alltoall_d                           51.794418     7428319
 redis_proj                             50.178234     3548248
 set_charge                             46.927809         136
 fftwav_mpi                             42.277072     1977268
 fftwav                                 39.632829     1977268
 densta                                 38.988252         140
 phaser                                 35.778981        8730
 fft3d                                  28.129233     2997725
 eccp                                   27.367172      275220
 soft_charge                            23.828957         136
 fft3d_mpi                              21.008786     1025262
 setdij_                                20.651442         163
 augmentation_charge                    17.609725         137
 orth1                                  17.020993     1589817
 kinhamil                               16.505757     1020457
 racc0mu_acc                            15.436080      529839
 w1_copy                                15.017942     3061371
 overl                                  14.369278     1765754
 rpromu_acc                             12.679429      395079
 init_acc                               12.562099           1
 fftbrc_mpi                             12.179476        4805
 fftbas_plan_mpi                        12.176717        4805
 fftext_mpi                             11.833426     1020457
 m_bcast_z                              11.783658      537759
 w1_projall                             11.592626      388059
 force_and_stress                       11.162906           1
 setup_precond                          10.039889      275220
 m_bcast_d                               8.508673     1059957
 overl_mu                                8.188279      529839
 dfftw_execute                           7.708016        3732
 ggemm                                   7.159811      671619
 pw_charge                               5.377733      179894
 vhamil                                  4.719666     1020457
 depsum                                  4.443901         136
 apply_precond                           4.142671      745237
 strnlr                                  3.938964           1
 rpro_isp                                3.586162         390
 map_backward                            2.274307        5066
 m_alltoallv_z                           2.100688        5371
 map_forward                             1.913914        4544
 fornlr                                  1.314605           1
 potlok                                  1.256771         137
 map_scatter                             1.092343        5371
 map_gather                              0.938113        5371
 brmix                                   0.860686         135
 fordep                                  0.768731           1
 acc_init_cublas                         0.603150           1
 broyd                                   0.584511         135
 orthch                                  0.397920           1
 sphpro_fast                             0.393406           2
 lincom                                  0.300570        8400
 proall                                  0.298016           1
 rspher_all                              0.261402          14
 fft_gq                                  0.239684         136
 brget                                   0.116956       27165
 setg0                                   0.116180         137
 truncate_high_frequency_w1              0.102684     1295677
 acc_cufft_makeplans                     0.072633           3
 acc_cufft_makeplan                      0.072625          19
 acc_init_cusolver                       0.063603           1
 brsav                                   0.031145        7577
 choleski                                0.017552          60
 pothar                                  0.012539         138
 stufak                                  0.010292           1
 inisym                                  0.004285           1
 brpre                                   0.003279         270
 strelo                                  0.001951           1
 forhar                                  0.001905           2
 strkin                                  0.001527           1
 fewald                                  0.001412           1
 strehar                                 0.001267           1
 forloc                                  0.001022           1
 rsp                                     0.000941           1
 chggra                                  0.000793           1
 set_dd_magatom                          0.000654         137
 vectorpot                               0.000583         136
 brgrid                                  0.000190           1
 crpa_reader                             0.000067           1
 posmap                                  0.000061           2
 rcp                                     0.000033           1
 potlok_metagga                          0.000008         136
 rotate_active_occupied_orbital          0.000000           1
 redis_pw_over_bands                     0.000000           1

Profiling took   6.405895  3.129878  0.003561  0.003475 seconds
Profiling took   4.190031 seconds