 vasp.6.3.2 27Jun22 (build Jul  3 2023 11:46:21) complex
 executed on    LinuxNV_CrayMPICH date 2024.04.22  03:39:10

 INCAR:
   ALGO = Fast
   EDIFF = 0.0013
   EFIELD_PEAD = 0.0 0.0 0.0
   ENCUT = 520.0
   IBRION = 2
   ICHARG = 1
   ISIF = 3
   ISMEAR = 0
   ISPIN = 2
   ISTART = 1
   LCALCEPS = False
   LCALCPOL = False
   LEFG = False
   LORBIT = 11
   LPEAD = False
   LREAL = Auto
   LWAVE = False
   MAGMOM = 2*7.0 24*0.6
   NELM = 1000
   NSW = 99
   PREC = accurate
   SIGMA = 0.2
   SYMPREC = 1e-08

 POTCAR:    PAW_PBE Eu 23Dec2003
 POTCAR:    PAW_PBE Sr_sv 07Sep2000
 POTCAR:    PAW_PBE Ga_d 06Jul2010
 POTCAR:    PAW_PBE Cu_pv 06Sep2000
 POTCAR:    PAW_PBE O 08Apr2002
 POTCAR:    PAW_PBE Eu 23Dec2003
   VRHFIN =Eu : [core=Kr4d]

   TITEL  = PAW_PBE Eu 23Dec2003
   POMASS =  151.965; ZVAL   =   17.000    mass and valenz
   ENMAX  =  249.668; ENMIN  =  187.251 eV

   TITEL  = PAW_PBE Sr_sv 07Sep2000
   POMASS =   87.620; ZVAL   =   10.000    mass and valenz
   ENMAX  =  229.353; ENMIN  =  172.014 eV

   TITEL  = PAW_PBE Ga_d 06Jul2010
   POMASS =   69.723; ZVAL   =   13.000    mass and valenz
   ENMAX  =  282.691; ENMIN  =  212.018 eV

   TITEL  = PAW_PBE Cu_pv 06Sep2000
   POMASS =   63.546; ZVAL   =   17.000    mass and valenz
   ENMAX  =  368.648; ENMIN  =  276.486 eV

   TITEL  = PAW_PBE O 08Apr2002
   POMASS =   16.000; ZVAL   =    6.000    mass and valenz
   ENMAX  =  400.000; ENMIN  =  300.000 eV

 Optimization of the real space projectors (new method)

 maximal supplied QI-value         = 13.42
 optimisation between [QCUT,QGAM] = [ 11.67, 23.35] = [ 38.16,152.62] Ry
 Optimized for a Real-space Cutoff    1.63 Angstroem

   l    n(q)    QCUT    max X(q) W(low)/X(q) W(high)/X(q)  e(spline)
   0     11    11.673    10.400    0.14E-04    0.18E-05    0.24E-07
   0     11    11.673    10.768    0.21E-04    0.32E-05    0.49E-07
   1     11    11.673     4.094    0.40E-05    0.13E-04    0.93E-07
   1     11    11.673     4.009    0.11E-04    0.46E-04    0.33E-06
   2     10    11.673    29.030    0.79E-04    0.60E-04    0.70E-06
   2     10    11.673    19.941    0.80E-04    0.60E-04    0.71E-06
   3     10    11.673    88.889    0.23E-03    0.29E-03    0.30E-06
   3     10    11.673    76.102    0.23E-03    0.30E-03    0.30E-06
 Optimization of the real space projectors (new method)

[...]

   l    n(q)    QCUT    max X(q) W(low)/X(q) W(high)/X(q)  e(spline)
   1      9    11.527     3.172    0.21E-04    0.38E-04    0.11E-06
   1      9    11.527     4.083    0.67E-04    0.79E-04    0.20E-06
   2      9    11.527    65.342    0.13E-03    0.28E-03    0.26E-06
   2      9    11.527    61.381    0.13E-03    0.29E-03    0.26E-06
   0      9    11.527    65.742    0.32E-04    0.21E-04    0.72E-07
   0      9    11.527    30.431    0.28E-04    0.19E-04    0.65E-07
 Optimization of the real space projectors (new method)

 maximal supplied QI-value         = 24.76
 optimisation between [QCUT,QGAM] = [ 11.64, 23.27] = [ 37.91,151.63] Ry
 Optimized for a Real-space Cutoff    1.14 Angstroem

   l    n(q)    QCUT    max X(q) W(low)/X(q) W(high)/X(q)  e(spline)
   0      8    11.635    20.381    0.10E-03    0.33E-03    0.24E-06
   0      8    11.635    15.268    0.11E-03    0.35E-03    0.26E-06
   1      7    11.635     5.964    0.24E-03    0.31E-03    0.30E-06
   1      7    11.635     5.382    0.22E-03    0.25E-03    0.26E-06
  PAW_PBE Eu 23Dec2003                  :
  PAW_PBE Sr_sv 07Sep2000               :
  PAW_PBE Ga_d 06Jul2010                :
  PAW_PBE Cu_pv 06Sep2000               :
  PAW_PBE O 08Apr2002                   :

 POSCAR: Sr4 Eu2 Ga2 Cu4 O14
  positions in direct lattice
 exchange correlation table for  LEXCH =        8
   RHO(1)=    0.500       N(1)  =     2000
   RHO(2)=  100.500       N(2)  =     4000

 VTST: version 4.2, (08/11/21)

 CHAIN: initializing optimizer

 OPT: Using VASP Conjugate-Gradient optimizer
 CHAIN: Read ICHAIN             0

 POSCAR: Sr4 Eu2 Ga2 Cu4 O14
  positions in direct lattice

 ion  position               nearest neighbor table
   1  0.502  0.500  0.999-  14 2.43  22 2.43  26 2.43  23 2.45  16 2.47  15 2.47  20 2.48  17 2.48
                             4 3.53   5 3.54
   2  0.002  1.000  1.000-  23 2.41  26 2.42  22 2.42  14 2.44  16 2.48  17 2.48  15 2.48  20 2.49
                             6 3.53   3 3.53
   3  0.152  0.166  0.303-  24 2.47  18 2.58  21 2.59  26 2.80  22 2.81  15 2.82  17 2.82  21 2.99
                            18 3.09   9 3.26  10 3.28  10 3.31   8 3.34   9 3.39   7 3.47   2 3.53
   4  0.349  0.364  0.697-  24 2.47  25 2.57  13 2.61  14 2.78  23 2.80  20 2.81  16 2.83  13 2.97
                            25 3.09  11 3.26  12 3.28  12 3.29   8 3.36  11 3.39   7 3.45   1 3.53
   5  0.653  0.638  0.302-  19 2.48  21 2.57  18 2.61  22 2.81  15 2.81  26 2.81  17 2.82  18 2.96
                            21 3.09  10 3.27   9 3.28   9 3.30   7 3.36  10 3.39   8 3.44   1 3.54
   6  0.852  0.833  0.697-  19 2.48  13 2.55  25 2.61  23 2.78  14 2.79  20 2.81  16 2.83  25 2.96
                            13 3.11  12 3.25  11 3.29  11 3.30   7 3.36  12 3.38   8 3.46   2 3.53
   7  0.717  0.178  0.501-  13 1.85  21 1.87  19 1.93  24 1.94   5 3.36   6 3.36   4 3.45   3 3.47
                             4 3.73   3 3.75   6 3.84   5 3.88
   8  0.215  0.824  0.498-  18 1.84  25 1.88  19 1.93  24 1.93   3 3.34   4 3.36   5 3.44   6 3.46
                             5 3.74   6 3.77   3 3.85   4 3.87
   9  0.076  0.572  0.144-  17 1.95  15 1.95  26 1.95  22 1.96   3 3.26   5 3.28   5 3.30   3 3.39

  10  0.576  0.071  0.144-  17 1.94  15 1.94  22 1.95  26 1.95   5 3.27   3 3.28   3 3.31   5 3.39

[...]

  13  0.858  0.360  0.648-   7 1.85   6 2.55   4 2.61   4 2.97   6 3.11
  14  0.687  0.686  0.873-  12 1.96  11 1.96   1 2.43   2 2.44   4 2.78   6 2.79
  15  0.818  0.814  0.132-  10 1.94   9 1.95   1 2.47   2 2.48   5 2.81   3 2.82
  16  0.687  0.185  0.868-  12 1.94  11 1.95   1 2.47   2 2.48   6 2.83   4 2.83
  17  0.319  0.817  0.132-  10 1.94   9 1.95   1 2.48   2 2.48   5 2.82   3 2.82
  18  0.211  0.644  0.352-   8 1.84   3 2.58   5 2.61   5 2.96   3 3.09
  19  0.863  0.860  0.500-   7 1.93   8 1.93   6 2.48   5 2.48
  20  0.186  0.185  0.867-  11 1.94  12 1.94   1 2.48   2 2.49   4 2.81   6 2.81
  21  0.714  0.212  0.353-   7 1.87   5 2.57   3 2.59   3 2.99   5 3.09
  22  0.316  0.311  0.124-  10 1.95   9 1.96   2 2.42   1 2.43   5 2.81   3 2.81
  23  0.187  0.690  0.874-  11 1.95  12 1.96   2 2.41   1 2.45   6 2.78   4 2.80
  24  0.362  0.143  0.500-   8 1.93   7 1.94   3 2.47   4 2.47
  25  0.360  0.790  0.647-   8 1.88   4 2.57   6 2.61   6 2.96   4 3.09
  26  0.815  0.312  0.124-  10 1.95   9 1.95   2 2.42   1 2.43   3 2.80   5 2.81

  LATTYP: Found a triclinic cell.
 ALAT       =    14.5040509833
 B/A-ratio  =     0.3755376717
 C/A-ratio  =     0.3810010995
 COS(alpha) =     0.0004808155
 COS(beta)  =     0.1886803726
 COS(gamma) =     0.5630073077

  Lattice vectors:

 A1 = (   5.5531750600,  -5.4135300900, -12.2565669600)
 A2 = (   5.3075646200,  -0.0009633200,  -1.2237557600)
 A3 = (   0.2949149800,  -5.3697017000,   1.2714798400)

Analysis of symmetry for initial positions (statically):
 Subroutine PRICEL returns:
 Original cell was already a primitive cell.

 Routine SETGRP: Setting up the symmetry group for a
 triclinic supercell.

 Subroutine GETGRP returns: Found  1 space group operations
 (whereof  1 operations were pure point group operations)
 out of a pool of  2 trial point group operations.

The static configuration has the point symmetry C_1 .

Analysis of symmetry for dynamics (positions and initial velocities):
 Subroutine PRICEL returns:
 Original cell was already a primitive cell.

[...]

The dynamic configuration has the point symmetry C_1 .

Analysis of structural, dynamic, and magnetic symmetry:
 Subroutine PRICEL returns:
 Original cell was already a primitive cell.

 Routine SETGRP: Setting up the symmetry group for a
 triclinic supercell.

 Subroutine GETGRP returns: Found  1 space group operations
 (whereof  1 operations were pure point group operations)
 out of a pool of  2 trial point group operations.

The overall configuration has the point symmetry C_1 .

 Subroutine INISYM returns: Found  1 space group operations
 (whereof  1 operations are pure point group operations),
 and found     1 'primitive' translations

                                     Primitive cell

  volume of cell :     351.2981

  direct lattice vectors                    reciprocal lattice vectors
     5.307564620 -0.000963320 -1.223755760     0.188230111  0.010151009 -0.000789621
    -0.294914980  5.369701700 -1.271479840    -0.000115581  0.186070355 -0.000647759
     0.049304540  0.042865070 12.304291040     0.018708979  0.020237416  0.081126989

  length of vectors
     5.446817537  5.526059371 12.304464489     0.188505281  0.186071518  0.085680612

  position of ions in fractional coordinates (direct lattice)
     0.502039060  0.500106160  0.999410940
     0.002095650  0.999645850  0.999874710
     0.152022500  0.165624910  0.302504740
     0.349404190  0.363777630  0.696978920
     0.652900790  0.638434290  0.302294140
     0.851906080  0.833255900  0.697304490
     0.716827310  0.177622800  0.500930630
     0.215061230  0.823830720  0.498248590
     0.075799560  0.571766960  0.144018080
     0.575793040  0.071122070  0.143694610
     0.429513180  0.929330330  0.855720290
     0.929083150  0.427028240  0.854148290
     0.858319170  0.359855270  0.647531140
     0.687209040  0.685903120  0.873096190
     0.818134380  0.814368850  0.132029050
     0.686719920  0.184899110  0.868291560
     0.319047400  0.816959250  0.132037210
     0.210891380  0.643532530  0.352358830
     0.862839900  0.859982420  0.500283240
     0.185906000  0.184844750  0.866855000
     0.714277560  0.212338680  0.352983490
     0.315813540  0.310585860  0.124306890
     0.186893540  0.690059730  0.874010580
     0.362364100  0.143437530  0.499568210
     0.359691300  0.790022330  0.647243560
     0.815338030  0.311893730  0.124208650

  ion indices of the primitive-cell ions
   primitive index   ion index
                 1           1
                 2           2
                 3           3
                 4           4
                 5           5
                 6           6
                 7           7
                 8           8
                 9           9
                10          10
                11          11
                12          12
                13          13
                14          14
                15          15
                16          16
                17          17
                18          18
                19          19
                20          20
                21          21
                22          22
                23          23
                24          24
                25          25
                26          26

 KPOINTS: Kpoints from vasprun.xml

Automatic generation of k-mesh.
 Grid dimensions read from file:
 generate k-points for:    4    4    4

 Generating k-lattice:

  Cartesian coordinates                     Fractional coordinates (reciprocal lattice)
[...]
  323          m_sumb_d                              0.000191                         24   4
  324          brpre                                 0.000135                          8   4
  325          setg0                                 0.004913                          4   4
  326          broyd                                 0.018412                          4   4
  327            m_sumb_d                              0.002256                      144   5
  328            brget                                 0.004028                      616   5
  329            brsav                                 0.000869                      136   5
  330        m_bcast_d                             0.000102                            8   3
  331      potlok                                0.028142                              4   2
  332        fft3d_mpi                             0.017971                          104   3
  333          fftbrc_mpi                            0.014111                        104   4
  334            fftbas_plan_mpi                       0.014061                      104   5
  335              map_forward                           0.006172                    112   6
  336                map_gather                            0.001434                   64   7
  337                m_alltoallv_z                         0.000749                   64   7
  338                map_scatter                           0.003214                   64   7
  339              map_backward                          0.004840                     96   6
  340                map_gather                            0.001197                   48   7
  341                m_alltoallv_z                         0.000564                   48   7
  342                map_scatter                           0.002321                   48   7
  343        m_sumb_d                              0.000103                           20   3
  344        pothar                                0.000368                            4   3
  345          m_sumb_d                              0.000039                          4   4
  346        m_bcast_d                             0.000101                            8   3
  347      potlok_metagga                        0.000001                              4   2
  348      set_dd_magatom                        0.000014                              4   2
  349      set_dd_paw                            0.094916                              4   2
  350        m_sumb_d                              0.013554                           28   3
  351      wavpre_noio                           0.252916                              3   2
  352        stufak                                0.044063                            3   3
  353      densta                                0.024895                              1   2
  354        m_sumb_d                              0.001611                           41   3

 Flat profile

 eccp                                  123.939206     1468555
 raccmu_                               109.251903      249997
 w1_gemv                                65.414273     2748992
 i2                                     65.391072      211453
 eccp_nl                                63.142038     1135243
 redis_pw                               42.541815      322656
 phaser                                 38.627455        9600
 eddrmm                                 37.465463         116
 m_sumb_d                               30.597034      143815
 cnorma                                 30.479679     1135243
 eddiag                                 28.723695         116
 m_alltoall_d                           23.684485     4044768
 overl1                                 22.842549     1374496
 fft3d                                  22.303924     3187336
 fftwav                                 20.990333     1974915
 eddav                                  19.799375           8
 lapack                                 17.073022       38544
 rpromu_acc                             16.647330      275853
 hamilt_local                           15.547475      311808
 w1_dscal                               14.520912     2358631
 w1_copy                                14.379755     2701839
 soft_charge                            13.421990         120
 init_acc                               12.366530           1
 setup_precond                          11.788367      333312
 apply_precond                          10.945245     2392107
 w1_gaxpy                               10.403658     2024760
 total_time                              9.378244           1
 w1_daxpy                                9.088339     1646960
 w1_dot                                  8.907422      311763
 racc0mu_acc                             8.787220      249997
 newband                                 8.749438      257933
 hamiltmu                                8.448833      249997
 pw_charge                               8.290579      255371
 rpro_isp                                7.246260        1664
 redis_proj                              6.553381      311680
 depsum                                  5.248243         120
 kinhamil                                5.181284     1212421
 vhamil                                  5.062676     1212421
 fftext_mpi                              4.834990     1212421
 zhegv                                   4.187025      511717
 overl_mu                                3.844357      249997
 orth1                                   3.549504      206256
 fftwav_mpi                              2.743157     1974915
 choleski                                2.661958        7680
 set_dd_paw                              2.584368         128
 acc_init_cublas                         2.458797           1
 i3                                      2.108052      211453
 setdij_                                 2.105759         229
 m_bcast_z                               1.623240       49296
 orthch                                  1.442796         120
 overl                                   1.260171      147776
 augmentation_charge                     1.224632         120
 rspher_all                              0.944817          53
 acc_init_cusolver                       0.794643           1
 sphpro_fast                             0.675338           5
 fft3d_mpi                               0.662899     1216233
 m_bcast_d                               0.640615       77353
 ggemm                                   0.598259       49296
 potlok                                  0.562608         124
 elmin                                   0.532481           4
 lincom                                  0.447426       15616
 proall                                  0.356764           4
 m_alltoallv_z                           0.334938        4300
 dfftw_execute                           0.320502        1464
 densta                                  0.304489         125
 map_scatter                             0.258349        4300
 i1                                      0.245524      211453
 w1_projall                              0.211675      239245
 wavpre_noio                             0.208853           3
 map_gather                              0.206702        4300
 brmix                                   0.164637         120
 broyd                                   0.154834         120
 force_and_stress                        0.152694           4
 fftbas_plan_mpi                         0.151051        3812
 setg0                                   0.148215         128
 acc_cufft_makeplan                      0.122551          19
 truncate_high_frequency_w1              0.094521     1233925
 brget                                   0.065741       10751
 stufak                                  0.059558           4
 strnlr                                  0.050325           4
 set_charge                              0.039477         120
 map_forward                             0.025625        3584
 map_backward                            0.025385        4040
 fornlr                                  0.017896           4
 brsav                                   0.015826        2560
 forhar                                  0.012652           8
 fft_gq                                  0.011548         120
 strkin                                  0.011232           4
 pothar                                  0.010427         128
 strelo                                  0.009149           4
 strehar                                 0.006865           4
 forloc                                  0.006365           4
 inisym                                  0.004266           1
 brpre                                   0.004029         240
 rsp                                     0.003243           4
 fftbrc_mpi                              0.001898        3812
 shift_bands_between_low_high            0.001040        7424
 chggra                                  0.000931           4
 vectorpot                               0.000518         121
 set_dd_magatom                          0.000515         128
 fewald                                  0.000366           4
 fordep                                  0.000330           4
 brgrid                                  0.000236           1
 rcp                                     0.000150           4
 crpa_reader                             0.000027           1
 posmap                                  0.000016           2
 potlok_metagga                          0.000015         124
 acc_cufft_makeplans                     0.000010           3
 rotate_active_occupied_orbital          0.000001           4
 redis_pw_over_bands                     0.000001           4
  summed up times     1019.540355920792

 Accumulative profile

 total_time                           1019.540356           1
 elmin                                 959.930398           4
 eddrmm                                686.658927         116
 i3                                    211.635235      211453
 i2                                    210.094290      211453
 hamiltmu                              147.934511      249997
 eccp                                  123.939206     1468555
 raccmu_                               121.883480      249997
 eddav                                 103.331754           8
 cnorma                                 93.621717     1135243
 eddiag                                 91.290019         116
 w1_gemv                                88.256822     2748992
 eccp_nl                                63.142038     1135243
 newband                                60.083122      257933
 redis_pw                               53.471354      322656
 phaser                                 38.627455        9600
 fftwav_mpi                             38.145443     1974915
 orthch                                 37.538808         120
 set_charge                             37.451395         120
 fftwav                                 35.402286     1974915
 m_sumb_d                               30.597034      143815
 soft_charge                            30.315883         120
 force_and_stress                       29.151411           4
 m_alltoall_d                           23.684485     4044768
 overl1                                 22.842549     1374496
 fft3d                                  22.303924     3187336
 hamilt_local                           21.273845      311808
 strnlr                                 19.931736           4
 rpro_isp                               19.923523        1664
 redis_proj                             19.308327      311680
 kinhamil                               18.265892     1212421
 lapack                                 17.073022       38544
 rpromu_acc                             16.647330      275853
 w1_dscal                               14.520912     2358631
 w1_copy                                14.379755     2701839
 fftext_mpi                             13.084608     1212421
 init_acc                               12.366530           1
 setup_precond                          11.788367      333312
 apply_precond                          10.945245     2392107
 w1_gaxpy                               10.403658     2024760
 fft3d_mpi                               9.879321     1216233
 w1_daxpy                                9.088339     1646960
 w1_dot                                  8.907422      311763
 racc0mu_acc                             8.787220      249997
 w1_projall                              8.488328      239245
 pw_charge                               8.290579      255371
 fornlr                                  6.653991           4
 depsum                                  5.283353         120
 vhamil                                  5.062676     1212421
 zhegv                                   4.187025      511717
 i1                                      3.962702      211453
 overl_mu                                3.844357      249997
 orth1                                   3.549504      206256
 set_dd_paw                              2.990345         128
 choleski                                2.661958        7680
 acc_init_cublas                         2.458797           1
 setdij_                                 2.183271         229
 augmentation_charge                     1.812682         120
 m_bcast_z                               1.623240       49296
 proall                                  1.514181           4
 fftbrc_mpi                              1.324450        3812
 fftbas_plan_mpi                         1.322552        3812
 potlok                                  1.282397         124
 overl                                   1.260171      147776
 rspher_all                              0.944817          53
 acc_init_cusolver                       0.794643           1
 sphpro_fast                             0.699707           5
 m_bcast_d                               0.640615       77353
 ggemm                                   0.598259       49296
 brmix                                   0.598115         120
 map_backward                            0.510585        4040
 lincom                                  0.447426       15616
 map_forward                             0.340415        3584
 densta                                  0.339355         125
 m_alltoallv_z                           0.334938        4300
 dfftw_execute                           0.320502        1464
 fft_gq                                  0.310660         120
 broyd                                   0.275393         120
 map_scatter                             0.258349        4300
 wavpre_noio                             0.252916           3
 fordep                                  0.228740           4
 map_gather                              0.206702        4300
 setg0                                   0.148215         128
 acc_cufft_makeplans                     0.122562           3
 acc_cufft_makeplan                      0.122551          19
 truncate_high_frequency_w1              0.094521     1233925
 brget                                   0.065741       10751
 stufak                                  0.059558           4
 brsav                                   0.015826        2560
 forhar                                  0.012904           8
 pothar                                  0.011522         128
 strkin                                  0.011270           4
 strelo                                  0.009630           4
 strehar                                 0.006978           4
 forloc                                  0.006879           4
 inisym                                  0.004282           1
 fewald                                  0.004082           4
 brpre                                   0.004029         240
 chggra                                  0.003273           4
 rsp                                     0.003243           4
 shift_bands_between_low_high            0.001040        7424
 vectorpot                               0.000518         121
 set_dd_magatom                          0.000515         128
 brgrid                                  0.000236           1
 rcp                                     0.000150           4
 crpa_reader                             0.000027           1
 posmap                                  0.000016           2
 potlok_metagga                          0.000015         124
 rotate_active_occupied_orbital          0.000001           4
 redis_pw_over_bands                     0.000001           4

Profiling took   4.317761  3.090519  0.003247  0.003164 seconds
Profiling took   3.603169 seconds