 vasp.6.3.2 27Jun22 (build Jul  3 2023 11:46:21) complex
 executed on    LinuxNV_CrayMPICH date 2024.04.22  03:19:29

 INCAR:
   ADDGRID = True
   ALGO = Normal
   EDIFF = 5e-05
   ENCUT = 520.0
   IBRION = -1
   ISIF = 3
   ISMEAR = -5
   ISPIN = 2
   LAECHG = True
   LASPH = True
   LCHARG = True
   LORBIT = 11
   LREAL = Auto
   LVHAR = True
   LWAVE = False
   MAGMOM = 1*7.0 2*5.0 3*0.6
   NELM = 1000
   NSW = 0
   PREC = Accurate
   SIGMA = 0.05

 POTCAR:    PAW_PBE Gd 23Dec2003
 POTCAR:    PAW_PBE Co 02Aug2007
 POTCAR:    PAW_PBE B 06Sep2000
 POTCAR:    PAW_PBE C 08Apr2002
 POTCAR:    PAW_PBE Gd 23Dec2003
   VRHFIN =Gd : [core=Xe4]

   TITEL  = PAW_PBE Gd 23Dec2003
   POMASS =  157.250; ZVAL   =   18.000    mass and valenz
   ENMAX  =  256.472; ENMIN  =  192.354 eV

   TITEL  = PAW_PBE Co 02Aug2007
   POMASS =   58.933; ZVAL   =    9.000    mass and valenz
   ENMAX  =  267.968; ENMIN  =  200.976 eV

   TITEL  = PAW_PBE B 06Sep2000
   POMASS =   10.811; ZVAL   =    3.000    mass and valenz
   ENMAX  =  318.614; ENMIN  =  238.960 eV

   TITEL  = PAW_PBE C 08Apr2002
   POMASS =   12.011; ZVAL   =    4.000    mass and valenz
   ENMAX  =  400.000; ENMIN  =  300.000 eV

 Optimization of the real space projectors (new method)

 maximal supplied QI-value         = 13.42
 optimisation between [QCUT,QGAM] = [ 11.67, 23.35] = [ 38.16,152.62] Ry
 Optimized for a Real-space Cutoff    1.63 Angstroem

   l    n(q)    QCUT    max X(q) W(low)/X(q) W(high)/X(q)  e(spline)
   0     11    11.673    10.501    0.14E-04    0.17E-05    0.21E-07
   0     11    11.673     9.148    0.21E-04    0.32E-05    0.45E-07
   1     11    11.673     4.035    0.33E-05    0.11E-04    0.84E-07
   1     11    11.673     4.388    0.11E-04    0.47E-04    0.34E-06
   2     10    11.673    20.656    0.12E-04    0.28E-04    0.54E-06
   2     10    11.673    12.651    0.11E-04    0.26E-04    0.51E-06
   3     10    11.673    61.921    0.19E-03    0.22E-03    0.23E-06
   3     10    11.673    48.328    0.20E-03    0.23E-03    0.23E-06
 Optimization of the real space projectors (new method)

[...]

   l    n(q)    QCUT    max X(q) W(low)/X(q) W(high)/X(q)  e(spline)
   0      8    11.497    53.033    0.18E-03    0.30E-03    0.10E-06
   0      8    11.497    34.740    0.17E-03    0.29E-03    0.10E-06
   1      8    11.497    30.949    0.20E-03    0.12E-03    0.21E-06
   1      8    11.497    19.518    0.18E-03    0.11E-03    0.19E-06
 Optimization of the real space projectors (new method)

 maximal supplied QI-value         = 25.13
 optimisation between [QCUT,QGAM] = [ 11.56, 23.12] = [ 37.43,149.72] Ry
 Optimized for a Real-space Cutoff    1.04 Angstroem

   l    n(q)    QCUT    max X(q) W(low)/X(q) W(high)/X(q)  e(spline)
   0      7    11.561   115.676    0.20E-03    0.60E-03    0.21E-06
   0      7    11.561    87.132    0.20E-03    0.59E-03    0.21E-06
   1      7    11.561     4.429    0.23E-03    0.35E-03    0.15E-06
   1      7    11.561     2.733    0.18E-03    0.25E-03    0.12E-06
  PAW_PBE Gd 23Dec2003                  :
  PAW_PBE Co 02Aug2007                  :
  PAW_PBE B 06Sep2000                   :
  PAW_PBE C 08Apr2002                   :

 POSCAR: Gd1 Co2 B2 C1
  positions in direct lattice
 exchange correlation table for  LEXCH =        8
   RHO(1)=    0.500       N(1)  =     2000
   RHO(2)=  100.500       N(2)  =     4000

 VTST: version 4.2, (08/11/21)

 CHAIN: initializing optimizer

 OPT: Using VASP Dynamics algorithm
 CHAIN: Read ICHAIN             0

 POSCAR: Gd1 Co2 B2 C1
  positions in direct lattice

 ion  position               nearest neighbor table
   1  0.000  0.000  0.000-   6 2.52   6 2.52   6 2.52   6 2.52   3 3.12   2 3.12   3 3.12   2 3.12
                             3 3.12   3 3.12   2 3.12   2 3.12
   2  0.250  0.750  0.500-   5 2.07   4 2.07   5 2.07   4 2.07   3 2.52   3 2.52   3 2.52   3 2.52
                             1 3.12   1 3.12   1 3.12   1 3.12
   3  0.750  0.250  0.500-   5 2.07   4 2.07   5 2.07   4 2.07   2 2.52   2 2.52   2 2.52   2 2.52
                             1 3.12   1 3.12   1 3.12   1 3.12
   4  0.647  0.647  0.000-   6 1.51   3 2.07   2 2.07   2 2.07   3 2.07
   5  0.353  0.353  0.000-   6 1.51   3 2.07   2 2.07   2 2.07   3 2.07
   6  0.500  0.500  0.000-   4 1.51   5 1.51   1 2.52   1 2.52   1 2.52   1 2.52

  LATTYP: Found a body centered tetragonal cell.
 ALAT       =     3.5659060000
 C/A-ratio  =     2.8743904074

  Lattice vectors:

 A1 = (  -1.7829530000,   1.7829530000,   5.1249030000)
 A2 = (   1.7829530000,  -1.7829530000,   5.1249030000)
 A3 = (   1.7829530000,   1.7829530000,  -5.1249030000)

Analysis of symmetry for initial positions (statically):
 Subroutine PRICEL returns:
 Original cell was already a primitive cell.

 Routine SETGRP: Setting up the symmetry group for a
 body centered tetragonal supercell.

 Subroutine GETGRP returns: Found 16 space group operations
 (whereof 16 operations were pure point group operations)
 out of a pool of 16 trial point group operations.

The static configuration has the point symmetry D_4h.

Analysis of symmetry for dynamics (positions and initial velocities):
 Subroutine PRICEL returns:
 Original cell was already a primitive cell.

[...]

The dynamic configuration has the point symmetry D_4h.

Analysis of structural, dynamic, and magnetic symmetry:
 Subroutine PRICEL returns:
 Original cell was already a primitive cell.

 Routine SETGRP: Setting up the symmetry group for a
 body centered tetragonal supercell.

 Subroutine GETGRP returns: Found 16 space group operations
 (whereof 16 operations were pure point group operations)
 out of a pool of 16 trial point group operations.

The overall configuration has the point symmetry D_4h.

 Subroutine INISYM returns: Found 16 space group operations
 (whereof 16 operations are pure point group operations),
 and found     1 'primitive' translations

                                     Primitive cell

  volume of cell :      65.1667

  direct lattice vectors                    reciprocal lattice vectors
    -1.782953000  1.782953000  5.124903000     0.000000000  0.280433640  0.097562822
     1.782953000 -1.782953000  5.124903000     0.280433640  0.000000000  0.097562822
     1.782953000  1.782953000 -5.124903000     0.280433640  0.280433640 -0.000000000

  length of vectors
     5.711608667  5.711608667  5.711608667     0.296920075  0.296920075  0.396593057

  position of ions in fractional coordinates (direct lattice)
     0.000000000  0.000000000  0.000000000
     0.250000000  0.750000000  0.500000000
     0.750000000  0.250000000  0.500000000
     0.646926000  0.646926000  1.000000000
     0.353074000  0.353074000  1.000000000
     0.500000000  0.500000000  1.000000000

  ion indices of the primitive-cell ions
   primitive index   ion index
                 1           1
                 2           2
                 3           3
                 4           4
                 5           5
                 6           6

 KPOINTS: Kpoints from vasprun.xml

Automatic generation of k-mesh.
 Grid dimensions read from file:
 generate k-points for:    7    7    7

 Generating k-lattice:

  Cartesian coordinates                     Fractional coordinates (reciprocal lattice)
     0.000000000  0.040061949  0.013937546     0.142857143  0.000000000 -0.000000000
     0.040061949  0.000000000  0.013937546     0.000000000  0.142857143 -0.000000000
     0.040061949  0.040061949 -0.000000000     0.000000000 -0.000000000  0.142857143

  Length of vectors
     0.042417154  0.042417154  0.056656151

  Shift w.r.t. Gamma in fractional coordinates (k-lattice)
     0.000000000  0.000000000  0.000000000

 TETIRR: Found    443 inequivalent tetrahedra from     2058

 Subroutine IBZKPT returns following result:

 Found     40 irreducible k-points:

 Following reciprocal coordinates:
            Coordinates               Weight
  0.000000  0.000000  0.000000      1.000000
  0.142857  0.000000  0.000000      8.000000
  0.285714  0.000000  0.000000      8.000000
  0.428571  0.000000  0.000000      8.000000
  0.142857  0.142857  0.000000      8.000000
  0.285714  0.142857  0.000000     16.000000
  0.428571  0.142857  0.000000     16.000000
 -0.428571  0.142857  0.000000     16.000000
 -0.285714  0.142857  0.000000     16.000000
 -0.142857  0.142857  0.000000      4.000000
  0.285714  0.285714  0.000000      8.000000
  0.428571  0.285714  0.000000     16.000000
 -0.428571  0.285714  0.000000     16.000000
 -0.285714  0.285714  0.000000      4.000000
  0.428571  0.428571  0.000000      8.000000
 -0.428571  0.428571  0.000000      4.000000
  0.142857  0.142857  0.142857      8.000000
  0.285714  0.142857  0.142857     16.000000
 -0.142857  0.142857  0.142857      4.000000
  0.285714  0.285714  0.142857      8.000000
  0.428571  0.285714  0.142857      8.000000
 -0.285714  0.285714  0.142857      8.000000
 -0.142857  0.285714  0.142857      8.000000
 -0.428571  0.428571  0.142857      8.000000
 -0.285714  0.428571  0.142857     16.000000
 -0.142857  0.428571  0.142857      8.000000
 -0.428571 -0.428571  0.142857      8.000000
 -0.285714 -0.428571  0.142857     16.000000
 -0.142857 -0.428571  0.142857      8.000000
 -0.285714 -0.285714  0.142857      8.000000
 -0.142857 -0.285714  0.142857      8.000000
 -0.142857 -0.142857  0.142857      2.000000
 -0.285714  0.285714  0.285714      4.000000
 -0.428571  0.428571  0.285714      8.000000
 -0.285714  0.428571  0.285714      8.000000
 -0.428571 -0.428571  0.285714      8.000000
 -0.285714 -0.428571  0.285714      8.000000
 -0.285714 -0.285714  0.285714      2.000000
 -0.428571  0.428571  0.428571      4.000000
 -0.428571 -0.428571  0.428571      2.000000

 Following cartesian coordinates:
            Coordinates               Weight
  0.000000  0.000000  0.000000      1.000000
  0.000000  0.040062  0.013938      8.000000
  0.000000  0.080124  0.027875      8.000000
  0.000000  0.120186  0.041813      8.000000
  0.040062  0.040062  0.027875      8.000000
  0.040062  0.080124  0.041813     16.000000
  0.040062  0.120186  0.055750     16.000000
  0.040062 -0.120186 -0.027875     16.000000
  0.040062 -0.080124 -0.013938     16.000000
  0.040062 -0.040062  0.000000      4.000000
  0.080124  0.080124  0.055750      8.000000
  0.080124  0.120186  0.069688     16.000000
  0.080124 -0.120186 -0.013938     16.000000
  0.080124 -0.080124  0.000000      4.000000
  0.120186  0.120186  0.083625      8.000000
  0.120186 -0.120186  0.000000      4.000000
  0.080124  0.080124  0.027875      8.000000
  0.080124  0.120186  0.041813     16.000000
  0.080124  0.000000  0.000000      4.000000
  0.120186  0.120186  0.055750      8.000000
  0.120186  0.160248  0.069688      8.000000
  0.120186 -0.040062  0.000000      8.000000
  0.120186  0.000000  0.013938      8.000000
  0.160248 -0.080124  0.000000      8.000000
  0.160248 -0.040062  0.013938     16.000000
  0.160248  0.000000  0.027875      8.000000
 -0.080124 -0.080124 -0.083625      8.000000
 -0.080124 -0.040062 -0.069688     16.000000
 -0.080124  0.000000 -0.055750      8.000000
 -0.040062 -0.040062 -0.055750      8.000000
 -0.040062  0.000000 -0.041813      8.000000
  0.000000  0.000000 -0.027875      2.000000
[...]
  287          fft3d_mpi                             0.000419                          3   4
  288            fftbrc_mpi                            0.000326                        3   5
  289              fftbas_plan_mpi                       0.000322                      3   6
  290                map_forward                           0.000159                    4   7
  291                  map_gather                            0.000040                  2   8
  292                  m_alltoallv_z                         0.000025                  2   8
  293                  map_scatter                           0.000065                  2   8
  294                map_backward                          0.000080                    2   7
  295                  map_gather                            0.000019                  1   8
  296                  m_alltoallv_z                         0.000010                  1   8
  297                  map_scatter                           0.000036                  1   8
  298          m_sumb_d                              0.000008                          2   4
  299          pothar                                0.000074                          1   4
  300            m_sumb_d                              0.000007                        1   5
  301        brmix                                 0.003408                            1   3
  302          m_sumb_d                              0.000030                          6   4
  303          brpre                                 0.000018                          2   4
  304          setg0                                 0.000525                          1   4
  305          broyd                                 0.002235                          1   4
  306            m_sumb_d                              0.000280                       37   5
  307            brsav                                 0.000112                       36   5
  308            brget                                 0.000463                      159   5
  309        m_bcast_d                             0.000020                            2   3
  310      potlok                                0.021759                              2   2
  311        fft3d_mpi                             0.014190                           36   3
  312          fftbrc_mpi                            0.012229                         36   4
  313            fftbas_plan_mpi                       0.012210                       36   5
  314              map_forward                           0.003436                     40   6
  315                map_gather                            0.001170                   24   7
  316                m_alltoallv_z                         0.001057                   24   7
  317                map_scatter                           0.001020                   24   7
  318              map_backward                          0.002887                     32   6
  319                map_gather                            0.000934                   16   7
  320                m_alltoallv_z                         0.000909                   16   7
  321                map_scatter                           0.000863                   16   7
  322              dfftw_execute                         0.004311                     30   6
  323        m_sumb_d                              0.000034                            5   3
  324        pothar                                0.000779                            2   3
  325          m_sumb_d                              0.000054                          2   4
  326        m_bcast_d                             0.001275                            4   3
  327      potlok_metagga                        0.000001                              1   2
  328      set_dd_magatom                        0.000004                              1   2
  329      set_dd_paw                            1.134813                              1   2
  330        m_sumb_d                              0.933501                            7   3
  331      augmentation_charge                   0.102369                              1   2
  332        fft3d_mpi                             0.022897                            2   3
  333          fftbrc_mpi                            0.020765                          2   4
  334            fftbas_plan_mpi                       0.020763                        2   5
  335              dfftw_execute                         0.014133                      6   6
  336              map_backward                          0.006402                      4   6
  337                map_gather                            0.001649                    2   7
  338                m_alltoallv_z                         0.003342                    2   7
  339                map_scatter                           0.001403                    2   7
  340      densta                                3.613268                              1   2

 Flat profile

 m_sumb_d                               42.386842      174222
 raccmu_                                34.644571       56210
 eddav                                  25.311854          35
 lapack                                 24.272583       56210
 init_acc                               11.687010           1
 phaser                                  9.765987        3320
 redis_pw                                9.228436      278847
 densta                                  8.294172          36
 total_time                              7.351346           1
 set_dd_paw                              6.614724          33
 m_alltoall_d                            5.173780      724803
 setdij_                                 4.453806          59
 acc_init_cublas                         3.435798           1
 augmentation_charge                     2.551465          32
 redis_proj                              2.333192      353156
 fft3d                                   2.248325      297612
 eccp                                    2.205283       25200
 fftwav                                  1.905844      198183
 orth1                                   1.885337      168790
 dfftw_execute                           1.714586        1164
 rpromu_acc                              1.698451       45330
 racc0mu_acc                             1.574343       56210
 w1_copy                                 1.457288      298287
 overl                                   1.451166      173738
 hamiltmu                                1.348439       56210
 soft_charge                             1.308872          31
 m_bcast_z                               1.176631       59090
 acc_init_cusolver                       1.061014           1
 setup_precond                           0.912771       25200
 m_bcast_d                               0.898568      112491
 overl_mu                                0.863242       56210
 ggemm                                   0.760810       70210
 rpro_isp                                0.606628         520
 m_alltoallv_z                           0.508843        1373
 vhamil                                  0.461690       99429
 newband                                 0.450511       59010
 kinhamil                                0.448638       99429
 fftext_mpi                              0.421409       99429
 apply_precond                           0.412770       74229
 pw_charge                               0.408176       15165
 depsum                                  0.356964          31
 acc_cufft_makeplan                      0.276693          19
 fft3d_mpi                               0.266298      100674
 fftwav_mpi                              0.260449      198183
 map_scatter                             0.211670        1373
 map_gather                              0.205617        1373
 rspher_all                              0.181642          14
 set_charge                              0.171570          31
 potlok                                  0.106551          33
 lincom                                  0.088967        2880
 fftbas_plan_mpi                         0.076277        1245
 elmin                                   0.068295           1
 sphpro_fast                             0.055338           2
 proall                                  0.043457           1
 w1_projall                              0.041805       42210
 brmix                                   0.029178          31
 broyd                                   0.019463          31
 setg0                                   0.017080          33
 orthch                                  0.015431           1
 choleski                                0.012503          80
 strnlr                                  0.010554           1
 truncate_high_frequency_w1              0.010153      124629
 force_and_stress                        0.009899           1
 brget                                   0.007156        2598
 map_backward                            0.006431        1302
 map_forward                             0.006237        1188
 inisym                                  0.004447           1
 fornlr                                  0.003637           1
 pothar                                  0.003046          34
 stufak                                  0.001993           1
 brsav                                   0.001780         626
 forhar                                  0.001400           2
 strelo                                  0.001248           1
 fft_gq                                  0.001078          31
 strehar                                 0.000931           1
 forloc                                  0.000761           1
 fftbrc_mpi                              0.000745        1245
 brpre                                   0.000618          62
 fewald                                  0.000362           1
 strkin                                  0.000279           1
 chggra                                  0.000219           1
 set_dd_magatom                          0.000145          33
 vectorpot                               0.000131          32
 rsp                                     0.000119           1
 brgrid                                  0.000108           1
 fordep                                  0.000046           1
 crpa_reader                             0.000027           1
 posmap                                  0.000023           2
 rcp                                     0.000014           1
 acc_cufft_makeplans                     0.000007           3
 potlok_metagga                          0.000002          32
 rotate_active_occupied_orbital          0.000000           1
 redis_pw_over_bands                     0.000000           1
  summed up times     228.2740449905396

 Accumulative profile

 total_time                            228.274045           1
 elmin                                 191.525613           1
 eddav                                 142.188435          35
 m_sumb_d                               42.386842      174222
 hamiltmu                               40.512857       56210
 set_dd_paw                             37.265869          33
 raccmu_                                37.082157       56210
 lapack                                 24.272583       56210
 redis_pw                               11.754880      278847
 init_acc                               11.687010           1
 phaser                                  9.765987        3320
 densta                                  8.294172          36
 force_and_stress                        7.087763           1
 setdij_                                 6.245503          59
 set_charge                              6.047297          31
 newband                                 5.373611       59010
 m_alltoall_d                            5.173780      724803
 redis_proj                              4.980528      353156
 fft3d_mpi                               3.717810      100674
 fftwav_mpi                              3.693511      198183
 acc_init_cublas                         3.435798           1
 fftwav                                  3.433063      198183
 augmentation_charge                     3.323044          32
 fftbrc_mpi                              2.730405        1245
 fftbas_plan_mpi                         2.729660        1245
 soft_charge                             2.262923          31
 strnlr                                  2.252642           1
 fft3d                                   2.248325      297612
 eccp                                    2.205283       25200
 orth1                                   1.885337      168790
 dfftw_execute                           1.714586        1164
 rpromu_acc                              1.698451       45330
 kinhamil                                1.620572       99429
 racc0mu_acc                             1.574343       56210
 w1_copy                                 1.457288      298287
 overl                                   1.451166      173738
 rpro_isp                                1.414971         520
 w1_projall                              1.212353       42210
 m_bcast_z                               1.176631       59090
 fftext_mpi                              1.171934       99429
 acc_init_cusolver                       1.061014           1
 setup_precond                           0.912771       25200
 m_bcast_d                               0.898568      112491
 overl_mu                                0.863242       56210
 ggemm                                   0.760810       70210
 fornlr                                  0.747806           1
 fordep                                  0.634686           1
 map_forward                             0.555667        1188
 m_alltoallv_z                           0.508843        1373
 vhamil                                  0.461690       99429
 apply_precond                           0.412770       74229
 pw_charge                               0.408176       15165
 map_backward                            0.383130        1302
 potlok                                  0.382995          33
 depsum                                  0.366104          31
 acc_cufft_makeplans                     0.276700           3
 acc_cufft_makeplan                      0.276693          19
 orthch                                  0.271660           1
 map_scatter                             0.211670        1373
 map_gather                              0.205617        1373
 proall                                  0.204523           1
 rspher_all                              0.181642          14
 lincom                                  0.088967        2880
 brmix                                   0.081818          31
 sphpro_fast                             0.057006           2
 fft_gq                                  0.036452          31
 broyd                                   0.033573          31
 setg0                                   0.017080          33
 choleski                                0.012503          80
 truncate_high_frequency_w1              0.010153      124629
 brget                                   0.007156        2598
 inisym                                  0.004470           1
 pothar                                  0.003348          34
 stufak                                  0.001993           1
 brsav                                   0.001780         626
 forhar                                  0.001411           2
 strelo                                  0.001344           1
 strehar                                 0.000935           1
 forloc                                  0.000774           1
 chggra                                  0.000719           1
 brpre                                   0.000618          62
 fewald                                  0.000542           1
 strkin                                  0.000287           1
 set_dd_magatom                          0.000145          33
 vectorpot                               0.000131          32
 rsp                                     0.000119           1
 brgrid                                  0.000108           1
 crpa_reader                             0.000027           1
 posmap                                  0.000023           2
 rcp                                     0.000014           1
 potlok_metagga                          0.000002          32
 rotate_active_occupied_orbital          0.000000           1
 redis_pw_over_bands                     0.000000           1

Profiling took   0.637090  0.316902  0.003239  0.003151 seconds
Profiling took   0.413640 seconds