 vasp.6.3.2 27Jun22 (build Jul  3 2023 11:46:21) complex
 executed on    LinuxNV_CrayMPICH date 2024.04.21  19:57:55

 INCAR:
   ALGO = Normal
   AMIX_MAG = 0.8
   BMIX = 0.001
   BMIX_MAG = 0.001
   EDIFF = 0.0004
   EFIELD_PEAD = 0.0 0.0 0.0
   ENCUT = 520.0
   IBRION = 2
   ICHARG = 1
   ISIF = 3
   ISMEAR = 0
   ISPIN = 2
   ISTART = 1
   ISYM = 0
   LCALCEPS = False
   LCALCPOL = False
   LEFG = False
   LORBIT = 11
   LPEAD = False
   LREAL = Auto
   LWAVE = False
   MAGMOM = 1*7.0 7*0.6
   NELM = 1000
   NELMDL = 6
   NSW = 99
   PREC = accurate
   SIGMA = 0.2

 POTCAR:    PAW_PBE Eu 23Dec2003
 POTCAR:    PAW_PBE Bi 08Apr2002
 POTCAR:    PAW_PBE I 08Apr2002
 POTCAR:    PAW_PBE O 08Apr2002
 POTCAR:    PAW_PBE Eu 23Dec2003
   VRHFIN =Eu : [core=Kr4d]

   TITEL  = PAW_PBE Eu 23Dec2003
   POMASS =  151.965; ZVAL   =   17.000    mass and valenz
   ENMAX  =  249.668; ENMIN  =  187.251 eV

   TITEL  = PAW_PBE Bi 08Apr2002
   POMASS =  208.980; ZVAL   =    5.000    mass and valenz
   ENMAX  =  105.037; ENMIN  =   78.777 eV

[...]

   TITEL  = PAW_PBE O 08Apr2002
   POMASS =   16.000; ZVAL   =    6.000    mass and valenz
   ENMAX  =  400.000; ENMIN  =  300.000 eV

 Optimization of the real space projectors (new method)

 maximal supplied QI-value         = 13.42
 optimisation between [QCUT,QGAM] = [ 11.67, 23.35] = [ 38.16,152.62] Ry
 Optimized for a Real-space Cutoff    1.63 Angstroem

   l    n(q)    QCUT    max X(q) W(low)/X(q) W(high)/X(q)  e(spline)
   0     11    11.673    10.400    0.14E-04    0.18E-05    0.24E-07
   0     11    11.673    10.768    0.21E-04    0.32E-05    0.49E-07
   1     11    11.673     4.094    0.40E-05    0.13E-04    0.93E-07
   1     11    11.673     4.009    0.11E-04    0.46E-04    0.33E-06
   2     10    11.673    29.030    0.79E-04    0.60E-04    0.70E-06
   2     10    11.673    19.941    0.80E-04    0.60E-04    0.71E-06
   3     10    11.673    88.889    0.23E-03    0.29E-03    0.30E-06
   3     10    11.673    76.102    0.23E-03    0.30E-03    0.30E-06
 Optimization of the real space projectors (new method)

[...]

   l    n(q)    QCUT    max X(q) W(low)/X(q) W(high)/X(q)  e(spline)
   0     10    11.539   194.483    0.48E-04    0.89E-04    0.13E-06
   0     10    11.539   190.334    0.47E-04    0.86E-04    0.12E-06
   1      9    11.539   116.687    0.15E-03    0.73E-04    0.13E-06
   1      9    11.539    88.696    0.15E-03    0.72E-04    0.13E-06
   2      9    11.539     4.877    0.99E-05    0.58E-04    0.56E-07
 Optimization of the real space projectors (new method)

 maximal supplied QI-value         = 24.76
 optimisation between [QCUT,QGAM] = [ 11.64, 23.27] = [ 37.91,151.63] Ry
 Optimized for a Real-space Cutoff    1.14 Angstroem

   l    n(q)    QCUT    max X(q) W(low)/X(q) W(high)/X(q)  e(spline)
   0      8    11.635    20.381    0.10E-03    0.33E-03    0.24E-06
   0      8    11.635    15.268    0.11E-03    0.35E-03    0.26E-06
   1      7    11.635     5.964    0.24E-03    0.31E-03    0.30E-06
   1      7    11.635     5.382    0.22E-03    0.25E-03    0.26E-06
  PAW_PBE Eu 23Dec2003                  :
  PAW_PBE Bi 08Apr2002                  :
  PAW_PBE I 08Apr2002                   :
  PAW_PBE O 08Apr2002                   :

 POSCAR: Eu1 Bi2 I1 O4
  positions in direct lattice
 exchange correlation table for  LEXCH =        8
   RHO(1)=    0.500       N(1)  =     2000
   RHO(2)=  100.500       N(2)  =     4000

 VTST: version 4.2, (08/11/21)

 CHAIN: initializing optimizer

 OPT: Using VASP Conjugate-Gradient optimizer
 CHAIN: Read ICHAIN             0

 POSCAR: Eu1 Bi2 I1 O4
  positions in direct lattice

 ion  position               nearest neighbor table
   1  0.000  1.000  0.000-   7 2.45   5 2.46   8 2.46   6 2.46   7 2.47   8 2.47   5 2.47   6 2.47

   2  0.498  0.502  0.258-   8 2.26   7 2.27   8 2.27   7 2.27   4 3.66   4 3.68   4 3.69   4 3.71

[...]

   5  0.501  0.001  0.852-   3 2.27   3 2.27   1 2.46   1 2.47
   6  0.999  0.499  0.853-   3 2.26   3 2.27   1 2.46   1 2.47
   7  0.499  0.999  0.148-   2 2.27   2 2.27   1 2.45   1 2.47
   8  0.001  0.501  0.147-   2 2.26   2 2.27   1 2.46   1 2.47

IMPORTANT INFORMATION: All symmetrisations will be switched off!
NOSYMM: (Re-)initialisation of all symmetry stuff for point group C_1.

                                     Primitive cell

  volume of cell :     155.8492

  direct lattice vectors                    reciprocal lattice vectors
     3.976853310 -0.001994760  0.015980740     0.251458999  0.000131271 -0.000956899
    -0.002136700  3.991823830 -0.013878040     0.000122315  0.250515014  0.000831509
     0.037376820 -0.032604810  9.817602460    -0.000409143  0.000353911  0.101860595

  length of vectors
     3.976885919  3.991848526  9.817727749     0.251460854  0.250516423  0.101862032

  position of ions in fractional coordinates (direct lattice)
     0.000088750  0.999892990  0.000052730
     0.498164770  0.501533080  0.258023170
     0.501791560  0.498528530  0.741981710
     0.999968440  0.000037820  0.499985050
     0.500606290  0.001065470  0.852040200
     0.998690350  0.499455410  0.852768240
     0.499413490  0.998974440  0.147915520
     0.001276350  0.500512260  0.147233370

  ion indices of the primitive-cell ions
   primitive index   ion index
                 1           1
                 2           2
                 3           3
                 4           4
                 5           5
                 6           6
                 7           7
                 8           8

 KPOINTS: Kpoints from vasprun.xml

Automatic generation of k-mesh.
 Grid dimensions read from file:
 generate k-points for:    7    7    3

 Generating k-lattice:

  Cartesian coordinates                     Fractional coordinates (reciprocal lattice)
     0.035922714  0.000018753 -0.000136700     0.142857143 -0.000000000  0.000000000
     0.000017474  0.035787859  0.000118787    -0.000000000  0.142857143  0.000000000
    -0.000136381  0.000117970  0.033953532    -0.000000000  0.000000000  0.333333333

  Length of vectors
     0.035922979  0.035788060  0.033954011

  Shift w.r.t. Gamma in fractional coordinates (k-lattice)
     0.000000000  0.000000000  0.000000000

 Subroutine IBZKPT returns following result:

 Found     74 irreducible k-points:

 Following reciprocal coordinates:
            Coordinates               Weight
  0.000000  0.000000  0.000000      1.000000
  0.142857  0.000000  0.000000      2.000000
  0.285714  0.000000  0.000000      2.000000
  0.428571  0.000000  0.000000      2.000000
  0.000000  0.142857  0.000000      2.000000
  0.142857  0.142857  0.000000      2.000000
  0.285714  0.142857  0.000000      2.000000
  0.428571  0.142857  0.000000      2.000000
 -0.428571  0.142857  0.000000      2.000000
 -0.285714  0.142857  0.000000      2.000000
 -0.142857  0.142857  0.000000      2.000000
  0.000000  0.285714  0.000000      2.000000
  0.142857  0.285714  0.000000      2.000000
  0.285714  0.285714  0.000000      2.000000
  0.428571  0.285714  0.000000      2.000000
 -0.428571  0.285714  0.000000      2.000000
 -0.285714  0.285714  0.000000      2.000000
 -0.142857  0.285714  0.000000      2.000000
  0.000000  0.428571  0.000000      2.000000
  0.142857  0.428571  0.000000      2.000000
  0.285714  0.428571  0.000000      2.000000
  0.428571  0.428571  0.000000      2.000000
 -0.428571  0.428571  0.000000      2.000000
 -0.285714  0.428571  0.000000      2.000000
 -0.142857  0.428571  0.000000      2.000000
  0.000000  0.000000  0.333333      2.000000
  0.142857  0.000000  0.333333      2.000000
  0.285714  0.000000  0.333333      2.000000
  0.428571  0.000000  0.333333      2.000000
 -0.428571  0.000000  0.333333      2.000000
 -0.285714  0.000000  0.333333      2.000000
 -0.142857  0.000000  0.333333      2.000000
  0.000000  0.142857  0.333333      2.000000
  0.142857  0.142857  0.333333      2.000000
  0.285714  0.142857  0.333333      2.000000
  0.428571  0.142857  0.333333      2.000000
 -0.428571  0.142857  0.333333      2.000000
 -0.285714  0.142857  0.333333      2.000000
 -0.142857  0.142857  0.333333      2.000000
  0.000000  0.285714  0.333333      2.000000
  0.142857  0.285714  0.333333      2.000000
  0.285714  0.285714  0.333333      2.000000
  0.428571  0.285714  0.333333      2.000000
 -0.428571  0.285714  0.333333      2.000000
 -0.285714  0.285714  0.333333      2.000000
 -0.142857  0.285714  0.333333      2.000000
  0.000000  0.428571  0.333333      2.000000
  0.142857  0.428571  0.333333      2.000000
  0.285714  0.428571  0.333333      2.000000
  0.428571  0.428571  0.333333      2.000000
 -0.428571  0.428571  0.333333      2.000000
 -0.285714  0.428571  0.333333      2.000000
 -0.142857  0.428571  0.333333      2.000000
  0.000000 -0.428571  0.333333      2.000000
  0.142857 -0.428571  0.333333      2.000000
  0.285714 -0.428571  0.333333      2.000000
  0.428571 -0.428571  0.333333      2.000000
 -0.428571 -0.428571  0.333333      2.000000
 -0.285714 -0.428571  0.333333      2.000000
 -0.142857 -0.428571  0.333333      2.000000
  0.000000 -0.285714  0.333333      2.000000
  0.142857 -0.285714  0.333333      2.000000
  0.285714 -0.285714  0.333333      2.000000
  0.428571 -0.285714  0.333333      2.000000
 -0.428571 -0.285714  0.333333      2.000000
 -0.285714 -0.285714  0.333333      2.000000
 -0.142857 -0.285714  0.333333      2.000000
  0.000000 -0.142857  0.333333      2.000000
  0.142857 -0.142857  0.333333      2.000000
  0.285714 -0.142857  0.333333      2.000000
  0.428571 -0.142857  0.333333      2.000000
 -0.428571 -0.142857  0.333333      2.000000
 -0.285714 -0.142857  0.333333      2.000000
 -0.142857 -0.142857  0.333333      2.000000

 Following cartesian coordinates:
            Coordinates               Weight
  0.000000  0.000000  0.000000      1.000000
  0.035923  0.000019 -0.000137      2.000000
  0.071845  0.000038 -0.000273      2.000000
  0.107768  0.000056 -0.000410      2.000000
  0.000017  0.035788  0.000119      2.000000
  0.035940  0.035807 -0.000018      2.000000
  0.071863  0.035825 -0.000155      2.000000
  0.107786  0.035844 -0.000291      2.000000
 -0.107751  0.035732  0.000529      2.000000
 -0.071828  0.035750  0.000392      2.000000
 -0.035905  0.035769  0.000255      2.000000
  0.000035  0.071576  0.000238      2.000000
  0.035958  0.071594  0.000101      2.000000
  0.071880  0.071613 -0.000036      2.000000
  0.107803  0.071632 -0.000173      2.000000
 -0.107733  0.071519  0.000648      2.000000
 -0.071810  0.071538  0.000511      2.000000
 -0.035888  0.071557  0.000374      2.000000
  0.000052  0.107364  0.000356      2.000000
  0.035975  0.107382  0.000220      2.000000
  0.071898  0.107401  0.000083      2.000000
  0.107821  0.107420 -0.000054      2.000000
 -0.107716  0.107307  0.000766      2.000000
 -0.071793  0.107326  0.000630      2.000000
 -0.035870  0.107345  0.000493      2.000000
 -0.000136  0.000118  0.033954      2.000000
  0.035786  0.000137  0.033817      2.000000
  0.071709  0.000155  0.033680      2.000000
  0.107632  0.000174  0.033543      2.000000
 -0.107905  0.000062  0.034364      2.000000
 -0.071982  0.000080  0.034227      2.000000
[...]
  223                map_gather                            0.001382                   72   7
  224                m_alltoallv_z                         0.000766                   72   7
  225                map_scatter                           0.002627                   72   7
  226        m_sumb_d                              0.000153                           30   3
  227        forhar                                0.008085                           12   3
  228          m_sumb_d                              0.000094                         12   4
  229        strehar                               0.005223                            6   3
  230          m_sumb_d                              0.000190                          6   4
  231        chggra                                0.004247                            6   3
  232          fft3d_mpi                             0.002528                         18   4
  233            fftbrc_mpi                            0.001968                       18   5
  234              fftbas_plan_mpi                       0.001963                     18   6
  235                map_forward                           0.000989                   24   7
  236                  map_gather                            0.000238                 12   8
  237                  m_alltoallv_z                         0.000143                 12   8
  238                  map_scatter                           0.000448                 12   8
  239                map_backward                          0.000472                   12   7
  240                  map_gather                            0.000113                  6   8
  241                  m_alltoallv_z                         0.000064                  6   8
  242                  map_scatter                           0.000211                  6   8
  243          m_sumb_d                              0.000057                         12   4
  244          pothar                                0.000442                          6   4
  245            m_sumb_d                              0.000038                        6   5
  246        brmix                                 0.009816                            6   3
  247          m_sumb_d                              0.000249                         36   4
  248          brpre                                 0.000094                         12   4
  249          setg0                                 0.003182                          6   4
  250          broyd                                 0.002807                          6   4
  251            m_sumb_d                              0.000650                       93   5
  252            brsav                                 0.000195                       83   5
  253            brget                                 0.000686                      309   5
  254        m_bcast_d                             0.000094                           12   3
  255      potlok                                0.033978                              6   2
  256        fft3d_mpi                             0.022671                          156   3
  257          fftbrc_mpi                            0.017523                        156   4
  258            fftbas_plan_mpi                       0.017453                      156   5
  259              map_forward                           0.007404                    168   6
  260                map_gather                            0.001842                   96   7
  261                m_alltoallv_z                         0.000955                   96   7
  262                map_scatter                           0.003632                   96   7
  263              map_backward                          0.005722                    144   6
  264                map_gather                            0.001379                   72   7
  265                m_alltoallv_z                         0.000765                   72   7
  266                map_scatter                           0.002570                   72   7
  267        m_sumb_d                              0.000158                           30   3
  268        pothar                                0.000467                            6   3
  269          m_sumb_d                              0.000042                          6   4
  270        m_bcast_d                             0.000157                           12   3
  271      potlok_metagga                        0.000002                              6   2
  272      set_dd_magatom                        0.000020                              6   2
  273      set_dd_paw                            0.043151                              6   2
  274        m_sumb_d                              0.003862                           42   3
  275      wavpre_noio                           0.106231                              5   2
  276        stufak                                0.012298                            5   3
  277      densta                                0.005938                              1   2
  278        m_sumb_d                              0.000639                           39   3

 Flat profile

 eddav                                 109.087905          87
 lapack                                104.966911      230597
 m_sumb_d                               64.911234      712448
 raccmu_                                57.082383      230597
 redis_pw                               45.264556     1282350
 phaser                                 26.112647       18648
 m_alltoall_d                           23.771253     3401518
 eccp                                   11.286084      128760
 redis_proj                             10.899745     1615672
 fft3d                                  10.753744     1438037
 fftwav                                 10.231852      976843
 rpromu_acc                             10.136648      200849
 init_acc                                9.812407           1
 orth1                                   7.735529      693567
 rpro_isp                                7.178482        5772
 w1_copy                                 6.727353     1383582
 overl                                   6.693321      794516
 racc0mu_acc                             6.681376      230597
 total_time                              5.304837           1
 hamiltmu                                4.948693      230597
 m_bcast_z                               4.826258      236517
 soft_charge                             4.742611          57
 setup_precond                           4.658257      128760
 m_bcast_d                               3.824552      461345
 overl_mu                                3.549585      230597
 ggemm                                   3.157555      294977
 acc_init_cublas                         2.456202           1
 kinhamil                                2.108019      461194
 vhamil                                  2.101338      461194
 newband                                 1.940403      243473
 fftext_mpi                              1.924991      461194
 apply_precond                           1.843122      332434
 pw_charge                               1.781417       67775
 depsum                                  1.349270          57
 fftwav_mpi                              1.266381      976843
 setdij_                                 1.050730         220
 acc_init_cusolver                       0.795700           1
 rspher_all                              0.474688          79
 set_dd_paw                              0.448502          69
 lincom                                  0.401967       13764
 augmentation_charge                     0.293211          57
 elmin                                   0.265352           6
 fft3d_mpi                               0.229630      463220
 orthch                                  0.228450           6
 potlok                                  0.183047          63
 sphpro_fast                             0.181351           7
 m_alltoallv_z                           0.172155        2266
 proall                                  0.171292           6
 densta                                  0.159984          88
 w1_projall                              0.157236      166217
 map_scatter                             0.141416        2266
 acc_cufft_makeplan                      0.124975          19
 choleski                                0.108837         888
 strnlr                                  0.107360           6
 wavpre_noio                             0.093933           5
 force_and_stress                        0.080184           6
 fftbas_plan_mpi                         0.076055        2026
 dfftw_execute                           0.065118         714
 map_gather                              0.065054        2266
 truncate_high_frequency_w1              0.045625      589954
 fornlr                                  0.041791           6
 brmix                                   0.033724          57
 setg0                                   0.029660          69
 broyd                                   0.019214          57
 stufak                                  0.015310           6
 map_backward                            0.012495        2124
 map_forward                             0.011824        1928
 set_charge                              0.008018          57
 forhar                                  0.007991          12
 strelo                                  0.007282           6
 strehar                                 0.005033           6
 pothar                                  0.004917          69
 brget                                   0.004678        2137
 strkin                                  0.004616           6
 forloc                                  0.004065           6
 brsav                                   0.001409         625
 fft_gq                                  0.001398          57
 chggra                                  0.001219           6
 fftbrc_mpi                              0.001094        2026
 rsp                                     0.001013           6
 brpre                                   0.000911         114
 fewald                                  0.000381           6
 set_dd_magatom                          0.000273          69
 vectorpot                               0.000237          58
 brgrid                                  0.000135           1
 fordep                                  0.000094           6
 rcp                                     0.000085           6
 crpa_reader                             0.000029           1
 acc_cufft_makeplans                     0.000012           3
 potlok_metagga                          0.000006          63
 redis_pw_over_bands                     0.000001           6
 rotate_active_occupied_orbital          0.000001           6
  summed up times     587.4576909542084

 Accumulative profile

 total_time                            587.457691           1
 elmin                                 539.826545           6
 eddav                                 528.592162          87
 lapack                                104.966911      230597
 hamiltmu                               81.849954      230597
 raccmu_                                67.313344      230597
 m_sumb_d                               64.911234      712448
 redis_pw                               56.968825     1282350
 newband                                27.619846      243473
 phaser                                 26.112647       18648
 force_and_stress                       25.707761           6
 m_alltoall_d                           23.771253     3401518
 redis_proj                             22.966728     1615672
 fftwav_mpi                             18.934120      976843
 strnlr                                 17.731143           6
 fftwav                                 17.667739      976843
 rpro_isp                               15.944135        5772
 eccp                                   11.286084      128760
 fft3d                                  10.753744     1438037
 set_charge                             10.548558          57
 rpromu_acc                             10.136648      200849
 init_acc                                9.812407           1
 soft_charge                             8.749535          57
 orth1                                   7.735529      693567
 kinhamil                                7.486579      461194
 w1_copy                                 6.727353     1383582
 overl                                   6.693321      794516
 racc0mu_acc                             6.681376      230597
 fornlr                                  5.919312           6
 fftext_mpi                              5.378560      461194
 w1_projall                              4.953732      166217
 m_bcast_z                               4.826258      236517
 setup_precond                           4.658257      128760
 fft3d_mpi                               4.092698      463220
 m_bcast_d                               3.824552      461345
 overl_mu                                3.549585      230597
 ggemm                                   3.157555      294977
 acc_init_cublas                         2.456202           1
 vhamil                                  2.101338      461194
 apply_precond                           1.843122      332434
 pw_charge                               1.781417       67775
 orthch                                  1.439742           6
 depsum                                  1.362704          57
 proall                                  1.284455           6
 setdij_                                 1.086470         220
 acc_init_cusolver                       0.795700           1
 potlok                                  0.598693          63
 fftbrc_mpi                              0.545211        2026
 fftbas_plan_mpi                         0.544117        2026
 set_dd_paw                              0.490860          69
 rspher_all                              0.474688          79
 augmentation_charge                     0.428302          57
 lincom                                  0.401967       13764
 map_forward                             0.251597        1928
 sphpro_fast                             0.187273           7
 densta                                  0.179360          88
 fordep                                  0.178634           6
 m_alltoallv_z                           0.172155        2266
 map_backward                            0.151346        2124
 map_scatter                             0.141416        2266
 acc_cufft_makeplans                     0.124987           3
 acc_cufft_makeplan                      0.124975          19
 choleski                                0.108837         888
 wavpre_noio                             0.106231           5
 brmix                                   0.097365          57
 dfftw_execute                           0.065118         714
 map_gather                              0.065054        2266
 fft_gq                                  0.063392          57
 truncate_high_frequency_w1              0.045625      589954
 broyd                                   0.030095          57
 setg0                                   0.029660          69
 stufak                                  0.015310           6
 forhar                                  0.008085          12
 strelo                                  0.007755           6
 pothar                                  0.005420          69
 strehar                                 0.005223           6
 brget                                   0.004678        2137
 strkin                                  0.004654           6
 forloc                                  0.004479           6
 chggra                                  0.004247           6
 fewald                                  0.002364           6
 brsav                                   0.001409         625
 rsp                                     0.001013           6
 brpre                                   0.000911         114
 set_dd_magatom                          0.000273          69
 vectorpot                               0.000237          58
 brgrid                                  0.000135           1
 rcp                                     0.000085           6
 crpa_reader                             0.000029           1
 potlok_metagga                          0.000006          63
 redis_pw_over_bands                     0.000001           6
 rotate_active_occupied_orbital          0.000001           6

Profiling took   2.841979  1.413378  0.003186  0.003125 seconds
Profiling took   1.757707 seconds