 vasp.6.3.2 27Jun22 (build Jul  3 2023 11:46:21) complex
 executed on    LinuxNV_CrayMPICH date 2024.04.22  00:10:59

 INCAR:
   ALGO = Normal
   EDIFF = 1e-05
   ENCUT = 520.0
   IBRION = -1
   ISIF = 3
   ISMEAR = -5
   ISPIN = 2
   LAECHG = True
   LASPH = True
   LCHARG = True
   LORBIT = 11
   LREAL = Auto
   LVHAR = True
   LWAVE = False
   MAGMOM = 1*7.0 3*0.6 4*5.0
   NELM = 1000
   NSW = 0
   PREC = Accurate
   SIGMA = 0.05

 POTCAR:    PAW_PBE Gd 23Dec2003
 POTCAR:    PAW_PBE Dy_3 06Sep2000
 POTCAR:    PAW_PBE Ni_pv 06Sep2000
 POTCAR:    PAW_PBE Gd 23Dec2003
   VRHFIN =Gd : [core=Xe4]

   TITEL  = PAW_PBE Gd 23Dec2003
   POMASS =  157.250; ZVAL   =   18.000    mass and valenz
   ENMAX  =  256.472; ENMIN  =  192.354 eV

   TITEL  = PAW_PBE Dy_3 06Sep2000
   POMASS =  162.500; ZVAL   =    9.000    mass and valenz
   ENMAX  =  155.713; ENMIN  =  116.785 eV

   TITEL  = PAW_PBE Ni_pv 06Sep2000
   POMASS =   58.690; ZVAL   =   16.000    mass and valenz
   ENMAX  =  367.986; ENMIN  =  275.989 eV

 Optimization of the real space projectors (new method)

 maximal supplied QI-value         = 13.42
 optimisation between [QCUT,QGAM] = [ 11.67, 23.35] = [ 38.16,152.62] Ry
 Optimized for a Real-space Cutoff    1.63 Angstroem

   l    n(q)    QCUT    max X(q) W(low)/X(q) W(high)/X(q)  e(spline)
   0     11    11.673    10.501    0.14E-04    0.17E-05    0.21E-07
   0     11    11.673     9.148    0.21E-04    0.32E-05    0.45E-07
   1     11    11.673     4.035    0.33E-05    0.11E-04    0.84E-07
   1     11    11.673     4.388    0.11E-04    0.47E-04    0.34E-06
   2     10    11.673    20.656    0.12E-04    0.28E-04    0.54E-06
   2     10    11.673    12.651    0.11E-04    0.26E-04    0.51E-06
   3     10    11.673    61.921    0.19E-03    0.22E-03    0.23E-06
   3     10    11.673    48.328    0.20E-03    0.23E-03    0.23E-06
 Optimization of the real space projectors (new method)

[...]

   l    n(q)    QCUT    max X(q) W(low)/X(q) W(high)/X(q)  e(spline)
   0     13    11.599    57.302    0.37E-04    0.16E-05    0.57E-06
   0     13    11.599    27.765    0.24E-04    0.17E-05    0.49E-06
   1     13    11.599    41.596    0.37E-05    0.11E-04    0.10E-05
   1     13    11.599    42.475    0.39E-05    0.11E-04    0.11E-05
   2     12    11.599   121.897    0.82E-04    0.72E-04    0.20E-05
   2     12    11.599    97.181    0.82E-04    0.72E-04    0.20E-05
 Optimization of the real space projectors (new method)

 maximal supplied QI-value         = 18.90
 optimisation between [QCUT,QGAM] = [ 11.53, 23.24] = [ 37.21,151.29] Ry
 Optimized for a Real-space Cutoff    1.36 Angstroem

   l    n(q)    QCUT    max X(q) W(low)/X(q) W(high)/X(q)  e(spline)
   1      9    11.527     2.836    0.16E-04    0.30E-04    0.95E-07
   1      9    11.527     4.023    0.73E-04    0.81E-04    0.21E-06
   2      9    11.527    73.368    0.15E-03    0.29E-03    0.28E-06
   2      9    11.527    69.010    0.15E-03    0.29E-03    0.29E-06
   0      9    11.527    54.797    0.43E-04    0.28E-04    0.85E-07
   0      9    11.527    24.266    0.33E-04    0.24E-04    0.75E-07
  PAW_PBE Gd 23Dec2003                  :
  PAW_PBE Dy_3 06Sep2000                :
  PAW_PBE Ni_pv 06Sep2000               :

 POSCAR: Gd1 Dy3 Ni4
  positions in direct lattice
 exchange correlation table for  LEXCH =        8
   RHO(1)=    0.500       N(1)  =     2000
   RHO(2)=  100.500       N(2)  =     4000

 VTST: version 4.2, (08/11/21)

 CHAIN: initializing optimizer

 OPT: Using VASP Dynamics algorithm
 CHAIN: Read ICHAIN             0

 POSCAR: Gd1 Dy3 Ni4
  positions in direct lattice

 ion  position               nearest neighbor table
   1  0.000  0.634  0.321-   5 2.87   8 2.92   8 2.92   7 2.93   7 2.93   6 2.94   5 2.96   4 3.59
                             4 3.59   4 3.59   4 3.59   3 3.63   3 3.63
   2  0.000  0.866  0.820-   6 2.88   7 2.90   7 2.90   8 2.92   8 2.92   5 2.92   6 2.95   3 3.58
                             3 3.58   3 3.59   3 3.59   4 3.62   4 3.62
   3  0.500  0.365  0.681-   7 2.86   6 2.90   6 2.90   8 2.91   5 2.92   5 2.92   7 2.97   2 3.58
                             2 3.58   2 3.59   2 3.59   1 3.63   1 3.63   4 3.77   4 3.80
   4  0.500  0.134  0.179-   8 2.87   5 2.91   5 2.91   6 2.92   6 2.92   7 2.93   8 2.96   1 3.59
                             1 3.59   1 3.59   1 3.59   2 3.62   2 3.62   3 3.77   3 3.80
   5  0.000  0.126  0.463-   1 2.87   4 2.91   4 2.91   2 2.92   3 2.92   3 2.92   1 2.96
   6  0.000  0.374  0.961-   2 2.88   3 2.90   3 2.90   4 2.92   4 2.92   1 2.94   2 2.95
   7  0.500  0.875  0.539-   3 2.86   2 2.90   2 2.90   1 2.93   1 2.93   4 2.93   3 2.97
   8  0.500  0.625  0.036-   4 2.87   3 2.91   2 2.92   2 2.92   1 2.92   1 2.92   4 2.96

  LATTYP: Found a simple monoclinic cell.
 ALAT       =     5.4698830000
 B/A-ratio  =     0.7664873271
 C/A-ratio  =     1.3037580851
 COS(beta)  =    -0.0002284263

  Lattice vectors:

 A1 = (   0.0000000000,   5.4698830000,   0.0000000000)
 A2 = (   4.1925960000,   0.0000000000,   0.0000000000)
 A3 = (   0.0000000000,  -0.0016290000,  -7.1314040000)

Analysis of symmetry for initial positions (statically):
 Subroutine PRICEL returns:
 Original cell was already a primitive cell.

 Routine SETGRP: Setting up the symmetry group for a
 simple monoclinic supercell.

 Subroutine GETGRP returns: Found  2 space group operations
 (whereof  2 operations were pure point group operations)
 out of a pool of  4 trial point group operations.

The static configuration has the point symmetry C_1h.

Analysis of symmetry for dynamics (positions and initial velocities):
 Subroutine PRICEL returns:
 Original cell was already a primitive cell.

[...]

The dynamic configuration has the point symmetry C_1h.

Analysis of structural, dynamic, and magnetic symmetry:
 Subroutine PRICEL returns:
 Original cell was already a primitive cell.

 Routine SETGRP: Setting up the symmetry group for a
 simple monoclinic supercell.

 Subroutine GETGRP returns: Found  2 space group operations
 (whereof  2 operations were pure point group operations)
 out of a pool of  4 trial point group operations.

The overall configuration has the point symmetry C_1h.

 Subroutine INISYM returns: Found  2 space group operations
 (whereof  2 operations are pure point group operations),
 and found     1 'primitive' translations

                                     Primitive cell

  volume of cell :     163.5446

  direct lattice vectors                    reciprocal lattice vectors
     4.192596000  0.000000000  0.000000000     0.238515707  0.000000000  0.000000000
     0.000000000  5.469883000  0.000000000     0.000000000  0.182819267 -0.000041761
     0.000000000  0.001629000  7.131404000     0.000000000  0.000000000  0.140224842

  length of vectors
     4.192596000  5.469883000  7.131404186     0.238515707  0.182819272  0.140224842

  position of ions in fractional coordinates (direct lattice)
     0.000000000  0.634164000  0.320685000
     0.000000000  0.866192000  0.820063000
     0.500000000  0.365353000  0.680951000
     0.500000000  0.134173000  0.179127000
     0.000000000  0.125868000  0.462583000
     0.000000000  0.373506000  0.960979000
     0.500000000  0.875466000  0.539437000
     0.500000000  0.625277000  0.036175000

  ion indices of the primitive-cell ions
   primitive index   ion index
                 1           1
                 2           2
                 3           3
                 4           4
                 5           5
                 6           6
                 7           7
                 8           8

 KPOINTS: Kpoints from vasprun.xml

Automatic generation of k-mesh.
 Grid dimensions read from file:
 generate k-points for:    6    5    4

 Generating k-lattice:

  Cartesian coordinates                     Fractional coordinates (reciprocal lattice)
     0.039752618  0.000000000  0.000000000     0.166666667  0.000000000  0.000000000
     0.000000000  0.036563853 -0.000008352     0.000000000  0.200000000 -0.000000000
     0.000000000  0.000000000  0.035056211     0.000000000  0.000000000  0.250000000

  Length of vectors
     0.039752618  0.036563854  0.035056211

  Shift w.r.t. Gamma in fractional coordinates (k-lattice)
     0.000000000  0.000000000  0.000000000

 TETIRR: Found    360 inequivalent tetrahedra from      720

 Subroutine IBZKPT returns following result:

 Found     44 irreducible k-points:

 Following reciprocal coordinates:
            Coordinates               Weight
  0.000000  0.000000  0.000000      1.000000
  0.166667  0.000000  0.000000      2.000000
  0.333333  0.000000  0.000000      2.000000
  0.500000  0.000000  0.000000      1.000000
  0.000000  0.200000  0.000000      2.000000
  0.166667  0.200000  0.000000      4.000000
  0.333333  0.200000  0.000000      4.000000
  0.500000  0.200000  0.000000      2.000000
  0.000000  0.400000  0.000000      2.000000
  0.166667  0.400000  0.000000      4.000000
  0.333333  0.400000  0.000000      4.000000
  0.500000  0.400000  0.000000      2.000000
  0.000000  0.000000  0.250000      2.000000
  0.166667  0.000000  0.250000      4.000000
  0.333333  0.000000  0.250000      4.000000
  0.500000  0.000000  0.250000      2.000000
  0.000000  0.200000  0.250000      2.000000
  0.166667  0.200000  0.250000      4.000000
  0.333333  0.200000  0.250000      4.000000
  0.500000  0.200000  0.250000      2.000000
  0.000000  0.400000  0.250000      2.000000
  0.166667  0.400000  0.250000      4.000000
  0.333333  0.400000  0.250000      4.000000
  0.500000  0.400000  0.250000      2.000000
  0.000000 -0.400000  0.250000      2.000000
  0.166667 -0.400000  0.250000      4.000000
  0.333333 -0.400000  0.250000      4.000000
  0.500000 -0.400000  0.250000      2.000000
  0.000000 -0.200000  0.250000      2.000000
  0.166667 -0.200000  0.250000      4.000000
  0.333333 -0.200000  0.250000      4.000000
  0.500000 -0.200000  0.250000      2.000000
  0.000000  0.000000  0.500000      1.000000
  0.166667  0.000000  0.500000      2.000000
  0.333333  0.000000  0.500000      2.000000
  0.500000  0.000000  0.500000      1.000000
  0.000000  0.200000  0.500000      2.000000
  0.166667  0.200000  0.500000      4.000000
  0.333333  0.200000  0.500000      4.000000
  0.500000  0.200000  0.500000      2.000000
  0.000000  0.400000  0.500000      2.000000
  0.166667  0.400000  0.500000      4.000000
  0.333333  0.400000  0.500000      4.000000
  0.500000  0.400000  0.500000      2.000000

 Following cartesian coordinates:
            Coordinates               Weight
  0.000000  0.000000  0.000000      1.000000
  0.039753  0.000000  0.000000      2.000000
  0.079505  0.000000  0.000000      2.000000
  0.119258  0.000000  0.000000      1.000000
  0.000000  0.036564 -0.000008      2.000000
  0.039753  0.036564 -0.000008      4.000000
  0.079505  0.036564 -0.000008      4.000000
  0.119258  0.036564 -0.000008      2.000000
  0.000000  0.073128 -0.000017      2.000000
  0.039753  0.073128 -0.000017      4.000000
  0.079505  0.073128 -0.000017      4.000000
  0.119258  0.073128 -0.000017      2.000000
  0.000000  0.000000  0.035056      2.000000
  0.039753  0.000000  0.035056      4.000000
[...]
  239          fft3d_mpi                             0.000428                          3   4
  240            fftbrc_mpi                            0.000335                        3   5
  241              fftbas_plan_mpi                       0.000334                      3   6
  242                map_forward                           0.000171                    4   7
  243                  map_gather                            0.000038                  2   8
  244                  m_alltoallv_z                         0.000024                  2   8
  245                  map_scatter                           0.000082                  2   8
  246                map_backward                          0.000077                    2   7
  247                  map_gather                            0.000019                  1   8
  248                  m_alltoallv_z                         0.000011                  1   8
  249                  map_scatter                           0.000034                  1   8
  250          m_sumb_d                              0.000009                          2   4
  251          pothar                                0.000076                          1   4
  252            m_sumb_d                              0.000009                        1   5
  253        brmix                                 0.005338                            1   3
  254          m_sumb_d                              0.000029                          6   4
  255          brpre                                 0.000016                          2   4
  256          setg0                                 0.000514                          1   4
  257          broyd                                 0.004169                          1   4
  258            m_sumb_d                              0.000365                       50   5
  259            brget                                 0.000697                      224   5
  260            brsav                                 0.000146                       48   5
  261        m_bcast_d                             0.000015                            2   3
  262      potlok                                0.021001                              2   2
  263        fft3d_mpi                             0.013747                           36   3
  264          fftbrc_mpi                            0.011378                         36   4
  265            fftbas_plan_mpi                       0.011358                       36   5
  266              map_forward                           0.003525                     40   6
  267                map_gather                            0.001106                   24   7
  268                m_alltoallv_z                         0.001215                   24   7
  269                map_scatter                           0.001027                   24   7
  270              map_backward                          0.002835                     32   6
  271                map_gather                            0.000911                   16   7
  272                m_alltoallv_z                         0.000912                   16   7
  273                map_scatter                           0.000837                   16   7
  274              dfftw_execute                         0.003623                     30   6
  275        m_sumb_d                              0.000023                            5   3
  276        pothar                                0.000760                            2   3
  277          m_sumb_d                              0.000013                          2   4
  278        m_bcast_d                             0.001189                            4   3
  279      potlok_metagga                        0.000000                              1   2
  280      set_dd_magatom                        0.000004                              1   2
  281      set_dd_paw                            1.402873                              1   2
  282        m_sumb_d                              0.433224                            7   3
  283      augmentation_charge                   0.008240                              1   2
  284        fft3d_mpi                             0.002254                            2   3
  285          fftbrc_mpi                            0.001838                          2   4
  286            fftbas_plan_mpi                       0.001838                        2   5
  287              dfftw_execute                         0.000784                      6   6
  288              map_backward                          0.000917                      4   6
  289                map_gather                            0.000333                    2   7
  290                m_alltoallv_z                         0.000366                    2   7
  291                map_scatter                           0.000216                    2   7
  292      densta                                7.188173                              1   2

 Flat profile

 eddav                                 394.126957         243
 lapack                                379.240363      824237
 m_sumb_d                              350.557609     2513742
 raccmu_                               288.693102      824237
 set_dd_paw                            230.875950         241
 redis_pw                              159.608621     4560686
 m_alltoall_d                           83.606585    11975798
 densta                                 59.305637         244
 phaser                                 46.318282       21956
 eccp                                   38.688476      427680
 redis_proj                             38.552057     5781568
 fft3d                                  36.373436     4841306
 fftwav                                 29.757179     3192832
 orth1                                  26.911269     2472975
 racc0mu_acc                            24.268023      824237
 w1_copy                                24.098686     4945422
 overl                                  23.934707     2869356
 soft_charge                            19.458037         239
 rpromu_acc                             18.779521      616117
 m_bcast_z                              17.551630      831277
 hamiltmu                               17.233562      824237
 setup_precond                          15.596207      427680
 m_bcast_d                              13.444561     1648961
 overl_mu                               12.810191      824237
 ggemm                                  11.532890     1038077
 init_acc                               11.512447           1
 pw_charge                               7.691067      300684
 kinhamil                                7.530696     1648474
 vhamil                                  7.516655     1648474
 fftext_mpi                              6.950151     1648474
 depsum                                  6.719618         239
 apply_precond                           6.703038     1220794
 newband                                 6.518802      845621
 total_time                              6.254086           1
 fftwav_mpi                              4.300542     3192832
 acc_init_cublas                         3.550657           1
 setdij_                                 1.506784         267
 augmentation_charge                     1.443614         240
 set_charge                              1.219768         239
 rpro_isp                                1.208961         572
 acc_init_cusolver                       1.051547           1
 fft3d_mpi                               0.870467     1655723
 lincom                                  0.770597       21472
 potlok                                  0.642218         241
 w1_projall                              0.603884      610397
 broyd                                   0.576567         239
 elmin                                   0.404268           1
 map_scatter                             0.337676        8209
 m_alltoallv_z                           0.319222        8209
 acc_cufft_makeplan                      0.303611          19
 dfftw_execute                           0.270751        2952
 fftbas_plan_mpi                         0.256952        7249
 map_gather                              0.248654        8209
 truncate_high_frequency_w1              0.167789     2076154
 brget                                   0.163283       52388
 sphpro_fast                             0.158915           2
 rspher_all                              0.147931          14
 brmix                                   0.143983         239
 setg0                                   0.124943         241
 proall                                  0.061706           1
 brsav                                   0.044256       14941
 map_backward                            0.042659        7722
 map_forward                             0.042062        6776
 orthch                                  0.034001           1
 choleski                                0.020005          88
 pothar                                  0.017695         242
 force_and_stress                        0.015435           1
 strnlr                                  0.011585           1
 fft_gq                                  0.007300         239
 inisym                                  0.004179           1
 brpre                                   0.004067         478
 fornlr                                  0.003981           1
 fftbrc_mpi                              0.003691        7249
 stufak                                  0.002537           1
 strelo                                  0.001445           1
 forhar                                  0.001357           2
 strkin                                  0.001026           1
 vectorpot                               0.001012         240
 set_dd_magatom                          0.000966         241
 strehar                                 0.000883           1
 forloc                                  0.000714           1
 fewald                                  0.000334           1
 chggra                                  0.000226           1
 brgrid                                  0.000125           1
 rsp                                     0.000102           1
 fordep                                  0.000039           1
 crpa_reader                             0.000026           1
 potlok_metagga                          0.000020         240
 rcp                                     0.000015           1
 posmap                                  0.000012           2
 acc_cufft_makeplans                     0.000007           3
 rotate_active_occupied_orbital          0.000000           1
 redis_pw_over_bands                     0.000000           1
  summed up times     2449.837146997452

 Accumulative profile

 total_time                           2449.837147           1
 elmin                                2411.441518           1
 eddav                                1971.792366         243
 lapack                                379.240363      824237
 hamiltmu                              377.354858      824237
 m_sumb_d                              350.557609     2513742
 set_dd_paw                            338.658705         241
 raccmu_                               325.771316      824237
 redis_pw                              201.038365     4560686
 newband                                92.997763      845621
 m_alltoall_d                           83.606585    11975798
 redis_proj                             80.728898     5781568
 densta                                 59.305637         244
 fftwav_mpi                             58.568592     3192832
 fftwav                                 54.268050     3192832
 set_charge                             47.233759         239
 phaser                                 46.318282       21956
 eccp                                   38.688476      427680
 soft_charge                            37.067020         239
 fft3d                                  36.373436     4841306
 orth1                                  26.911269     2472975
 kinhamil                               26.833325     1648474
 racc0mu_acc                            24.268023      824237
 w1_copy                                24.098686     4945422
 overl                                  23.934707     2869356
 fftext_mpi                             19.302629     1648474
 rpromu_acc                             18.779521      616117
 w1_projall                             18.423238      610397
 m_bcast_z                              17.551630      831277
 setup_precond                          15.596207      427680
 fft3d_mpi                              14.254699     1655723
 m_bcast_d                              13.444561     1648961
 overl_mu                               12.810191      824237
 ggemm                                  11.532890     1038077
 init_acc                               11.512447           1
 pw_charge                               7.691067      300684
 vhamil                                  7.516655     1648474
 depsum                                  6.774942         239
 apply_precond                           6.703038     1220794
 force_and_stress                        5.871894           1
 acc_init_cublas                         3.550657           1
 strnlr                                  3.041940           1
 rpro_isp                                2.847796         572
 augmentation_charge                     1.981366         240
 potlok                                  1.746284         241
 setdij_                                 1.539458         267
 fftbrc_mpi                              1.521667        7249
 fftbas_plan_mpi                         1.517976        7249
 brmix                                   1.145428         239
 acc_init_cusolver                       1.051547           1
 fornlr                                  1.012514           1
 broyd                                   0.863900         239
 lincom                                  0.770597       21472
 map_backward                            0.552753        7722
 map_forward                             0.437520        6776
 orthch                                  0.426855           1
 map_scatter                             0.337676        8209
 m_alltoallv_z                           0.319222        8209
 acc_cufft_makeplans                     0.303618           3
 acc_cufft_makeplan                      0.303611          19
 fft_gq                                  0.274593         239
 dfftw_execute                           0.270751        2952
 map_gather                              0.248654        8209
 proall                                  0.243219           1
 truncate_high_frequency_w1              0.167789     2076154
 sphpro_fast                             0.164309           2
 brget                                   0.163283       52388
 rspher_all                              0.147931          14
 setg0                                   0.124943         241
 brsav                                   0.044256       14941
 fordep                                  0.034180           1
 choleski                                0.020005          88
 pothar                                  0.019705         242
 inisym                                  0.004191           1
 brpre                                   0.004067         478
 stufak                                  0.002537           1
 fewald                                  0.001609           1
 strelo                                  0.001457           1
 forhar                                  0.001379           2
 strkin                                  0.001037           1
 vectorpot                               0.001012         240
 set_dd_magatom                          0.000966         241
 strehar                                 0.000892           1
 chggra                                  0.000739           1
 forloc                                  0.000721           1
 brgrid                                  0.000125           1
 rsp                                     0.000102           1
 crpa_reader                             0.000026           1
 potlok_metagga                          0.000020         240
 rcp                                     0.000015           1
 posmap                                  0.000012           2
 rotate_active_occupied_orbital          0.000000           1
 redis_pw_over_bands                     0.000000           1

Profiling took  10.366901  5.025499  0.003202  0.003140 seconds
Profiling took   6.490224 seconds