 vasp.6.3.2 27Jun22 (build Jul  3 2023 11:46:21) complex
 executed on    LinuxNV_CrayMPICH date 2024.04.21  20:20:19

 INCAR:
   ALGO = Fast
   EDIFF = 0.002
   ENCUT = 520.0
   IBRION = 2
   ICHARG = 1
   ISIF = 3
   ISMEAR = -5
   ISPIN = 2
   KPOINT_BSE = -1 0 0 0
   LORBIT = 11
   LREAL = Auto
   LWAVE = False
   MAGMOM = 4*0.6 4*5.0 4*7.0 28*0.6
   NELM = 1000
   NSW = 99
   PREC = accurate
   SIGMA = 0.05
   SYSTEM = Ba4ce4eu4hf4o24-mp_bulk_relax

 POTCAR:    PAW_PBE Ba_sv 06Sep2000
 POTCAR:    PAW_PBE Ce 23Dec2003
 POTCAR:    PAW_PBE Eu 23Dec2003
 POTCAR:    PAW_PBE Hf_pv 06Sep2000
 POTCAR:    PAW_PBE O 08Apr2002
 POTCAR:    PAW_PBE Ba_sv 06Sep2000
   VRHFIN =Ba: 5s5p6s

   TITEL  = PAW_PBE Ba_sv 06Sep2000
   POMASS =  137.327; ZVAL   =   10.000    mass and valenz
   ENMAX  =  187.181; ENMIN  =  140.386 eV

   TITEL  = PAW_PBE Ce 23Dec2003
   POMASS =  140.115; ZVAL   =   12.000    mass and valenz
   ENMAX  =  273.042; ENMIN  =  204.781 eV

   TITEL  = PAW_PBE Eu 23Dec2003
   POMASS =  151.965; ZVAL   =   17.000    mass and valenz
   ENMAX  =  249.668; ENMIN  =  187.251 eV

   TITEL  = PAW_PBE Hf_pv 06Sep2000
   POMASS =  178.490; ZVAL   =   10.000    mass and valenz
   ENMAX  =  220.334; ENMIN  =  165.250 eV

   TITEL  = PAW_PBE O 08Apr2002
   POMASS =   16.000; ZVAL   =    6.000    mass and valenz
   ENMAX  =  400.000; ENMIN  =  300.000 eV

 Optimization of the real space projectors (new method)

 maximal supplied QI-value         = 13.42
 optimisation between [QCUT,QGAM] = [ 11.67, 23.35] = [ 38.16,152.62] Ry
 Optimized for a Real-space Cutoff    1.68 Angstroem

   l    n(q)    QCUT    max X(q) W(low)/X(q) W(high)/X(q)  e(spline)
   0     12    11.673    13.244    0.27E-04    0.53E-05    0.55E-07
   0     12    11.673    14.240    0.39E-04    0.74E-05    0.11E-06
   1     11    11.673     4.828    0.65E-05    0.14E-04    0.51E-07
   1     11    11.673     3.934    0.16E-04    0.58E-04    0.38E-06
   2     11    11.673    87.714    0.23E-03    0.16E-03    0.84E-06
   2     11    11.673    59.874    0.22E-03    0.15E-03    0.81E-06
 Optimization of the real space projectors (new method)

[...]

   l    n(q)    QCUT    max X(q) W(low)/X(q) W(high)/X(q)  e(spline)
   1     11    11.633    53.935    0.73E-04    0.52E-04    0.20E-06
   1     11    11.633    55.378    0.75E-04    0.53E-04    0.21E-06
   2     10    11.633    48.043    0.63E-04    0.41E-03    0.13E-05
   2     10    11.633    39.488    0.59E-04    0.39E-03    0.12E-05
   0     11    11.633   121.653    0.25E-04    0.52E-04    0.84E-06
   0     11    11.633    66.520    0.23E-04    0.47E-04    0.77E-06
 Optimization of the real space projectors (new method)

 maximal supplied QI-value         = 24.76
 optimisation between [QCUT,QGAM] = [ 11.64, 23.27] = [ 37.91,151.63] Ry
 Optimized for a Real-space Cutoff    1.14 Angstroem

   l    n(q)    QCUT    max X(q) W(low)/X(q) W(high)/X(q)  e(spline)
   0      8    11.635    20.381    0.10E-03    0.33E-03    0.24E-06
   0      8    11.635    15.268    0.11E-03    0.35E-03    0.26E-06
   1      7    11.635     5.964    0.24E-03    0.31E-03    0.30E-06
   1      7    11.635     5.382    0.22E-03    0.25E-03    0.26E-06
  PAW_PBE Ba_sv 06Sep2000               :
  PAW_PBE Ce 23Dec2003                  :
  PAW_PBE Eu 23Dec2003                  :
  PAW_PBE Hf_pv 06Sep2000               :
  PAW_PBE O 08Apr2002                   :

 POSCAR: Ba4 Ce4 Eu4 Hf4 O24
  positions in direct lattice
 exchange correlation table for  LEXCH =        8
   RHO(1)=    0.500       N(1)  =     2000
   RHO(2)=  100.500       N(2)  =     4000

 VTST: version 4.2, (08/11/21)

 CHAIN: initializing optimizer

 OPT: Using VASP Conjugate-Gradient optimizer
 CHAIN: Read ICHAIN             0

 POSCAR: Ba4 Ce4 Eu4 Hf4 O24
  positions in direct lattice

 ion  position               nearest neighbor table
   1  0.000  0.000  0.000-  21 3.03  22 3.03  23 3.03  24 3.03  17 3.03  18 3.03  19 3.03  20 3.03
                            25 3.07  26 3.07  27 3.07  28 3.07  13 3.72  14 3.72  15 3.72  16 3.72
   2  0.500  0.500  0.500-  33 3.03  34 3.03  35 3.03  36 3.03  29 3.03  30 3.03  31 3.03  32 3.03
                            37 3.07  38 3.07  39 3.07  40 3.07  13 3.72  14 3.72  15 3.72  16 3.72
   3  0.500  0.500  0.000-  29 2.64  30 2.64  31 2.64  32 2.64  25 3.12  26 3.12  27 3.12  28 3.12
                             5 3.72   6 3.72   7 3.72   8 3.72  13 3.72  14 3.72  15 3.72  16 3.72
   4  0.000  0.000  0.500-  17 2.64  18 2.64  19 2.64  20 2.64  37 3.12  38 3.12  39 3.12  40 3.12
                             5 3.72   6 3.72   7 3.72   8 3.72  13 3.72  14 3.72  15 3.72  16 3.72
   5  0.750  0.750  0.750-  20 2.30  32 2.30  28 2.33  40 2.33  36 2.34  24 2.34   3 3.72   4 3.72
                             1 3.72   2 3.72
   6  0.250  0.250  0.750-  19 2.30  31 2.30  25 2.33  37 2.33  34 2.34  22 2.34   3 3.72   4 3.72
                             1 3.72   2 3.72
   7  0.250  0.750  0.250-  18 2.30  30 2.30  27 2.33  39 2.33  33 2.34  21 2.34   3 3.72   4 3.72
                             1 3.72   2 3.72
   8  0.750  0.250  0.250-  17 2.30  29 2.30  26 2.33  38 2.33  35 2.34  23 2.34   3 3.72   4 3.72
                             1 3.72   2 3.72
   9  0.000  0.500  0.500-  33 2.49  34 2.49  35 2.49  36 2.49
  10  0.500  0.000  0.500-  37 2.49  38 2.49  39 2.49  40 2.49
  11  0.500  0.000  0.000-  21 2.49  22 2.49  23 2.49  24 2.49
  12  0.000  0.500  0.000-  25 2.49  26 2.49  27 2.49  28 2.49
  13  0.250  0.250  0.250-  17 2.08  29 2.08  25 2.11  37 2.11  33 2.11  21 2.11   3 3.72   4 3.72
                             1 3.72   2 3.72
  14  0.750  0.750  0.250-  18 2.08  30 2.08  28 2.11  40 2.11  35 2.11  23 2.11   3 3.72   4 3.72
                             1 3.72   2 3.72
  15  0.750  0.250  0.750-  19 2.08  31 2.08  26 2.11  38 2.11  36 2.11  24 2.11   3 3.72   4 3.72
                             1 3.72   2 3.72
  16  0.250  0.750  0.750-  20 2.08  32 2.08  27 2.11  39 2.11  34 2.11  22 2.11   3 3.72   4 3.72
                             1 3.72   2 3.72
  17  0.013  0.213  0.280-  13 2.08   8 2.30   4 2.64   1 3.03
  18  0.987  0.787  0.280-  14 2.08   7 2.30   4 2.64   1 3.03
  19  0.987  0.213  0.720-  15 2.08   6 2.30   4 2.64   1 3.03
  20  0.013  0.787  0.720-  16 2.08   5 2.30   4 2.64   1 3.03
  21  0.290  0.013  0.200-  13 2.11   7 2.34  11 2.49   1 3.03
  22  0.290  0.987  0.800-  16 2.11   6 2.34  11 2.49   1 3.03
  23  0.710  0.987  0.200-  14 2.11   8 2.34  11 2.49   1 3.03
  24  0.710  0.013  0.800-  15 2.11   5 2.34  11 2.49   1 3.03
  25  0.202  0.293  0.013-  13 2.11   6 2.33  12 2.49   1 3.07   3 3.12
  26  0.798  0.293  0.987-  15 2.11   8 2.33  12 2.49   1 3.07   3 3.12
  27  0.202  0.707  0.987-  16 2.11   7 2.33  12 2.49   1 3.07   3 3.12
  28  0.798  0.707  0.013-  14 2.11   5 2.33  12 2.49   1 3.07   3 3.12
  29  0.487  0.287  0.220-  13 2.08   8 2.30   3 2.64   2 3.03
  30  0.513  0.713  0.220-  14 2.08   7 2.30   3 2.64   2 3.03
  31  0.513  0.287  0.780-  15 2.08   6 2.30   3 2.64   2 3.03
  32  0.487  0.713  0.780-  16 2.08   5 2.30   3 2.64   2 3.03
  33  0.210  0.487  0.300-  13 2.11   7 2.34   9 2.49   2 3.03
  34  0.210  0.513  0.700-  16 2.11   6 2.34   9 2.49   2 3.03
  35  0.790  0.513  0.300-  14 2.11   8 2.34   9 2.49   2 3.03
  36  0.790  0.487  0.700-  15 2.11   5 2.34   9 2.49   2 3.03
  37  0.298  0.207  0.487-  13 2.11   6 2.33  10 2.49   2 3.07   4 3.12
  38  0.702  0.207  0.513-  15 2.11   8 2.33  10 2.49   2 3.07   4 3.12
  39  0.298  0.793  0.513-  16 2.11   7 2.33  10 2.49   2 3.07   4 3.12
  40  0.702  0.793  0.487-  14 2.11   5 2.33  10 2.49   2 3.07   4 3.12

  LATTYP: Found a simple orthorhombic cell.
 ALAT       =     8.5883056700
 B/A-ratio  =     1.0015670378
 C/A-ratio  =     1.0033228114

  Lattice vectors:

 A1 = (   0.0000000000,   0.0000000000,   8.5883056700)
 A2 = (   8.6017638700,   0.0000000000,   0.0000000000)
 A3 = (   0.0000000000,   8.6168429900,   0.0000000000)

Analysis of symmetry for initial positions (statically):
 Subroutine PRICEL returns:
 Original cell was already a primitive cell.

 Routine SETGRP: Setting up the symmetry group for a
 simple orthorhombic supercell.

 Subroutine GETGRP returns: Found  8 space group operations
 (whereof  4 operations were pure point group operations)
 out of a pool of  8 trial point group operations.

The static configuration has the point symmetry D_2 .
 The point group associated with its full space group is D_2h.

Analysis of symmetry for dynamics (positions and initial velocities):
 Subroutine PRICEL returns:
 Original cell was already a primitive cell.

[...]

The dynamic configuration has the point symmetry D_2 .
 The point group associated with its full space group is D_2h.

Analysis of structural, dynamic, and magnetic symmetry:
 Subroutine PRICEL returns:
 Original cell was already a primitive cell.

 Routine SETGRP: Setting up the symmetry group for a
 simple orthorhombic supercell.

 Subroutine GETGRP returns: Found  8 space group operations
 (whereof  4 operations were pure point group operations)
 out of a pool of  8 trial point group operations.

The overall configuration has the point symmetry D_2 .
 The point group associated with its full space group is D_2h.

 Subroutine INISYM returns: Found  8 space group operations
 (whereof  4 operations are pure point group operations),
 and found     1 'primitive' translations

                                     Primitive cell

  volume of cell :     636.5656

  direct lattice vectors                    reciprocal lattice vectors
     8.601763870  0.000000000  0.000000000     0.116255226  0.000000000  0.000000000
     0.000000000  8.616842990  0.000000000     0.000000000  0.116051784  0.000000000
     0.000000000  0.000000000  8.588305670     0.000000000  0.000000000  0.116437402

  length of vectors
     8.601763870  8.616842990  8.588305670     0.116255226  0.116051784  0.116437402

  position of ions in fractional coordinates (direct lattice)
     0.000000000  0.000000000  0.000000000
     0.500000000  0.500000000  0.500000000
     0.500000000  0.500000000  0.000000000
     0.000000000  0.000000000  0.500000000
     0.750000000  0.750000000  0.750000000
     0.250000000  0.250000000  0.750000000
     0.250000000  0.750000000  0.250000000
     0.750000000  0.250000000  0.250000000
     0.000000000  0.500000000  0.500000000
     0.500000000  0.000000000  0.500000000
     0.500000000  0.000000000  0.000000000
     0.000000000  0.500000000  0.000000000
     0.250000000  0.250000000  0.250000000
     0.750000000  0.750000000  0.250000000
     0.750000000  0.250000000  0.750000000
     0.250000000  0.750000000  0.750000000
     0.012591060  0.213400100  0.280143740
     0.987408940  0.786599900  0.280143740
     0.987408940  0.213400100  0.719856260
     0.012591060  0.786599900  0.719856260
     0.289956690  0.013421750  0.199711980
     0.289956690  0.986578250  0.800288020
     0.710043310  0.986578250  0.199711980
     0.710043310  0.013421750  0.800288020
     0.202071230  0.293250130  0.013137420
     0.797928770  0.293250130  0.986862580
     0.202071230  0.706749870  0.986862580
     0.797928770  0.706749870  0.013137420
[...]
  323        brmix                                 0.087123                            6   3
  324          m_sumb_d                              0.000283                         36   4
  325          brpre                                 0.000302                         12   4
  326          setg0                                 0.010967                          6   4
  327          broyd                                 0.061878                          6   4
  328            m_sumb_d                              0.001127                      268   5
  329            brget                                 0.013514                     1184   5
  330            brsav                                 0.002820                      256   5
  331        m_bcast_d                             0.000199                           12   3
  332      potlok                                0.048369                              6   2
  333        fft3d_mpi                             0.029603                          156   3
  334          fftbrc_mpi                            0.023545                        156   4
  335            fftbas_plan_mpi                       0.023468                      156   5
  336              map_forward                           0.010487                    168   6
  337                map_gather                            0.002258                   96   7
  338                m_alltoallv_z                         0.001133                   96   7
  339                map_scatter                           0.005880                   96   7
  340              map_backward                          0.008193                    144   6
  341                map_gather                            0.001965                   72   7
  342                m_alltoallv_z                         0.000803                   72   7
  343                map_scatter                           0.004259                   72   7
  344        m_sumb_d                              0.000161                           30   3
  345        pothar                                0.000582                            6   3
  346          m_sumb_d                              0.000065                          6   4
  347        m_bcast_d                             0.000140                           12   3
  348      potlok_metagga                        0.000000                              6   2
  349      set_dd_magatom                        0.000021                              6   2
  350      set_dd_paw                            0.202633                              6   2
  351        m_sumb_d                              0.003402                           42   3
  352      wavpre_noio                           0.405830                              5   2
  353        stufak                                0.164702                            5   3
  354      densta                                2.801538                              1   2

 Flat profile

 eccp                                  428.182926     4791466
 raccmu_                               267.519942      695976
 i2                                    255.772229      678153
 w1_gemv                               212.730497     8738454
 eccp_nl                               206.617448     3715306
 eddrmm                                141.739669        1111
 m_sumb_d                              125.753949      176702
 redis_pw                              125.637280      435594
 phaser                                101.232437       18560
 cnorma                                100.154560     3715306
 eddiag                                 96.340545        1111
 overl1                                 73.018228     4369227
 m_alltoall_d                           70.543795    12020082
 fft3d                                  66.633976     9458489
 hamilt_local                           65.734031     1066560
 densta                                 60.941166        1122
 fftwav                                 56.903401     5697225
 w1_dscal                               44.558463     7431391
 soft_charge                            43.590775        1117
 w1_copy                                42.812604     8084110
 setup_precond                          38.297209     1076160
 set_dd_paw                             37.574643        1129
 apply_precond                          34.578094     7623291
 w1_gaxpy                               33.171228     6535837
 w1_dot                                 30.301078     1061405
 rpromu_acc                             29.714710      709896
 w1_daxpy                               29.572852     5307804
 newband                                28.714213      713912
 pw_charge                              27.870560      773632
 hamiltmu                               27.416564      695976
 racc0mu_acc                            25.345213      695976
 augmentation_charge                    19.092790        1117
 set_charge                             18.748745        1117
 setdij_                                18.664929        1280
 depsum                                 17.831738        1117
 kinhamil                               16.640851     3761264
 fft3d_mpi                              16.120093     3795090
 redis_proj                             15.992863      230648
 vhamil                                 15.953139     3761264
 fftext_mpi                             15.072829     3761264
 zhegv                                  13.056543     1592497
 init_acc                               11.256511           1
 overl_mu                               10.699116      695976
 total_time                              9.662668           1
 eddav                                   9.557962          10
 choleski                                8.441604       17872
 broyd                                   8.319062        1117
 lapack                                  8.110127       17823
 fftwav_mpi                              7.942016     5697225
 potlok                                  6.928210        1123
 i3                                      6.855774      678153
 orth1                                   6.550526      338653
 dfftw_execute                           4.112455       13434
 rpro_isp                                3.949389         624
 orthch                                  3.188428        1117
 map_scatter                             3.009866       38306
 brget                                   2.731807      239316
 brmix                                   2.582128        1117
 elmin                                   2.536173           6
 m_alltoallv_z                           2.433546       38306
 map_gather                              2.424164       38306
 acc_init_cublas                         2.421907           1
 rspher_all                              2.115949          79
 setg0                                   2.085272        1129
 fftbas_plan_mpi                         1.160134       33826
 lincom                                  1.105647       35808
 m_bcast_z                               0.954376       21663
 overl                                   0.887268       97340
 i1                                      0.793972      678153
 acc_init_cusolver                       0.789369           1
 brsav                                   0.739620       68231
 w1_projall                              0.619549      691176
 sphpro_fast                             0.412349           7
 proall                                  0.396952           6
 ggemm                                   0.373930       22623
 m_bcast_d                               0.320664       37917
 truncate_high_frequency_w1              0.280015     3770864
 wavpre_noio                             0.241128           5
 map_forward                             0.237795       31608
 map_backward                            0.229656       36044
 stufak                                  0.197934           6
 force_and_stress                        0.186760           6
 fft_gq                                  0.162582        1117
 acc_cufft_makeplan                      0.108456          19
 pothar                                  0.097103        1129
 brpre                                   0.058511        2234
 forhar                                  0.039438          12
 strnlr                                  0.030466           6
 forloc                                  0.019925           6
 strelo                                  0.019860           6
 fftbrc_mpi                              0.017806       33826
 strehar                                 0.015794           6
 rsp                                     0.013344           6
 strkin                                  0.011832           6
 fornlr                                  0.010309           6
 set_dd_magatom                          0.004819        1129
 inisym                                  0.004741           1
 vectorpot                               0.004474        1118
 shift_bands_between_low_high            0.002373       17776
 chggra                                  0.001493           6
 fordep                                  0.000880           6
 rcp                                     0.000425           6
 fewald                                  0.000373           6
 brgrid                                  0.000338           1
 potlok_metagga                          0.000102        1123
 posmap                                  0.000075           2
 crpa_reader                             0.000025           1
 acc_cufft_makeplans                     0.000009           3
 rotate_active_occupied_orbital          0.000003           6
 redis_pw_over_bands                     0.000002           6
  summed up times     3234.616142034531

 Accumulative profile

 total_time                           3234.616142           1
 elmin                                3183.025446           6
 eddrmm                               2346.713603        1111
 i2                                    720.904632      678153
 i3                                    711.505265      678153
 eccp                                  428.182926     4791466
 hamiltmu                              384.636401      695976
 eddiag                                331.723748        1111
 cnorma                                306.772008     3715306
 raccmu_                               303.564272      695976
 w1_gemv                               285.748725     8738454
 eccp_nl                               206.617448     3715306
 newband                               196.889683      713912
 set_charge                            183.873988        1117
 redis_pw                              159.580722      435594
 orthch                                132.822159        1117
 m_sumb_d                              125.753949      176702
 soft_charge                           116.173059        1117
 fftwav_mpi                            106.882236     5697225
 phaser                                101.232437       18560
 fftwav                                 98.940220     5697225
 hamilt_local                           85.451703     1066560
 overl1                                 73.018228     4369227
 m_alltoall_d                           70.543795    12020082
 fft3d                                  66.633976     9458489
 densta                                 60.941166        1122
 kinhamil                               57.420098     3761264
 fft3d_mpi                              54.342673     3795090
 redis_proj                             52.593215      230648
 eddav                                  44.983799          10
 w1_dscal                               44.558463     7431391
 w1_copy                                42.812604     8084110
 fftext_mpi                             40.779247     3761264
 setup_precond                          38.297209     1076160
 set_dd_paw                             38.246962        1129
 apply_precond                          34.578094     7623291
 w1_gaxpy                               33.171228     6535837
 w1_dot                                 30.301078     1061405
 rpromu_acc                             29.714710      709896
 w1_daxpy                               29.572852     5307804
 pw_charge                              27.870560      773632
 augmentation_charge                    27.208644        1117
 racc0mu_acc                            25.345213      695976
 w1_projall                             25.160292      691176
 force_and_stress                       20.282608           6
 setdij_                                19.339592        1280
 depsum                                 18.409466        1117
 brmix                                  16.837187        1117
 vhamil                                 15.953139     3761264
 fft_gq                                 14.881461        1117
 fftbrc_mpi                             13.625423       33826
 fftbas_plan_mpi                        13.607618       33826
 zhegv                                  13.056543     1592497
 potlok                                 12.824081        1123
 i1                                     12.654087      678153
 strnlr                                 12.257075           6
 broyd                                  12.041679        1117
 rpro_isp                               11.508059         624
 init_acc                               11.256511           1
 overl_mu                               10.699116      695976
 choleski                                8.441604       17872
 lapack                                  8.110127       17823
 orth1                                   6.550526      338653
 map_backward                            6.189990       36044
 dfftw_execute                           4.112455       13434
 fornlr                                  4.088080           6
 map_scatter                             3.009866       38306
 brget                                   2.731807      239316
 m_alltoallv_z                           2.433546       38306
 map_gather                              2.424164       38306
 acc_init_cublas                         2.421907           1
 map_forward                             2.145039       31608
 rspher_all                              2.115949          79
 setg0                                   2.085272        1129
 lincom                                  1.105647       35808
 proall                                  1.074621           6
 m_bcast_z                               0.954376       21663
 overl                                   0.887268       97340
 acc_init_cusolver                       0.789369           1
 brsav                                   0.739620       68231
 fordep                                  0.558111           6
 sphpro_fast                             0.425586           7
 wavpre_noio                             0.405830           5
 ggemm                                   0.373930       22623
 m_bcast_d                               0.320664       37917
 truncate_high_frequency_w1              0.280015     3770864
 stufak                                  0.197934           6
 acc_cufft_makeplans                     0.108465           3
 acc_cufft_makeplan                      0.108456          19
 pothar                                  0.108149        1129
 brpre                                   0.058511        2234
 forhar                                  0.039789          12
 strelo                                  0.021991           6
 forloc                                  0.020325           6
 strehar                                 0.015819           6
 fewald                                  0.014760           6
 rsp                                     0.013344           6
 strkin                                  0.011931           6
 chggra                                  0.005620           6
 set_dd_magatom                          0.004819        1129
 inisym                                  0.004816           1
 vectorpot                               0.004474        1118
 shift_bands_between_low_high            0.002373       17776
 rcp                                     0.000425           6
 brgrid                                  0.000338           1
 potlok_metagga                          0.000102        1123
 posmap                                  0.000075           2
 crpa_reader                             0.000025           1
 rotate_active_occupied_orbital          0.000003           6
 redis_pw_over_bands                     0.000002           6

Profiling took  12.494362  9.178289  0.003373  0.003302 seconds
Profiling took  10.879189 seconds