 vasp.6.3.2 27Jun22 (build Jul  3 2023 11:46:21) complex
 executed on    LinuxNV_CrayMPICH date 2024.04.19  17:33:25

 INCAR:
   ADDGRID = True
   ALGO = Normal
   EDIFF = 0.001
   ENCUT = 520.0
   IBRION = -1
   ICHARG = 0
   ISIF = 3
   ISMEAR = -5
   ISPIN = 2
   KPOINT_BSE = -1 0 0 0
   LAECHG = True
   LASPH = True
   LCHARG = True
   LELF = True
   LORBIT = 11
   LREAL = Auto
   LVHAR = True
   LWAVE = False
   MAGMOM = 4*7.0 16*0.6
   NELM = 1000
   NSW = 0
   PREC = accurate
   SIGMA = 0.05

 POTCAR:    PAW_PBE Eu 23Dec2003
 POTCAR:    PAW_PBE Rh_pv 25Jan2005
 POTCAR:    PAW_PBE O 08Apr2002
 POTCAR:    PAW_PBE Eu 23Dec2003
   VRHFIN =Eu : [core=Kr4d]

   TITEL  = PAW_PBE Eu 23Dec2003
   POMASS =  151.965; ZVAL   =   17.000    mass and valenz
   ENMAX  =  249.668; ENMIN  =  187.251 eV

   TITEL  = PAW_PBE Rh_pv 25Jan2005
   POMASS =  102.906; ZVAL   =   15.000    mass and valenz
   ENMAX  =  247.408; ENMIN  =  185.556 eV

   TITEL  = PAW_PBE O 08Apr2002
   POMASS =   16.000; ZVAL   =    6.000    mass and valenz
   ENMAX  =  400.000; ENMIN  =  300.000 eV

 Optimization of the real space projectors (new method)

 maximal supplied QI-value         = 13.42
 optimisation between [QCUT,QGAM] = [ 11.67, 23.35] = [ 38.16,152.62] Ry
 Optimized for a Real-space Cutoff    1.63 Angstroem

   l    n(q)    QCUT    max X(q) W(low)/X(q) W(high)/X(q)  e(spline)
   0     11    11.673    10.400    0.14E-04    0.18E-05    0.24E-07
   0     11    11.673    10.768    0.21E-04    0.32E-05    0.49E-07
   1     11    11.673     4.094    0.40E-05    0.13E-04    0.93E-07
   1     11    11.673     4.009    0.11E-04    0.46E-04    0.33E-06
   2     10    11.673    29.030    0.79E-04    0.60E-04    0.70E-06
   2     10    11.673    19.941    0.80E-04    0.60E-04    0.71E-06
   3     10    11.673    88.889    0.23E-03    0.29E-03    0.30E-06
   3     10    11.673    76.102    0.23E-03    0.30E-03    0.30E-06
 Optimization of the real space projectors (new method)

[...]

   l    n(q)    QCUT    max X(q) W(low)/X(q) W(high)/X(q)  e(spline)
   1     10    11.607     3.143    0.27E-04    0.48E-04    0.10E-06
   1     10    11.607     5.034    0.71E-04    0.17E-03    0.32E-06
   2      9    11.607    64.180    0.22E-03    0.59E-04    0.28E-06
   2      9    11.607    61.342    0.22E-03    0.61E-04    0.29E-06
   0     10    11.607    55.593    0.52E-04    0.32E-04    0.17E-06
   0     10    11.607    26.178    0.47E-04    0.29E-04    0.15E-06
 Optimization of the real space projectors (new method)

 maximal supplied QI-value         = 24.76
 optimisation between [QCUT,QGAM] = [ 11.64, 23.27] = [ 37.91,151.63] Ry
 Optimized for a Real-space Cutoff    1.14 Angstroem

   l    n(q)    QCUT    max X(q) W(low)/X(q) W(high)/X(q)  e(spline)
   0      8    11.635    20.381    0.10E-03    0.33E-03    0.24E-06
   0      8    11.635    15.268    0.11E-03    0.35E-03    0.26E-06
   1      7    11.635     5.964    0.24E-03    0.31E-03    0.30E-06
   1      7    11.635     5.382    0.22E-03    0.25E-03    0.26E-06
  PAW_PBE Eu 23Dec2003                  :
  PAW_PBE Rh_pv 25Jan2005               :
  PAW_PBE O 08Apr2002                   :

 POSCAR: Eu4 Rh4 O12
  positions in direct lattice
 exchange correlation table for  LEXCH =        8
   RHO(1)=    0.500       N(1)  =     2000
   RHO(2)=  100.500       N(2)  =     4000

 VTST: version 4.2, (08/11/21)

 CHAIN: initializing optimizer

 OPT: Using VASP Dynamics algorithm
 CHAIN: Read ICHAIN             0

 POSCAR: Eu4 Rh4 O12
  positions in direct lattice

 ion  position               nearest neighbor table
   1  0.025  0.075  0.750-  15 2.33   9 2.38  19 2.38  10 2.39  16 2.57  14 2.57  18 2.73  13 2.73
                             6 3.16   7 3.16   5 3.26   8 3.26
   2  0.975  0.925  0.250-  11 2.33  13 2.38  18 2.38  17 2.39  12 2.57  20 2.57  19 2.73   9 2.73
                             6 3.16   7 3.16   5 3.26   8 3.26
   3  0.525  0.425  0.250-  17 2.33  12 2.38  20 2.38  11 2.39  18 2.57  13 2.57  16 2.73  14 2.73
                             5 3.16   8 3.16   7 3.26   6 3.26
   4  0.475  0.575  0.750-  10 2.33  14 2.38  16 2.38  15 2.39   9 2.57  19 2.57  12 2.73  20 2.73
                             5 3.16   8 3.16   7 3.26   6 3.26
   5  0.500  0.000  0.500-  11 2.05  15 2.05  12 2.08  16 2.08   9 2.09  18 2.09   3 3.16   4 3.16
                             1 3.26   2 3.26
   6  0.000  0.500  0.000-  10 2.05  17 2.05  13 2.08  19 2.08  14 2.09  20 2.09   1 3.16   2 3.16
                             3 3.26   4 3.26
   7  0.000  0.500  0.500-  10 2.05  17 2.05   9 2.08  18 2.08  12 2.09  16 2.09   1 3.16   2 3.16
                             3 3.26   4 3.26
   8  0.500  0.000  0.000-  11 2.05  15 2.05  14 2.08  20 2.08  19 2.09  13 2.09   3 3.16   4 3.16
                             1 3.26   2 3.26
   9  0.187  0.804  0.553-   7 2.08   5 2.09   1 2.38   4 2.57   2 2.73
  10  0.889  0.464  0.750-   6 2.05   7 2.05   4 2.33   1 2.39
  11  0.389  0.036  0.250-   5 2.05   8 2.05   2 2.33   3 2.39
  12  0.687  0.696  0.447-   5 2.08   7 2.09   3 2.38   2 2.57   4 2.73
  13  0.813  0.196  0.053-   6 2.08   8 2.09   2 2.38   3 2.57   1 2.73
  14  0.313  0.304  0.947-   8 2.08   6 2.09   4 2.38   1 2.57   3 2.73
  15  0.611  0.964  0.750-   5 2.05   8 2.05   1 2.33   4 2.39
  16  0.313  0.304  0.553-   5 2.08   7 2.09   4 2.38   1 2.57   3 2.73
  17  0.111  0.536  0.250-   6 2.05   7 2.05   3 2.33   2 2.39
  18  0.813  0.196  0.447-   7 2.08   5 2.09   2 2.38   3 2.57   1 2.73
  19  0.187  0.804  0.947-   6 2.08   8 2.09   1 2.38   4 2.57   2 2.73
  20  0.687  0.696  0.053-   8 2.08   6 2.09   3 2.38   2 2.57   4 2.73

  LATTYP: Found a simple orthorhombic cell.
 ALAT       =     5.4126670000
 B/A-ratio  =     1.0783809534
 C/A-ratio  =     1.4444164032

  Lattice vectors:

 A1 = (   5.4126670000,   0.0000000000,   0.0000000000)
 A2 = (   0.0000000000,   5.8369170000,   0.0000000000)
 A3 = (   0.0000000000,   0.0000000000,   7.8181450000)

Analysis of symmetry for initial positions (statically):
 Subroutine PRICEL returns:
 Original cell was already a primitive cell.

 Routine SETGRP: Setting up the symmetry group for a
 simple orthorhombic supercell.

 Subroutine GETGRP returns: Found  8 space group operations
 (whereof  2 operations were pure point group operations)
 out of a pool of  8 trial point group operations.

The static configuration has the point symmetry S_2 .
 The point group associated with its full space group is D_2h.

Analysis of symmetry for dynamics (positions and initial velocities):
 Subroutine PRICEL returns:
 Original cell was already a primitive cell.

[...]

The dynamic configuration has the point symmetry S_2 .
 The point group associated with its full space group is D_2h.

Analysis of structural, dynamic, and magnetic symmetry:
 Subroutine PRICEL returns:
 Original cell was already a primitive cell.

 Routine SETGRP: Setting up the symmetry group for a
 simple orthorhombic supercell.

 Subroutine GETGRP returns: Found  8 space group operations
 (whereof  2 operations were pure point group operations)
 out of a pool of  8 trial point group operations.

The overall configuration has the point symmetry S_2 .
 The point group associated with its full space group is D_2h.

 Subroutine INISYM returns: Found  8 space group operations
 (whereof  2 operations are pure point group operations),
 and found     1 'primitive' translations

                                     Primitive cell

  volume of cell :     247.0009

  direct lattice vectors                    reciprocal lattice vectors
     5.412667000  0.000000000  0.000000000     0.184751805  0.000000000  0.000000000
     0.000000000  5.836917000  0.000000000     0.000000000  0.171323320  0.000000000
     0.000000000  0.000000000  7.818145000     0.000000000  0.000000000  0.127907579

  length of vectors
     5.412667000  5.836917000  7.818145000     0.184751805  0.171323320  0.127907579

  position of ions in fractional coordinates (direct lattice)
     0.024826000  0.075338000  0.750000000
     0.975174000  0.924662000  0.250000000
     0.524826000  0.424662000  0.250000000
     0.475174000  0.575338000  0.750000000
     0.500000000  0.000000000  0.500000000
     0.000000000  0.500000000  0.000000000
     0.000000000  0.500000000  0.500000000
     0.500000000  0.000000000  0.000000000
     0.186727000  0.803811000  0.553175000
     0.889370000  0.464271000  0.750000000
     0.389370000  0.035729000  0.250000000
     0.686727000  0.696189000  0.446825000
     0.813273000  0.196189000  0.053175000
     0.313273000  0.303811000  0.946825000
     0.610630000  0.964271000  0.750000000
     0.313273000  0.303811000  0.553175000
     0.110630000  0.535729000  0.250000000
     0.813273000  0.196189000  0.446825000
     0.186727000  0.803811000  0.946825000
     0.686727000  0.696189000  0.053175000

  ion indices of the primitive-cell ions
   primitive index   ion index
                 1           1
                 2           2
                 3           3
                 4           4
                 5           5
                 6           6
                 7           7
                 8           8
                 9           9
                10          10
                11          11
                12          12
                13          13
                14          14
                15          15
                16          16
                17          17
                18          18
                19          19
                20          20

 KPOINTS: Kpoints from vasprun.xml

Automatic generation of k-mesh.
 Grid dimensions read from file:
 generate k-points for:    5    4    3

 Generating k-lattice:

  Cartesian coordinates                     Fractional coordinates (reciprocal lattice)
     0.036950361  0.000000000  0.000000000     0.200000000  0.000000000  0.000000000
     0.000000000  0.042830830  0.000000000     0.000000000  0.250000000  0.000000000
     0.000000000  0.000000000  0.042635860     0.000000000  0.000000000  0.333333333

  Length of vectors
     0.036950361  0.042830830  0.042635860

  Shift w.r.t. Gamma in fractional coordinates (k-lattice)
     0.000000000  0.000000000  0.000000000

 TETIRR: Found    174 inequivalent tetrahedra from      360

 Subroutine IBZKPT returns following result:

 Found     18 irreducible k-points:

 Following reciprocal coordinates:
            Coordinates               Weight
  0.000000  0.000000  0.000000      1.000000
  0.200000  0.000000  0.000000      2.000000
  0.400000  0.000000  0.000000      2.000000
  0.000000  0.250000  0.000000      2.000000
  0.200000  0.250000  0.000000      4.000000
  0.400000  0.250000  0.000000      4.000000
  0.000000  0.500000  0.000000      1.000000
  0.200000  0.500000  0.000000      2.000000
  0.400000  0.500000  0.000000      2.000000
  0.000000  0.000000  0.333333      2.000000
  0.200000  0.000000  0.333333      4.000000
  0.400000  0.000000  0.333333      4.000000
  0.000000  0.250000  0.333333      4.000000
  0.200000  0.250000  0.333333      8.000000
  0.400000  0.250000  0.333333      8.000000
  0.000000  0.500000  0.333333      2.000000
[...]
  318                map_forward                           0.000192                    4   7
  319                  map_gather                            0.000044                  2   8
  320                  m_alltoallv_z                         0.000029                  2   8
  321                  map_scatter                           0.000092                  2   8
  322                map_backward                          0.000090                    2   7
  323                  map_gather                            0.000021                  1   8
  324                  m_alltoallv_z                         0.000012                  1   8
  325                  map_scatter                           0.000043                  1   8
  326          m_sumb_d                              0.000009                          2   4
  327          pothar                                0.000076                          1   4
  328            m_sumb_d                              0.000006                        1   5
  329        brmix                                 0.007858                            1   3
  330          m_sumb_d                              0.000053                          6   4
  331          brpre                                 0.000021                          2   4
  332          setg0                                 0.000825                          1   4
  333          broyd                                 0.006028                          1   4
  334            brget                                 0.001416                      326   5
  335            brsav                                 0.000655                      163   5
  336            m_sumb_d                              0.000690                       47   5
  337        m_bcast_d                             0.000030                            2   3
  338      potlok                                0.030285                              2   2
  339        fft3d_mpi                             0.019552                           36   3
  340          fftbrc_mpi                            0.016282                         36   4
  341            fftbas_plan_mpi                       0.016269                       36   5
  342              map_forward                           0.004673                     40   6
  343                map_gather                            0.001566                   24   7
  344                m_alltoallv_z                         0.001543                   24   7
  345                map_scatter                           0.001374                   24   7
  346              map_backward                          0.003929                     32   6
  347                map_gather                            0.001258                   16   7
  348                m_alltoallv_z                         0.001293                   16   7
  349                map_scatter                           0.001191                   16   7
  350              dfftw_execute                         0.005799                     30   6
  351        m_sumb_d                              0.000024                            5   3
  352        pothar                                0.001147                            2   3
  353          m_sumb_d                              0.000077                          2   4
  354        m_bcast_d                             0.001939                            4   3
  355      potlok_metagga                        0.000000                              1   2
  356      set_dd_magatom                        0.000004                              1   2
  357      set_dd_paw                            2.041424                              1   2
  358        m_sumb_d                              0.004792                            7   3
  359      augmentation_charge                   0.111404                              1   2
  360        fft3d_mpi                             0.032336                            2   3
  361          fftbrc_mpi                            0.027664                          2   4
  362            fftbas_plan_mpi                       0.027660                        2   5
  363              dfftw_execute                         0.018038                      6   6
  364              map_backward                          0.009407                      4   6
  365                map_gather                            0.002457                    2   7
  366                m_alltoallv_z                         0.004250                    2   7
  367                map_scatter                           0.002691                    2   7
  368      fftwav_mpi                            3.020675                           3780   2
  369        fftwav                                3.015933                         3780   3
  370          fft3d                                 2.879079                       3780   4
  371      densta                                9.484633                              1   2

 Flat profile

 set_dd_paw                            439.010186         218
 eddav                                 284.216212         220
 lapack                                279.514502      584425
 raccmu_                               236.255952      584425
 m_sumb_d                              231.281314     1779261
 redis_pw                              126.930901     3129936
 m_alltoall_d                           56.621570     8196356
 densta                                 45.485836         221
 fft3d                                  28.151326     3332890
 eccp                                   26.828346      277200
 redis_proj                             25.982556     3983180
 phaser                                 24.408789        8154
 fftwav                                 20.424919     2202482
 orth1                                  18.624377     1753455
 setdij_                                18.118218         244
 augmentation_charge                    17.298205         218
 racc0mu_acc                            17.158570      584425
 overl                                  16.659871     1983652
 w1_copy                                16.401303     3391224
 hamiltmu                               15.508627      584425
 rpromu_acc                             13.607766      446077
 m_bcast_z                              12.796957      589465
 total_time                             11.784138           1
 soft_charge                            11.528024         217
 init_acc                               11.067312           1
 dfftw_execute                          10.438358        5676
 setup_precond                          10.101363      277200
 m_bcast_d                               9.590044     1169291
 overl_mu                                9.006104      584425
 ggemm                                   7.619314      726985
 pw_charge                               5.683867      198706
 kinhamil                                5.197668     1130408
 vhamil                                  5.173071     1130408
 fftext_mpi                              4.739878     1130408
 apply_precond                           4.676593      853208
 depsum                                  4.479857         217
 newband                                 4.385626      592345
 fftwav_mpi                              2.881678     2202482
 m_alltoallv_z                           2.771601        8449
 acc_init_cublas                         2.427188           1
 fft3d_mpi                               2.128122     1137967
 map_scatter                             1.615103        8449
 set_charge                              1.501548         217
 map_gather                              1.406571        8449
 rpro_isp                                0.814701         234
 potlok                                  0.792656         218
 acc_init_cusolver                       0.785198           1
 broyd                                   0.673064         216
 w1_projall                              0.424554      441865
 elmin                                   0.405437           1
 fftbas_plan_mpi                         0.401129        7559
 lincom                                  0.285622        7956
 brmix                                   0.221584         216
 brget                                   0.211635       46883
 sphpro_fast                             0.209819           2
 rspher_all                              0.205264          14
 setg0                                   0.178763         218
 acc_cufft_makeplan                      0.128554          19
 truncate_high_frequency_w1              0.114595     1407608
 proall                                  0.072025           1
 brsav                                   0.057786       13388
 map_backward                            0.044420        7982
 map_forward                             0.041681        7136
 orthch                                  0.027896           1
 pothar                                  0.017826         219
 force_and_stress                        0.017383           1
 choleski                                0.014405          36
 fft_gq                                  0.010006         217
 stufak                                  0.007825           1
 strnlr                                  0.006341           1
 brpre                                   0.005292         432
 inisym                                  0.004477           1
 fftbrc_mpi                              0.004416        7559
 fornlr                                  0.002853           1
 forhar                                  0.002018           2
 strelo                                  0.001720           1
 strehar                                 0.001245           1
 strkin                                  0.001140           1
 forloc                                  0.001069           1
 set_dd_magatom                          0.000984         218
 vectorpot                               0.000897         217
 rsp                                     0.000467           1
 fewald                                  0.000341           1
 chggra                                  0.000241           1
 brgrid                                  0.000177           1
 fordep                                  0.000091           1
 posmap                                  0.000045           2
 crpa_reader                             0.000027           1
 rcp                                     0.000027           1
 potlok_metagga                          0.000017         217
 acc_cufft_makeplans                     0.000012           3
 rotate_active_occupied_orbital          0.000000           1
 redis_pw_over_bands                     0.000000           1
  summed up times     2107.687054872513

 Accumulative profile

 total_time                           2107.687055           1
 elmin                                2055.750803           1
 eddav                                1491.413970         220
 set_dd_paw                            449.474151         218
 hamiltmu                              301.329491      584425
 lapack                                279.514502      584425
 raccmu_                               262.420625      584425
 m_sumb_d                              231.281314     1779261
 redis_pw                              154.988929     3129936
 newband                                62.475505      592345
 m_alltoall_d                           56.621570     8196356
 set_charge                             55.510753         217
 redis_proj                             54.546098     3983180
 densta                                 45.485836         221
 fftwav_mpi                             43.503379     2202482
 fftwav                                 40.621701     2202482
 fft3d                                  28.151326     3332890
 setdij_                                28.104626         244
 eccp                                   26.828346      277200
 fft3d_mpi                              26.805946     1137967
 soft_charge                            24.926353         217
 phaser                                 24.408789        8154
 augmentation_charge                    24.404979         218
 orth1                                  18.624377     1753455
 kinhamil                               18.227168     1130408
 racc0mu_acc                            17.158570      584425
 fftbrc_mpi                             16.723280        7559
 fftbas_plan_mpi                        16.718864        7559
 overl                                  16.659871     1983652
 w1_copy                                16.401303     3391224
 rpromu_acc                             13.607766      446077
 w1_projall                             13.194531      441865
 fftext_mpi                             13.029500     1130408
 m_bcast_z                              12.796957      589465
 init_acc                               11.067312           1
 dfftw_execute                          10.438358        5676
 setup_precond                          10.101363      277200
 m_bcast_d                               9.590044     1169291
 overl_mu                                9.006104      584425
 force_and_stress                        8.273013           1
 ggemm                                   7.619314      726985
 pw_charge                               5.683867      198706
 vhamil                                  5.173071     1130408
 apply_precond                           4.676593      853208
 depsum                                  4.531272         217
 map_backward                            3.075624        7982
 map_forward                             2.803753        7136
 m_alltoallv_z                           2.771601        8449
 acc_init_cublas                         2.427188           1
 strnlr                                  2.204910           1
 rpro_isp                                2.142617         234
 potlok                                  1.881711         218
 map_scatter                             1.615103        8449
 brmix                                   1.475926         216
 map_gather                              1.406571        8449
 broyd                                   1.057816         216
 acc_init_cusolver                       0.785198           1
 fornlr                                  0.735714           1
 fordep                                  0.691358           1
 orthch                                  0.381566           1
 fft_gq                                  0.349547         217
 lincom                                  0.285622        7956
 sphpro_fast                             0.218529           2
 brget                                   0.211635       46883
 rspher_all                              0.205264          14
 proall                                  0.192303           1
 setg0                                   0.178763         218
 acc_cufft_makeplans                     0.128566           3
 acc_cufft_makeplan                      0.128554          19
 truncate_high_frequency_w1              0.114595     1407608
 brsav                                   0.057786       13388
 pothar                                  0.019712         219
 choleski                                0.014405          36
 stufak                                  0.007825           1
 brpre                                   0.005292         432
 inisym                                  0.004522           1
 forhar                                  0.002069           2
 strelo                                  0.001745           1
 forloc                                  0.001396           1
 strehar                                 0.001249           1
 strkin                                  0.001148           1
 set_dd_magatom                          0.000984         218
 fewald                                  0.000909           1
 vectorpot                               0.000897         217
 chggra                                  0.000796           1
 rsp                                     0.000467           1
 brgrid                                  0.000177           1
 posmap                                  0.000045           2
 crpa_reader                             0.000027           1
 rcp                                     0.000027           1
 potlok_metagga                          0.000017         217
 rotate_active_occupied_orbital          0.000000           1
 redis_pw_over_bands                     0.000000           1

Profiling took   7.013322  3.359313  0.003224  0.003130 seconds
Profiling took   4.472313 seconds