 vasp.6.3.2 27Jun22 (build Jul  3 2023 11:46:21) complex
 executed on    LinuxNV_CrayMPICH date 2024.04.22  02:30:46

 INCAR:
   ADDGRID = True
   ALGO = Normal
   EDIFF = 0.0038
   ENCUT = 520.0
   IBRION = -1
   ICHARG = 0
   ISIF = 3
   ISMEAR = -5
   ISPIN = 2
   KPOINT_BSE = -1 0 0 0
   LAECHG = True
   LASPH = True
   LCHARG = True
   LELF = True
   LORBIT = 11
   LREAL = Auto
   LVHAR = True
   LWAVE = False
   MAGMOM = 24*0.6 4*7.0 48*0.6
   NELM = 1000
   NSW = 0
   PREC = accurate
   SIGMA = 0.05

 POTCAR:    PAW_PBE Li_sv 10Sep2004
 POTCAR:    PAW_PBE Eu 23Dec2003
 POTCAR:    PAW_PBE B 06Sep2000
 POTCAR:    PAW_PBE O 08Apr2002
 POTCAR:    PAW_PBE Li_sv 10Sep2004
   VRHFIN =Li: 1s2s2p

   TITEL  = PAW_PBE Li_sv 10Sep2004
   POMASS =    7.010; ZVAL   =    3.000    mass and valenz
   ENMAX  =  499.034; ENMIN  =  374.276 eV

   TITEL  = PAW_PBE Eu 23Dec2003
   POMASS =  151.965; ZVAL   =   17.000    mass and valenz
   ENMAX  =  249.668; ENMIN  =  187.251 eV

   TITEL  = PAW_PBE B 06Sep2000
   POMASS =   10.811; ZVAL   =    3.000    mass and valenz
   ENMAX  =  318.614; ENMIN  =  238.960 eV

   TITEL  = PAW_PBE O 08Apr2002
   POMASS =   16.000; ZVAL   =    6.000    mass and valenz
   ENMAX  =  400.000; ENMIN  =  300.000 eV

 Optimization of the real space projectors (new method)

 maximal supplied QI-value         = 22.11
 optimisation between [QCUT,QGAM] = [ 11.50, 23.22] = [ 37.02,150.92] Ry
 Optimized for a Real-space Cutoff    1.08 Angstroem

   l    n(q)    QCUT    max X(q) W(low)/X(q) W(high)/X(q)  e(spline)
   0      7    11.497    10.506    0.36E-04    0.62E-04    0.14E-07
   0      7    11.497     8.367    0.65E-04    0.14E-03    0.28E-07
   1      7    11.497     8.983    0.21E-03    0.43E-03    0.90E-07
 Optimization of the real space projectors (new method)

[...]

   l    n(q)    QCUT    max X(q) W(low)/X(q) W(high)/X(q)  e(spline)
   0      8    11.497    53.033    0.18E-03    0.30E-03    0.10E-06
   0      8    11.497    34.740    0.17E-03    0.29E-03    0.10E-06
   1      8    11.497    30.949    0.20E-03    0.12E-03    0.21E-06
   1      8    11.497    19.518    0.18E-03    0.11E-03    0.19E-06
 Optimization of the real space projectors (new method)

 maximal supplied QI-value         = 24.76
 optimisation between [QCUT,QGAM] = [ 11.64, 23.27] = [ 37.91,151.63] Ry
 Optimized for a Real-space Cutoff    1.14 Angstroem

   l    n(q)    QCUT    max X(q) W(low)/X(q) W(high)/X(q)  e(spline)
   0      8    11.635    20.381    0.10E-03    0.33E-03    0.24E-06
   0      8    11.635    15.268    0.11E-03    0.35E-03    0.26E-06
   1      7    11.635     5.964    0.24E-03    0.31E-03    0.30E-06
   1      7    11.635     5.382    0.22E-03    0.25E-03    0.26E-06
  PAW_PBE Li_sv 10Sep2004               :
  PAW_PBE Eu 23Dec2003                  :
  PAW_PBE B 06Sep2000                   :
  PAW_PBE O 08Apr2002                   :

 POSCAR: Li24 Eu4 B12 O36
  positions in direct lattice
 exchange correlation table for  LEXCH =        8
   RHO(1)=    0.500       N(1)  =     2000
   RHO(2)=  100.500       N(2)  =     4000

 VTST: version 4.2, (08/11/21)

 CHAIN: initializing optimizer

 OPT: Using VASP Dynamics algorithm
 CHAIN: Read ICHAIN             0

 POSCAR: Li24 Eu4 B12 O36
  positions in direct lattice

 ion  position               nearest neighbor table
   1  0.965  0.947  0.194-  59 1.94  56 2.06  41 2.12  68 2.23
   2  0.035  0.053  0.806-  60 1.94  55 2.06  42 2.12  67 2.23
   3  0.465  0.553  0.806-  57 1.94  54 2.06  43 2.12  66 2.23
   4  0.535  0.447  0.194-  58 1.94  53 2.06  44 2.12  65 2.23
   5  0.555  0.912  0.639-  43 1.94  61 1.95  44 2.09  69 2.16
   6  0.445  0.088  0.361-  44 1.94  62 1.95  43 2.09  70 2.16
   7  0.055  0.588  0.361-  41 1.94  63 1.95  42 2.09  71 2.16
   8  0.945  0.412  0.639-  42 1.94  64 1.95  41 2.09  72 2.16
   9  0.469  0.832  0.043-  57 1.92  62 1.99  53 2.08  61 2.13  10 2.43
  10  0.531  0.168  0.957-  58 1.92  61 1.99  54 2.08  62 2.13   9 2.43
  11  0.969  0.668  0.957-  59 1.92  64 1.99  55 2.08  63 2.13  12 2.43
  12  0.031  0.332  0.043-  60 1.92  63 1.99  56 2.08  64 2.13  11 2.43
  13  0.706  0.867  0.789-  74 2.00  45 2.04  69 2.08  75 2.17
  14  0.294  0.133  0.211-  73 2.00  46 2.04  70 2.08  76 2.17
  15  0.206  0.633  0.211-  76 2.00  47 2.04  71 2.08  73 2.17
  16  0.794  0.367  0.789-  75 2.00  48 2.04  72 2.08  74 2.17
  17  0.796  0.955  0.063-  45 2.04  49 2.04  74 2.09  59 2.13  48 2.20
  18  0.204  0.045  0.937-  46 2.04  50 2.04  73 2.09  60 2.13  47 2.20
  19  0.296  0.545  0.937-  47 2.04  51 2.04  76 2.09  57 2.13  46 2.20
  20  0.704  0.455  0.063-  48 2.04  52 2.04  75 2.09  58 2.13  45 2.20
  21  0.997  0.823  0.574-  55 1.87  41 1.91  68 1.96  67 1.98  22 2.36
  22  0.003  0.177  0.426-  56 1.87  42 1.91  67 1.96  68 1.98  21 2.36
  23  0.497  0.677  0.426-  53 1.87  43 1.91  66 1.96  65 1.98  24 2.36
  24  0.503  0.323  0.574-  54 1.87  44 1.91  65 1.96  66 1.98  23 2.36
  25  0.691  0.653  0.424-  49 2.41  52 2.41  75 2.44  69 2.45  45 2.47  66 2.49  53 2.52  72 2.57

  26  0.309  0.347  0.576-  50 2.41  51 2.41  76 2.44  70 2.45  46 2.47  65 2.49  54 2.52  71 2.57

[...]

  29  0.882  0.999  0.791-  59 1.36  67 1.39  74 1.40
  30  0.118  0.001  0.209-  60 1.36  68 1.39  73 1.40
  31  0.382  0.501  0.209-  57 1.36  65 1.39  76 1.40
  32  0.618  0.499  0.791-  58 1.36  66 1.39  75 1.40
  33  0.615  0.813  0.059-  61 1.38  53 1.39  45 1.39
  34  0.385  0.187  0.941-  62 1.38  54 1.39  46 1.39
  35  0.115  0.687  0.941-  63 1.38  55 1.39  47 1.39
  36  0.885  0.313  0.059-  64 1.38  56 1.39  48 1.39
  37  0.866  0.662  0.419-  41 1.36  49 1.39  72 1.40
  38  0.134  0.338  0.581-  42 1.36  50 1.39  71 1.40
  39  0.366  0.838  0.581-  43 1.36  51 1.39  70 1.40
  40  0.634  0.162  0.419-  44 1.36  52 1.39  69 1.40
  41  0.948  0.676  0.414-  37 1.36  21 1.91   7 1.94   8 2.09   1 2.12
  42  0.052  0.324  0.586-  38 1.36  22 1.91   8 1.94   7 2.09   2 2.12
  43  0.448  0.824  0.586-  39 1.36  23 1.91   5 1.94   6 2.09   3 2.12
  44  0.552  0.176  0.414-  40 1.36  24 1.91   6 1.94   5 2.09   4 2.12
  45  0.697  0.774  0.076-  33 1.39  13 2.04  17 2.04  20 2.20  25 2.47
  46  0.303  0.226  0.924-  34 1.39  14 2.04  18 2.04  19 2.20  26 2.47
  47  0.197  0.726  0.924-  35 1.39  15 2.04  19 2.04  18 2.20  27 2.47
  48  0.803  0.274  0.076-  36 1.39  16 2.04  20 2.04  17 2.20  28 2.47
  49  0.818  0.831  0.344-  37 1.39  17 2.04  25 2.41  28 2.41
  50  0.182  0.169  0.656-  38 1.39  18 2.04  26 2.41  27 2.41
  51  0.318  0.669  0.656-  39 1.39  19 2.04  27 2.41  26 2.41
  52  0.682  0.331  0.344-  40 1.39  20 2.04  28 2.41  25 2.41
  53  0.567  0.733  0.219-  33 1.39  23 1.87   4 2.06   9 2.08  25 2.52
  54  0.433  0.267  0.781-  34 1.39  24 1.87   3 2.06  10 2.08  26 2.52
  55  0.067  0.767  0.781-  35 1.39  21 1.87   2 2.06  11 2.08  27 2.52
  56  0.933  0.233  0.219-  36 1.39  22 1.87   1 2.06  12 2.08  28 2.52
  57  0.414  0.586  0.035-  31 1.36   9 1.92   3 1.94  19 2.13
  58  0.586  0.414  0.965-  32 1.36  10 1.92   4 1.94  20 2.13
  59  0.914  0.914  0.965-  29 1.36  11 1.92   1 1.94  17 2.13
  60  0.086  0.086  0.035-  30 1.36  12 1.92   2 1.94  18 2.13
  61  0.579  0.925  0.895-  33 1.38   5 1.95  10 1.99   9 2.13
  62  0.421  0.075  0.105-  34 1.38   6 1.95   9 1.99  10 2.13
  63  0.079  0.575  0.105-  35 1.38   7 1.95  12 1.99  11 2.13
  64  0.921  0.425  0.895-  36 1.38   8 1.95  11 1.99  12 2.13
  65  0.428  0.461  0.373-  31 1.39  24 1.96  23 1.98   4 2.23  26 2.49
  66  0.572  0.539  0.627-  32 1.39  23 1.96  24 1.98   3 2.23  25 2.49
  67  0.928  0.039  0.627-  29 1.39  22 1.96  21 1.98   2 2.23  28 2.49
  68  0.072  0.961  0.373-  30 1.39  21 1.96  22 1.98   1 2.23  27 2.49
  69  0.672  0.977  0.507-  40 1.40  13 2.08   5 2.16  25 2.45  28 2.57
  70  0.328  0.023  0.493-  39 1.40  14 2.08   6 2.16  26 2.45  27 2.57
  71  0.172  0.523  0.493-  38 1.40  15 2.08   7 2.16  27 2.45  26 2.57
  72  0.828  0.477  0.507-  37 1.40  16 2.08   8 2.16  28 2.45  25 2.57
  73  0.199  0.946  0.232-  30 1.40  14 2.00  18 2.09  15 2.17  27 2.44
  74  0.801  0.054  0.768-  29 1.40  13 2.00  17 2.09  16 2.17  28 2.44
  75  0.699  0.554  0.768-  32 1.40  16 2.00  20 2.09  13 2.17  25 2.44
  76  0.301  0.446  0.232-  31 1.40  15 2.00  19 2.09  14 2.17  26 2.44

  LATTYP: Found a simple monoclinic cell.
 ALAT       =     6.7813910000
 B/A-ratio  =     2.4493634123
 C/A-ratio  =     1.0827801336
 COS(beta)  =    -0.2655357396

  Lattice vectors:

 A1 = (   0.0000000000,   6.7813910000,   0.0000000000)
 A2 = (  16.6100910000,   0.0000000000,   0.0000000000)
 A3 = (   0.0000000000,  -1.9497640000,  -7.0791580000)

Analysis of symmetry for initial positions (statically):
 Subroutine PRICEL returns:
 Original cell was already a primitive cell.

 Routine SETGRP: Setting up the symmetry group for a
 simple monoclinic supercell.

 Subroutine GETGRP returns: Found  4 space group operations
 (whereof  2 operations were pure point group operations)
 out of a pool of  4 trial point group operations.

The static configuration has the point symmetry S_2 .
 The point group associated with its full space group is C_2h.

Analysis of symmetry for dynamics (positions and initial velocities):
 Subroutine PRICEL returns:
 Original cell was already a primitive cell.

[...]

The dynamic configuration has the point symmetry S_2 .
 The point group associated with its full space group is C_2h.

Analysis of structural, dynamic, and magnetic symmetry:
 Subroutine PRICEL returns:
 Original cell was already a primitive cell.

 Routine SETGRP: Setting up the symmetry group for a
 simple monoclinic supercell.

 Subroutine GETGRP returns: Found  4 space group operations
 (whereof  2 operations were pure point group operations)
 out of a pool of  4 trial point group operations.

The overall configuration has the point symmetry S_2 .
 The point group associated with its full space group is C_2h.

 Subroutine INISYM returns: Found  4 space group operations
 (whereof  2 operations are pure point group operations),
 and found     1 'primitive' translations

                                     Primitive cell

  volume of cell :     797.3930

  direct lattice vectors                    reciprocal lattice vectors
    16.610091000  0.000000000  0.000000000     0.060204366  0.000000000  0.000000000
     0.000000000  6.781391000  0.000000000     0.000000000  0.147462372 -0.040614551
     0.000000000  1.949764000  7.079158000     0.000000000  0.000000000  0.141259737

  length of vectors
    16.610091000  6.781391000  7.342755453     0.060204366  0.152953237  0.141259737

  position of ions in fractional coordinates (direct lattice)
     0.964545000  0.947085000  0.193968000
     0.035455000  0.052915000  0.806032000
     0.464545000  0.552915000  0.806032000
     0.535455000  0.447085000  0.193968000
     0.554603000  0.911664000  0.638934000
     0.445397000  0.088336000  0.361066000
     0.054603000  0.588336000  0.361066000
     0.945397000  0.411664000  0.638934000
     0.469035000  0.832066000  0.043161000
     0.530965000  0.167934000  0.956839000
     0.969035000  0.667934000  0.956839000
     0.030965000  0.332066000  0.043161000
[...]
  318                map_forward                           0.000331                    4   7
  319                  map_gather                            0.000059                  2   8
  320                  m_alltoallv_z                         0.000028                  2   8
  321                  map_scatter                           0.000206                  2   8
  322                map_backward                          0.000130                    2   7
  323                  map_gather                            0.000030                  1   8
  324                  m_alltoallv_z                         0.000013                  1   8
  325                  map_scatter                           0.000067                  1   8
  326          m_sumb_d                              0.000012                          2   4
  327          pothar                                0.000098                          1   4
  328            m_sumb_d                              0.000015                        1   5
  329        brmix                                 0.024609                            1   3
  330          m_sumb_d                              0.000106                          6   4
  331          brpre                                 0.000066                          2   4
  332          setg0                                 0.003323                          1   4
  333          broyd                                 0.017932                          1   4
  334            brget                                 0.004662                      326   5
  335            brsav                                 0.002172                      163   5
  336            m_sumb_d                              0.000207                       47   5
  337        m_bcast_d                             0.000152                            2   3
  338      potlok                                0.088750                              2   2
  339        fft3d_mpi                             0.054037                           36   3
  340          fftbrc_mpi                            0.046217                         36   4
  341            fftbas_plan_mpi                       0.046190                       36   5
  342              map_forward                           0.013086                     40   6
  343                map_gather                            0.003338                   24   7
  344                m_alltoallv_z                         0.006023                   24   7
  345                map_scatter                           0.003487                   24   7
  346              map_backward                          0.009779                     32   6
  347                map_gather                            0.002562                   16   7
  348                m_alltoallv_z                         0.003870                   16   7
  349                map_scatter                           0.003106                   16   7
  350              dfftw_execute                         0.021362                     30   6
  351        m_sumb_d                              0.000031                            5   3
  352        pothar                                0.003553                            2   3
  353          m_sumb_d                              0.000147                          2   4
  354        m_bcast_d                             0.005818                            4   3
  355      potlok_metagga                        0.000000                              1   2
  356      set_dd_magatom                        0.000004                              1   2
  357      set_dd_paw                            4.782792                              1   2
  358        m_sumb_d                              0.020431                            7   3
  359      augmentation_charge                   0.261301                              1   2
  360        fft3d_mpi                             0.140962                            2   3
  361          fftbrc_mpi                            0.119525                          2   4
  362            fftbas_plan_mpi                       0.119522                        2   5
  363              dfftw_execute                         0.074219                      6   6
  364              map_backward                          0.044996                      4   6
  365                map_gather                            0.016716                    2   7
  366                m_alltoallv_z                         0.011466                    2   7
  367                map_scatter                           0.016801                    2   7
  368      fftwav_mpi                           10.100254                           4080   2
  369        fftwav                               10.094758                         4080   3
  370          fft3d                                 9.344459                       4080   4
  371      densta                               13.762780                              1   2

 Flat profile

 set_dd_paw                            918.379338         193
 eddav                                 279.543943         195
 lapack                                238.603215      495550
 raccmu_                               221.055994      495550
 redis_pw                              121.351503     2715940
 m_sumb_d                              118.192086     1506728
 m_alltoall_d                           51.705624     7209700
 dfftw_execute                          35.742517        5076
 fft3d                                  33.074350     2918708
 eccp                                   31.869087      265200
 phaser                                 30.525278        4030
 densta                                 26.267541         196
 orth1                                  26.227804     1486830
 total_time                             25.124435           1
 setdij_                                24.017885         219
 redis_proj                             23.041398     3441860
 augmentation_charge                    22.808347         193
 fftwav                                 19.247690     1927608
 hamiltmu                               18.837761      495550
 racc0mu_acc                            14.562720      495550
 w1_copy                                14.366402     2973300
 overl                                  13.751538     1717020
 rpromu_acc                             11.755489      367370
 m_bcast_z                              11.683271      500990
 init_acc                               10.944942           1
 soft_charge                            10.455777         192
 ggemm                                  10.094877      628150
 setup_precond                           9.681832      265200
 fft3d_mpi                               9.246599      997809
 m_bcast_d                               8.167841      991491
 pw_charge                               7.730699      188848
 overl_mu                                7.715313      495550
 map_scatter                             7.221078        7499
 map_gather                              6.534442        7499
 m_alltoallv_z                           6.498965        7499
 vhamil                                  4.540860      991100
 kinhamil                                4.375642      991100
 depsum                                  4.335464         192
 set_charge                              4.295869         192
 fftext_mpi                              4.129578      991100
 newband                                 4.071625      499450
 apply_precond                           3.927823      725900
 fftwav_mpi                              2.566566     1927608
 acc_init_cublas                         2.438749           1
 broyd                                   1.748487         191
 potlok                                  1.567132         193
 rpro_isp                                0.965267         130
 acc_init_cusolver                       0.788919           1
 brmix                                   0.745731         191
 sphpro_fast                             0.693626           2
 brget                                   0.599346       40823
 elmin                                   0.533567           1
 setg0                                   0.482745         193
 rspher_all                              0.385613          14
 fftbas_plan_mpi                         0.378232        6709
 w1_projall                              0.373086      362950
 lincom                                  0.164343        3920
 brsav                                   0.163610       11623
 proall                                  0.135124           1
 acc_cufft_makeplan                      0.123393          19
 truncate_high_frequency_w1              0.102381     1256300
 orthch                                  0.079103           1
 stufak                                  0.077642           1
 map_backward                            0.050554        7082
 map_forward                             0.046889        6336
 force_and_stress                        0.046832           1
 fft_gq                                  0.039256         192
 pothar                                  0.021438         194
 choleski                                0.015959          20
 brpre                                   0.013446         382
 strnlr                                  0.008381           1
 rsp                                     0.006939           1
 fftbrc_mpi                              0.004620        6709
 inisym                                  0.004605           1
 forhar                                  0.004337           2
 strelo                                  0.004083           1
 strkin                                  0.003571           1
 strehar                                 0.003535           1
 fornlr                                  0.003530           1
 forloc                                  0.002462           1
 set_dd_magatom                          0.000923         193
 vectorpot                               0.000838         192
 brgrid                                  0.000411           1
 fewald                                  0.000370           1
 chggra                                  0.000289           1
 fordep                                  0.000193           1
 rcp                                     0.000179           1
 posmap                                  0.000067           2
 crpa_reader                             0.000027           1
 potlok_metagga                          0.000011         192
 acc_cufft_makeplans                     0.000008           3
 rotate_active_occupied_orbital          0.000001           1
 redis_pw_over_bands                     0.000000           1
  summed up times     2471.100856065750

 Accumulative profile

 total_time                           2471.100856           1
 elmin                                2379.181900           1
 eddav                                1309.031710         195
 set_dd_paw                            923.045127         193
 hamiltmu                              282.474468      495550
 raccmu_                               243.334027      495550
 lapack                                238.603215      495550
 redis_pw                              148.141025     2715940
 m_sumb_d                              118.192086     1506728
 set_charge                             88.729249         192
 fft3d_mpi                              72.672070      997809
 newband                                66.647864      499450
 setdij_                                59.155642         219
 fftbrc_mpi                             56.477296        6709
 fftbas_plan_mpi                        56.472676        6709
 m_alltoall_d                           51.705624     7209700
 augmentation_charge                    50.479506         193
 redis_proj                             47.957500     3441860
 fftwav_mpi                             47.940431     1927608
 fftwav                                 45.373865     1927608
 dfftw_execute                          35.742517        5076
 fft3d                                  33.074350     2918708
 eccp                                   31.869087      265200
 phaser                                 30.525278        4030
 soft_charge                            29.006571         192
 densta                                 26.267541         196
 orth1                                  26.227804     1486830
 force_and_stress                       16.295264           1
 kinhamil                               15.761820      991100
 racc0mu_acc                            14.562720      495550
 w1_copy                                14.366402     2973300
 overl                                  13.751538     1717020
 rpromu_acc                             11.755489      367370
 m_bcast_z                              11.683271      500990
 fftext_mpi                             11.386178      991100
 map_backward                           11.246821        7082
 init_acc                               10.944942           1
 w1_projall                             10.888442      362950
 ggemm                                  10.094877      628150
 setup_precond                           9.681832      265200
 map_forward                             9.105106        6336
 m_bcast_d                               8.167841      991491
 pw_charge                               7.730699      188848
 overl_mu                                7.715313      495550
 map_scatter                             7.221078        7499
 map_gather                              6.534442        7499
 m_alltoallv_z                           6.498965        7499
 vhamil                                  4.540860      991100
 depsum                                  4.491384         192
 apply_precond                           3.927823      725900
 brmix                                   3.815663         191
 strnlr                                  2.990606           1
 potlok                                  2.952421         193
 rpro_isp                                2.782027         130
 broyd                                   2.551255         191
 acc_init_cublas                         2.438749           1
 fordep                                  1.602041           1
 fornlr                                  1.006952           1
 fft_gq                                  0.948457         192
 acc_init_cusolver                       0.788919           1
 sphpro_fast                             0.727875           2
 brget                                   0.599346       40823
 setg0                                   0.482745         193
 orthch                                  0.479401           1
 rspher_all                              0.385613          14
 proall                                  0.316790           1
 lincom                                  0.164343        3920
 brsav                                   0.163610       11623
 acc_cufft_makeplans                     0.123401           3
 acc_cufft_makeplan                      0.123393          19
 truncate_high_frequency_w1              0.102381     1256300
 stufak                                  0.077642           1
 pothar                                  0.023141         194
 choleski                                0.015959          20
 brpre                                   0.013446         382
 fewald                                  0.007683           1
 rsp                                     0.006939           1
 strelo                                  0.006321           1
 forhar                                  0.004680           2
 inisym                                  0.004672           1
 strkin                                  0.003576           1
 strehar                                 0.003539           1
 forloc                                  0.003527           1
 chggra                                  0.001078           1
 set_dd_magatom                          0.000923         193
 vectorpot                               0.000838         192
 brgrid                                  0.000411           1
 rcp                                     0.000179           1
 posmap                                  0.000067           2
 crpa_reader                             0.000027           1
 potlok_metagga                          0.000011         192
 rotate_active_occupied_orbital          0.000001           1
 redis_pw_over_bands                     0.000000           1

Profiling took   6.230208  3.076223  0.003257  0.003136 seconds
Profiling took   4.151711 seconds