 vasp.6.3.2 27Jun22 (build Jul  3 2023 11:46:21) complex
 executed on    LinuxNV_CrayMPICH date 2024.04.22  04:10:04

 INCAR:
   ADDGRID = True
   ALGO = All
   EDIFF = 0.0007
   ENCUT = 520.0
   IBRION = -1
   ICHARG = 0
   ISIF = 3
   ISMEAR = -5
   ISPIN = 2
   ISTART = 1
   ISYM = 0
   LAECHG = True
   LASPH = True
   LCHARG = True
   LORBIT = 11
   LREAL = Auto
   LVHAR = True
   LWAVE = False
   MAGMOM = 5*7.0 1*0.005 1*-0.016 1*-0.017 3*-0.018 1*-0.019 2*-0.017
   NELM = 1000
   NSW = 0
   PREC = Accurate
   SIGMA = 0.05

 POTCAR:    PAW_PBE Gd 23Dec2003
 POTCAR:    PAW_PBE Ag 02Apr2005
 POTCAR:    PAW_PBE S 06Sep2000
 POTCAR:    PAW_PBE Gd 23Dec2003
   VRHFIN =Gd : [core=Xe4]

   TITEL  = PAW_PBE Gd 23Dec2003
   POMASS =  157.250; ZVAL   =   18.000    mass and valenz
   ENMAX  =  256.472; ENMIN  =  192.354 eV

   TITEL  = PAW_PBE Ag 02Apr2005
   POMASS =  107.868; ZVAL   =   11.000    mass and valenz
   ENMAX  =  249.844; ENMIN  =  187.383 eV

   TITEL  = PAW_PBE S 06Sep2000
   POMASS =   32.066; ZVAL   =    6.000    mass and valenz
   ENMAX  =  258.689; ENMIN  =  194.016 eV

 Optimization of the real space projectors (new method)

 maximal supplied QI-value         = 13.42
 optimisation between [QCUT,QGAM] = [ 11.67, 23.35] = [ 38.16,152.62] Ry
 Optimized for a Real-space Cutoff    1.63 Angstroem

   l    n(q)    QCUT    max X(q) W(low)/X(q) W(high)/X(q)  e(spline)
   0     11    11.673    10.501    0.14E-04    0.17E-05    0.21E-07
   0     11    11.673     9.148    0.21E-04    0.32E-05    0.45E-07
   1     11    11.673     4.035    0.33E-05    0.11E-04    0.84E-07
   1     11    11.673     4.388    0.11E-04    0.47E-04    0.34E-06
   2     10    11.673    20.656    0.12E-04    0.28E-04    0.54E-06
   2     10    11.673    12.651    0.11E-04    0.26E-04    0.51E-06
   3     10    11.673    61.921    0.19E-03    0.22E-03    0.23E-06
   3     10    11.673    48.328    0.20E-03    0.23E-03    0.23E-06
 Optimization of the real space projectors (new method)

[...]

   l    n(q)    QCUT    max X(q) W(low)/X(q) W(high)/X(q)  e(spline)
   2      9    11.641    53.897    0.22E-03    0.42E-04    0.28E-06
   2      9    11.641    52.416    0.23E-03    0.44E-04    0.29E-06
   0     10    11.641   122.045    0.51E-04    0.25E-04    0.16E-06
   0     10    11.641    73.629    0.49E-04    0.24E-04    0.16E-06
   1     10    11.641    15.255    0.99E-04    0.55E-04    0.11E-06
   1     10    11.641     9.562    0.81E-04    0.47E-04    0.95E-07
 Optimization of the real space projectors (new method)

 maximal supplied QI-value         = 19.84
 optimisation between [QCUT,QGAM] = [ 11.51, 23.22] = [ 37.09,150.92] Ry
 Optimized for a Real-space Cutoff    1.21 Angstroem

   l    n(q)    QCUT    max X(q) W(low)/X(q) W(high)/X(q)  e(spline)
   0      8    11.508   187.594    0.96E-04    0.18E-03    0.54E-07
   0      8    11.508   164.243    0.96E-04    0.18E-03    0.54E-07
   1      8    11.508    67.533    0.18E-03    0.65E-04    0.94E-07
   1      8    11.508    50.729    0.18E-03    0.63E-04    0.92E-07
  PAW_PBE Gd 23Dec2003                  :
  PAW_PBE Ag 02Apr2005                  :
  PAW_PBE S 06Sep2000                   :

 POSCAR: Gd5 Ag1 S8
  positions in direct lattice
 exchange correlation table for  LEXCH =        8
   RHO(1)=    0.500       N(1)  =     2000
   RHO(2)=  100.500       N(2)  =     4000

 VTST: version 4.2, (08/11/21)

 CHAIN: initializing optimizer

 OPT: Using VASP Dynamics algorithm
 CHAIN: Read ICHAIN             0

 POSCAR: Gd5 Ag1 S8
  positions in direct lattice

 ion  position               nearest neighbor table
   1  0.633  0.748  0.619-  13 2.76  10 2.77  14 2.78   8 2.80  12 2.94   7 2.97  11 3.08   9 3.08

   2  0.986  0.367  0.114-   8 2.76  14 2.77   9 2.78  12 2.80  11 2.94  10 2.97  13 3.08   7 3.08

[...]

   7  0.378  0.269  0.250-   4 2.77   3 2.78   6 2.78   1 2.97   5 2.99   2 3.08
   8  0.361  0.751  0.242-   2 2.76   5 2.77   1 2.80   4 2.94   3 3.08   6 3.12
   9  0.731  0.980  0.109-   3 2.77   2 2.78   6 2.78   4 2.97   5 2.99   1 3.08
  10  0.871  0.622  0.891-   1 2.77   4 2.78   6 2.78   2 2.97   5 2.99   3 3.08
  11  0.510  0.119  0.758-   4 2.76   5 2.77   3 2.80   2 2.94   1 3.08   6 3.12
  12  0.881  0.639  0.390-   3 2.76   5 2.77   2 2.80   1 2.94   4 3.08   6 3.12
  13  0.249  0.490  0.610-   1 2.76   5 2.77   4 2.80   3 2.94   2 3.08   6 3.12
  14  0.020  0.129  0.750-   2 2.77   1 2.78   6 2.78   3 2.97   5 2.99   4 3.08

IMPORTANT INFORMATION: All symmetrisations will be switched off!
NOSYMM: (Re-)initialisation of all symmetry stuff for point group C_1.

                                     Primitive cell

  volume of cell :     293.4207

  direct lattice vectors                    reciprocal lattice vectors
    -4.182880000  4.182880000  4.192567000     0.000000000  0.119534866  0.119258679
     4.182880000 -4.182880000  4.192567000     0.119534866  0.000000000  0.119258679
     4.182880000  4.182880000 -4.192567000     0.119534866  0.119534866 -0.000000000

  length of vectors
     7.250557788  7.250557788  7.250557788     0.168852648  0.168852648  0.169047829

  position of ions in fractional coordinates (direct lattice)
     0.633367000  0.747621000  0.618958000
     0.985590000  0.366633000  0.114254000
     0.128663000  0.014409000  0.381042000
     0.252379000  0.871337000  0.885746000
     0.500000000  0.500000000  1.000000000
     0.750000000  0.250000000  0.500000000
     0.378395000  0.269431000  0.249680000
     0.360529000  0.751014000  0.241501000
     0.730569000  0.980249000  0.108965000
     0.871285000  0.621605000  0.891035000
     0.509513000  0.119028000  0.758499000
     0.880972000  0.639471000  0.390485000
     0.248986000  0.490487000  0.609515000
     0.019751000  0.128715000  0.750320000

  ion indices of the primitive-cell ions
   primitive index   ion index
                 1           1
                 2           2
                 3           3
                 4           4
                 5           5
                 6           6
                 7           7
                 8           8
                 9           9
                10          10
                11          11
                12          12
                13          13
                14          14

 KPOINTS: Kpoints from vasprun.xml

Automatic generation of k-mesh.
 Grid dimensions read from file:
 generate k-points for:    4    4    4

 Generating k-lattice:

  Cartesian coordinates                     Fractional coordinates (reciprocal lattice)
     0.000000000  0.029883716  0.029814670     0.250000000  0.000000000 -0.000000000
     0.029883716  0.000000000  0.029814670     0.000000000  0.250000000 -0.000000000
     0.029883716  0.029883716 -0.000000000     0.000000000 -0.000000000  0.250000000

  Length of vectors
     0.042213162  0.042213162  0.042261957

  Shift w.r.t. Gamma in fractional coordinates (k-lattice)
     0.500000000  0.500000000  0.500000000

 TETIRR: Found    192 inequivalent tetrahedra from      384

 Subroutine IBZKPT returns following result:

 Found     32 irreducible k-points:

 Following reciprocal coordinates:
            Coordinates               Weight
  0.125000  0.125000  0.125000      2.000000
 -0.125000  0.375000 -0.125000      2.000000
  0.125000  0.125000 -0.375000      2.000000
  0.375000 -0.125000 -0.125000      2.000000
  0.375000  0.125000  0.125000      2.000000
 -0.125000 -0.375000 -0.125000      2.000000
  0.125000  0.375000  0.375000      2.000000
 -0.375000 -0.125000 -0.375000      2.000000
 -0.125000  0.125000  0.125000      2.000000
 -0.125000  0.125000 -0.125000      2.000000
  0.375000  0.375000  0.125000      2.000000
 -0.125000 -0.125000 -0.375000      2.000000
 -0.375000  0.375000  0.125000      2.000000
 -0.125000  0.125000 -0.375000      2.000000
 -0.375000  0.375000 -0.125000      2.000000
 -0.125000  0.125000  0.375000      2.000000
 -0.125000  0.375000  0.125000      2.000000
 -0.125000  0.375000 -0.375000      2.000000
  0.375000 -0.125000 -0.375000      2.000000
  0.375000 -0.125000  0.125000      2.000000
 -0.375000 -0.375000  0.125000      2.000000
 -0.125000  0.375000  0.375000      2.000000
 -0.375000 -0.375000 -0.375000      2.000000
  0.375000 -0.125000  0.375000      2.000000
 -0.125000 -0.375000  0.125000      2.000000
 -0.125000 -0.375000  0.375000      2.000000
 -0.375000 -0.125000  0.375000      2.000000
 -0.375000 -0.125000  0.125000      2.000000
 -0.125000 -0.125000  0.125000      2.000000
 -0.375000  0.375000  0.375000      2.000000
 -0.375000  0.375000 -0.375000      2.000000
 -0.375000 -0.375000  0.375000      2.000000

 Following cartesian coordinates:
            Coordinates               Weight
  0.029884  0.029884  0.029815      2.000000
  0.029884 -0.029884  0.029815      2.000000
 -0.029884 -0.029884  0.029815      2.000000
 -0.029884  0.029884  0.029815      2.000000
  0.029884  0.059767  0.059629      2.000000
 -0.059767 -0.029884 -0.059629      2.000000
  0.089651  0.059767  0.059629      2.000000
 -0.059767 -0.089651 -0.059629      2.000000
  0.029884  0.000000  0.000000      2.000000
  0.000000 -0.029884  0.000000      2.000000
  0.059767  0.059767  0.089444      2.000000
 -0.059767 -0.059767 -0.029815      2.000000
  0.059767 -0.029884  0.000000      2.000000
 -0.029884 -0.059767  0.000000      2.000000
  0.029884 -0.059767  0.000000      2.000000
  0.059767  0.029884 -0.000000      2.000000
  0.059767  0.000000  0.029815      2.000000
  0.000000 -0.059767  0.029815      2.000000
 -0.059767 -0.000000  0.029815      2.000000
  0.000000  0.059767  0.029815      2.000000
 -0.029884 -0.029884 -0.089444      2.000000
  0.089651  0.029884  0.029815      2.000000
 -0.089651 -0.089651 -0.089444      2.000000
  0.029884  0.089651  0.029815      2.000000
 -0.029884  0.000000 -0.059629      2.000000
  0.000000  0.029884 -0.059629      2.000000
  0.029884 -0.000000 -0.059629      2.000000
  0.000000 -0.029884 -0.059629      2.000000
  0.000000  0.000000 -0.029815      2.000000
  0.089651  0.000000  0.000000      2.000000
  0.000000 -0.089651  0.000000      2.000000
  0.000000  0.000000 -0.089444      2.000000

 SYSTEM =  unknown system
 POSCAR =  Gd5 Ag1 S8

 Startparameter for this run:
   NWRITE =      2    write-flag & timer
   PREC   = accura    normal or accurate (medium, high low for compatibility)
   ISTART =      0    job   : 0-new  1-cont  2-samecut
   ICHARG =      2    charge: 1-file 2-atom 10-const
   ISPIN  =      2    spin polarized calculation?
   LNONCOLLINEAR =      F non collinear calculations
   LSORBIT =      F    spin-orbit coupling
   INIWAV =      1    electr: 0-lowe 1-rand  2-diag
   LASPH  =      T    aspherical Exc in radial PAW
 Electronic Relaxation 1
   ENCUT  =  520.0 eV  38.22 Ry    6.18 a.u.  13.48 13.48 13.48*2*pi/ulx,y,z
   ENINI  =  520.0     initial cutoff
   ENAUG  =  537.2 eV  augmentation charge cutoff
   NELM   =   1000;   NELMIN=  2; NELMDL=  0     # of ELM steps
   EDIFF  = 0.7E-03   stopping-criterion for ELM
   LREAL  =      T    real-space projection
   NLSPLINE    = F    spline interpolate recip. space projectors
   LCOMPAT=      F    compatible to vasp.4.4
[...]
  279        strnlr                                3.307640                            1   3
  280          rspher_all                            0.151871                          9   4
  281          phaser                                0.935326                        288   4
  282          rpro_isp                              2.210975                        288   4
  283            fftwav_mpi                            0.492173                    15552   5
  284              fftwav                                0.473246                  15552   6
  285                fft3d                                 0.105070                15552   7
  286            rpromu_acc                            0.863877                     4032   5
  287          m_sumb_d                              0.000014                          1   4
  288        fft3d_mpi                             0.003644                           22   3
  289          fftbrc_mpi                            0.002909                         22   4
  290            fftbas_plan_mpi                       0.002892                       22   5
  291              map_forward                           0.001063                     20   6
  292                map_gather                            0.000223                   10   7
  293                m_alltoallv_z                         0.000128                   10   7
  294                map_scatter                           0.000557                   10   7
  295              map_backward                          0.001200                     24   6
  296                map_gather                            0.000287                   12   7
  297                m_alltoallv_z                         0.000123                   12   7
  298                map_scatter                           0.000602                   12   7
  299        m_sumb_d                              0.000029                            5   3
  300        forhar                                0.000963                            1   3
  301          m_sumb_d                              0.000041                          1   4
  302        strehar                               0.001662                            1   3
  303          m_sumb_d                              0.000050                          1   4
  304        m_bcast_d                             0.000035                            2   3
  305      potlok                                0.039734                              2   2
  306        fft3d_mpi                             0.026003                           36   3
  307          fftbrc_mpi                            0.022548                         36   4
  308            fftbas_plan_mpi                       0.022527                       36   5
  309              map_forward                           0.006523                     40   6
  310                map_gather                            0.001920                   24   7
  311                m_alltoallv_z                         0.002633                   24   7
  312                map_scatter                           0.001761                   24   7
  313              map_backward                          0.005213                     32   6
  314                map_gather                            0.001742                   16   7
  315                m_alltoallv_z                         0.001776                   16   7
  316                map_scatter                           0.001502                   16   7
  317              dfftw_execute                         0.009218                     30   6
  318        m_sumb_d                              0.000025                            5   3
  319        pothar                                0.001601                            2   3
  320          m_sumb_d                              0.000170                          2   4
  321        m_bcast_d                             0.002715                            4   3
  322      potlok_metagga                        0.000000                              1   2
  323      set_dd_magatom                        0.000004                              1   2
  324      set_dd_paw                            2.312652                              1   2
  325        m_sumb_d                              0.941637                            7   3
  326      augmentation_charge                   0.163321                              1   2
  327        fft3d_mpi                             0.058641                            2   3
  328          fftbrc_mpi                            0.053248                          2   4
  329            fftbas_plan_mpi                       0.053247                        2   5
  330              dfftw_execute                         0.036123                      6   6
  331              map_backward                          0.016836                      4   6
  332                map_gather                            0.004737                    2   7
  333                m_alltoallv_z                         0.005985                    2   7
  334                map_scatter                           0.006103                    2   7

 Flat profile

 set_dd_paw                             47.553965          35
 m_sumb_d                               44.076470       67647
 edwav                                  21.834567          32
 eccp                                   13.484732      119232
 total_time                             13.259227           1
 rpro1_acc                              11.668867       27648
 init_acc                               11.103255           1
 redis_pw                                9.945753      200090
 densta                                  9.427519          44
 eddav                                   8.171144           5
 raccmu_                                 7.839590       15895
 racc0_acc                               7.436050       27648
 m_alltoall_d                            7.409098     1181586
 lapack                                  6.852432       15895
 setdij_                                 5.872875          61
 phaser                                  5.667185        1760
 dfftw_execute                           4.064956        1212
 fftwav                                  3.572052      199740
 acc_init_cublas                         3.474339           1
 augmentation_charge                     3.447567          34
 redis_proj                              3.444809      211448
 overl                                   3.082758       84348
 soft_charge                             2.511298          33
 fft3d                                   2.032506      287322
 fftext_mpi                              1.745911       87582
 rpromu_acc                              1.488508       17239
 pw_charge                               1.260450       40128
 rpro_isp                                1.183035         416
 acc_init_cusolver                       1.066192           1
 orth1                                   1.036603       70725
 depsum                                  0.938385          33
 m_alltoallv_z                           0.894972        1446
 eddiag                                  0.881572          17
 m_bcast_z                               0.857047       22807
 lincom                                  0.785380        6592
 hamilt_local                            0.675906       29376
 map_scatter                             0.664333        1446
 fft3d_mpi                               0.594036       88892
 elmin_all                               0.572757           1
 vhamil                                  0.537649       59934
 choleski                                0.511869        2112
 kinhamil                                0.504865       59934
 racc0mu_acc                             0.461264       15895
 map_gather                              0.453673        1446
 w1_copy                                 0.442374       91674
 hamiltmu                                0.434855       15895
 orthch                                  0.353873          33
 setup_precond                           0.311480        8640
 ggemm                                   0.301869       20375
 acc_cufft_makeplan                      0.287041          19
 m_bcast_d                               0.263864       31865
 fftwav_mpi                              0.252908      199740
 overl_mu                                0.244702       15895
 rspher_all                              0.225004          14
 sphpro_fast                             0.224568           2
 w1_dscal                                0.204612       27648
 potlok                                  0.169072          35
 newband                                 0.163571       16215
 apply_precond                           0.117606       21918
 fftbas_plan_mpi                         0.084828        1310
 proall                                  0.077306           1
 force_and_stress                        0.024553           1
 w1_projall                              0.012170       11415
 set_charge                              0.010878          33
 strnlr                                  0.009454           1
 map_forward                             0.007692        1248
 stufak                                  0.007578           1
 map_backward                            0.007372        1372
 pothar                                  0.004085          35
 truncate_high_frequency_w1              0.003263       39198
 fornlr                                  0.003235           1
 fft_gq                                  0.002721          33
 strelo                                  0.002131           1
 redis_pw_all                            0.002111          32
 strkin                                  0.001742           1
 strehar                                 0.001612           1
 forloc                                  0.000961           1
 forhar                                  0.000922           1
 fftbrc_mpi                              0.000829        1310
 rsp                                     0.000341           1
 fewald                                  0.000329           1
 brgrid                                  0.000217           1
 fordep                                  0.000078           1
 redis_pw_over_bands                     0.000041          33
 crpa_reader                             0.000026           1
 rcp                                     0.000024           1
 acc_cufft_makeplans                     0.000012           3
 shift_bands_between_low_high            0.000011          64
 set_dd_magatom                          0.000009           2
 vectorpot                               0.000006           1
 potlok_metagga                          0.000004          34
 rotate_active_occupied_orbital          0.000000           1
  summed up times     278.6113638877869

 Accumulative profile

 total_time                            278.611364           1
 elmin_all                             228.521938           1
 edwav                                  83.283390          32
 set_dd_paw                             80.575032          35
 m_sumb_d                               44.076470       67647
 eddav                                  42.847466           5
 eccp                                   13.484732      119232
 redis_pw                               12.397074      200090
 rpro1_acc                              11.668867       27648
 set_charge                             11.409658          33
 init_acc                               11.103255           1
 force_and_stress                       11.047417           1
 setdij_                                10.053524          61
 hamiltmu                                9.622099       15895
 densta                                  9.427519          44
 raccmu_                                 8.545556       15895
 redis_proj                              8.402586      211448
 racc0_acc                               7.436050       27648
 m_alltoall_d                            7.409098     1181586
 fft3d_mpi                               7.406935       88892
 lapack                                  6.852432       15895
 fftbrc_mpi                              6.178655        1310
 fftbas_plan_mpi                         6.177826        1310
 phaser                                  5.667185        1760
 augmentation_charge                     5.438575          34
 fftwav_mpi                              5.223222      199740
 soft_charge                             5.179530          33
 fftwav                                  4.970315      199740
 orthch                                  4.492065          33
 eddiag                                  4.200849          17
 dfftw_execute                           4.064956        1212
 acc_init_cublas                         3.474339           1
 strnlr                                  3.307640           1
 overl                                   3.082758       84348
 rpro_isp                                3.029101         416
 hamilt_local                            2.430119       29376
 fftext_mpi                              2.405827       87582
 newband                                 2.034639       16215
 fft3d                                   2.032506      287322
 kinhamil                                1.858251       59934
 rpromu_acc                              1.488508       17239
 pw_charge                               1.260450       40128
 map_forward                             1.150653        1248
 redis_pw_over_bands                     1.142424          33
 redis_pw_all                            1.142383          32
 fornlr                                  1.098691           1
 acc_init_cusolver                       1.066192           1
 orth1                                   1.036603       70725
 fordep                                  0.995426           1
 depsum                                  0.943996          33
 m_alltoallv_z                           0.894972        1446
 map_backward                            0.877389        1372
 m_bcast_z                               0.857047       22807
 lincom                                  0.785380        6592
 map_scatter                             0.664333        1446
 vhamil                                  0.537649       59934
 choleski                                0.511869        2112
 potlok                                  0.494661          35
 racc0mu_acc                             0.461264       15895
 map_gather                              0.453673        1446
 w1_copy                                 0.442374       91674
 w1_projall                              0.335860       11415
 setup_precond                           0.311480        8640
 ggemm                                   0.301869       20375
 acc_cufft_makeplans                     0.287053           3
 acc_cufft_makeplan                      0.287041          19
 m_bcast_d                               0.263864       31865
 proall                                  0.261503           1
 overl_mu                                0.244702       15895
 sphpro_fast                             0.232818           2
 rspher_all                              0.225004          14
 w1_dscal                                0.204612       27648
 apply_precond                           0.117606       21918
 fft_gq                                  0.079989          33
 stufak                                  0.007578           1
 pothar                                  0.004568          35
 truncate_high_frequency_w1              0.003263       39198
 strelo                                  0.002234           1
 strkin                                  0.001751           1
 strehar                                 0.001662           1
 forloc                                  0.000999           1
 forhar                                  0.000963           1
 fewald                                  0.000826           1
 rsp                                     0.000341           1
 brgrid                                  0.000217           1
 crpa_reader                             0.000026           1
 rcp                                     0.000024           1
 shift_bands_between_low_high            0.000011          64
 set_dd_magatom                          0.000009           2
 vectorpot                               0.000006           1
 potlok_metagga                          0.000004          34
 rotate_active_occupied_orbital          0.000000           1

Profiling took   0.420049  0.257553  0.003419  0.003327 seconds
Profiling took   0.303756 seconds