 vasp.6.3.2 27Jun22 (build Jul  3 2023 11:46:21) complex
 executed on    LinuxNV_CrayMPICH date 2024.04.21  02:44:51

 INCAR:
   ADDGRID = True
   ALGO = Normal
   EDIFF = 0.0004
   ENCUT = 520.0
   IBRION = -1
   ICHARG = 0
   ISIF = 3
   ISMEAR = -5
   ISPIN = 2
   KPOINT_BSE = -1 0 0 0
   LAECHG = True
   LASPH = True
   LCHARG = True
   LELF = True
   LORBIT = 11
   LREAL = Auto
   LVHAR = True
   LWAVE = False
   MAGMOM = 2*7.0 6*5.0
   NELM = 1000
   NSW = 0
   PREC = accurate
   SIGMA = 0.05

 POTCAR:    PAW_PBE Gd 23Dec2003
 POTCAR:    PAW_PBE Mn_pv 02Aug2007
 POTCAR:    PAW_PBE Gd 23Dec2003
   VRHFIN =Gd : [core=Xe4]

   TITEL  = PAW_PBE Gd 23Dec2003
   POMASS =  157.250; ZVAL   =   18.000    mass and valenz
   ENMAX  =  256.472; ENMIN  =  192.354 eV

   TITEL  = PAW_PBE Mn_pv 02Aug2007
   POMASS =   54.938; ZVAL   =   13.000    mass and valenz
   ENMAX  =  269.864; ENMIN  =  202.398 eV

 Optimization of the real space projectors (new method)

 maximal supplied QI-value         = 13.42
 optimisation between [QCUT,QGAM] = [ 11.67, 23.35] = [ 38.16,152.62] Ry
 Optimized for a Real-space Cutoff    1.63 Angstroem

   l    n(q)    QCUT    max X(q) W(low)/X(q) W(high)/X(q)  e(spline)
   0     11    11.673    10.501    0.14E-04    0.17E-05    0.21E-07
   0     11    11.673     9.148    0.21E-04    0.32E-05    0.45E-07
   1     11    11.673     4.035    0.33E-05    0.11E-04    0.84E-07
   1     11    11.673     4.388    0.11E-04    0.47E-04    0.34E-06
   2     10    11.673    20.656    0.12E-04    0.28E-04    0.54E-06
   2     10    11.673    12.651    0.11E-04    0.26E-04    0.51E-06
   3     10    11.673    61.921    0.19E-03    0.22E-03    0.23E-06
   3     10    11.673    48.328    0.20E-03    0.23E-03    0.23E-06
 Optimization of the real space projectors (new method)

 maximal supplied QI-value         = 16.25
 optimisation between [QCUT,QGAM] = [ 11.54, 23.24] = [ 37.28,151.24] Ry
 Optimized for a Real-space Cutoff    1.45 Angstroem

   l    n(q)    QCUT    max X(q) W(low)/X(q) W(high)/X(q)  e(spline)
   1     10    11.539     3.658    0.56E-04    0.12E-03    0.13E-06
   1     10    11.539     5.612    0.11E-03    0.23E-03    0.24E-06
   2      9    11.539    55.373    0.45E-04    0.92E-04    0.22E-06
   2      9    11.539    50.863    0.47E-04    0.95E-04    0.22E-06
   0     10    11.539    79.536    0.46E-04    0.27E-04    0.11E-06
   0     10    11.539    38.668    0.38E-04    0.25E-04    0.10E-06
  PAW_PBE Gd 23Dec2003                  :
  PAW_PBE Mn_pv 02Aug2007               :

 POSCAR: Gd2 Mn6
  positions in direct lattice
 exchange correlation table for  LEXCH =        8
   RHO(1)=    0.500       N(1)  =     2000
   RHO(2)=  100.500       N(2)  =     4000

 VTST: version 4.2, (08/11/21)

 CHAIN: initializing optimizer

 OPT: Using VASP Dynamics algorithm
 CHAIN: Read ICHAIN             0

 POSCAR: Gd2 Mn6
  positions in direct lattice

 ion  position               nearest neighbor table
   1  0.333  0.667  0.750-   5 2.97   5 2.97   3 2.97   3 2.97   4 2.97   4 2.97   7 2.98   6 2.98
                             8 2.98   8 2.98   7 2.98   6 2.98
   2  0.667  0.333  0.250-   8 2.97   8 2.97   6 2.97   6 2.97   7 2.97   7 2.97   4 2.98   3 2.98
                             5 2.98   5 2.98   3 2.98   4 2.98
   3  0.138  0.276  0.250-   5 2.45   4 2.45   7 2.60   7 2.60   8 2.60   8 2.60   1 2.97   1 2.97
                             2 2.98   2 2.98
   4  0.724  0.862  0.250-   5 2.45   3 2.45   6 2.60   6 2.60   8 2.60   8 2.60   1 2.97   1 2.97
                             2 2.98   2 2.98
   5  0.138  0.862  0.250-   3 2.45   4 2.45   6 2.60   7 2.60   6 2.60   7 2.60   1 2.97   1 2.97
                             2 2.98   2 2.98
   6  0.862  0.724  0.750-   8 2.45   7 2.45   4 2.60   4 2.60   5 2.60   5 2.60   2 2.97   2 2.97
                             1 2.98   1 2.98
   7  0.276  0.138  0.750-   8 2.45   6 2.45   3 2.60   3 2.60   5 2.60   5 2.60   2 2.97   2 2.97
                             1 2.98   1 2.98
   8  0.862  0.138  0.750-   6 2.45   7 2.45   3 2.60   4 2.60   3 2.60   4 2.60   2 2.97   2 2.97
                             1 2.98   1 2.98

  LATTYP: Found a hexagonal cell.
 ALAT       =     5.9306759328
 C/A-ratio  =     0.7369620343

  Lattice vectors:

 A1 = (   2.9653380000,  -5.1361160000,   0.0000000000)
 A2 = (   2.9653380000,   5.1361160000,   0.0000000000)
 A3 = (   0.0000000000,   0.0000000000,   4.3706830000)

Analysis of symmetry for initial positions (statically):
 Subroutine PRICEL returns:
 Original cell was already a primitive cell.

 Routine SETGRP: Setting up the symmetry group for a
 hexagonal supercell.

 Subroutine GETGRP returns: Found 24 space group operations
 (whereof 12 operations were pure point group operations)
 out of a pool of 24 trial point group operations.

The static configuration has the point symmetry D_3d.
 The point group associated with its full space group is D_6h.

Analysis of symmetry for dynamics (positions and initial velocities):
 Subroutine PRICEL returns:
 Original cell was already a primitive cell.

[...]

The dynamic configuration has the point symmetry D_3d.
 The point group associated with its full space group is D_6h.

Analysis of structural, dynamic, and magnetic symmetry:
 Subroutine PRICEL returns:
 Original cell was already a primitive cell.

 Routine SETGRP: Setting up the symmetry group for a
 hexagonal supercell.

 Subroutine GETGRP returns: Found 24 space group operations
 (whereof 12 operations were pure point group operations)
 out of a pool of 24 trial point group operations.

The overall configuration has the point symmetry D_3d.
 The point group associated with its full space group is D_6h.

 Subroutine INISYM returns: Found 24 space group operations
 (whereof 12 operations are pure point group operations),
 and found     1 'primitive' translations

                                     Primitive cell

  volume of cell :     133.1338

  direct lattice vectors                    reciprocal lattice vectors
     2.965338000 -5.136116000  0.000000000     0.168614843 -0.097349826  0.000000000
     2.965338000  5.136116000  0.000000000     0.168614843  0.097349826 -0.000000000
     0.000000000  0.000000000  4.370683000    -0.000000000  0.000000000  0.228797193

  length of vectors
     5.930675933  5.930675933  4.370683000     0.194699650  0.194699650  0.228797193

  position of ions in fractional coordinates (direct lattice)
     0.333333000  0.666667000  0.750000000
     0.666667000  0.333333000  0.250000000
     0.137957000  0.275914000  0.250000000
     0.724086000  0.862043000  0.250000000
     0.137957000  0.862043000  0.250000000
     0.862043000  0.724086000  0.750000000
     0.275914000  0.137957000  0.750000000
     0.862043000  0.137957000  0.750000000

  ion indices of the primitive-cell ions
   primitive index   ion index
                 1           1
                 2           2
                 3           3
                 4           4
                 5           5
                 6           6
                 7           7
                 8           8

 KPOINTS: Kpoints from vasprun.xml

Automatic generation of k-mesh.
 Grid dimensions read from file:
 generate k-points for:    5    5    7

 Generating k-lattice:

  Cartesian coordinates                     Fractional coordinates (reciprocal lattice)
     0.033722969 -0.019469965  0.000000000     0.200000000 -0.000000000  0.000000000
     0.033722969  0.019469965 -0.000000000    -0.000000000  0.200000000  0.000000000
    -0.000000000  0.000000000  0.032685313     0.000000000  0.000000000  0.142857143

  Length of vectors
     0.038939930  0.038939930  0.032685313

  Shift w.r.t. Gamma in fractional coordinates (k-lattice)
     0.000000000  0.000000000  0.000000000

 TETIRR: Found    180 inequivalent tetrahedra from     1050

 Subroutine IBZKPT returns following result:

 Found     20 irreducible k-points:

 Following reciprocal coordinates:
            Coordinates               Weight
  0.000000  0.000000  0.000000      1.000000
  0.200000  0.000000  0.000000      6.000000
  0.400000  0.000000  0.000000      6.000000
  0.200000  0.200000  0.000000      6.000000
  0.400000  0.200000  0.000000      6.000000
  0.000000  0.000000  0.142857      2.000000
  0.200000  0.000000  0.142857     12.000000
  0.400000  0.000000  0.142857     12.000000
  0.200000  0.200000  0.142857     12.000000
  0.400000  0.200000  0.142857     12.000000
  0.000000  0.000000  0.285714      2.000000
  0.200000  0.000000  0.285714     12.000000
  0.400000  0.000000  0.285714     12.000000
  0.200000  0.200000  0.285714     12.000000
  0.400000  0.200000  0.285714     12.000000
  0.000000  0.000000  0.428571      2.000000
  0.200000  0.000000  0.428571     12.000000
  0.400000  0.000000  0.428571     12.000000
  0.200000  0.200000  0.428571     12.000000
  0.400000  0.200000  0.428571     12.000000

 Following cartesian coordinates:
            Coordinates               Weight
  0.000000  0.000000  0.000000      1.000000
  0.033723 -0.019470  0.000000      6.000000
  0.067446 -0.038940  0.000000      6.000000
  0.067446  0.000000  0.000000      6.000000
  0.101169 -0.019470  0.000000      6.000000
  0.000000  0.000000  0.032685      2.000000
  0.033723 -0.019470  0.032685     12.000000
  0.067446 -0.038940  0.032685     12.000000
  0.067446  0.000000  0.032685     12.000000
  0.101169 -0.019470  0.032685     12.000000
  0.000000  0.000000  0.065371      2.000000
  0.033723 -0.019470  0.065371     12.000000
  0.067446 -0.038940  0.065371     12.000000
  0.067446  0.000000  0.065371     12.000000
  0.101169 -0.019470  0.065371     12.000000
  0.000000  0.000000  0.098056      2.000000
  0.033723 -0.019470  0.098056     12.000000
  0.067446 -0.038940  0.098056     12.000000
  0.067446  0.000000  0.098056     12.000000
  0.101169 -0.019470  0.098056     12.000000

 SYSTEM =  unknown system
 POSCAR =  Gd2 Mn6

 Startparameter for this run:
   NWRITE =      2    write-flag & timer
   PREC   = accura    normal or accurate (medium, high low for compatibility)
   ISTART =      0    job   : 0-new  1-cont  2-samecut
   ICHARG =      0    charge: 1-file 2-atom 10-const
   ISPIN  =      2    spin polarized calculation?
   LNONCOLLINEAR =      F non collinear calculations
   LSORBIT =      F    spin-orbit coupling
   INIWAV =      1    electr: 0-lowe 1-rand  2-diag
   LASPH  =      T    aspherical Exc in radial PAW
 Electronic Relaxation 1
   ENCUT  =  520.0 eV  38.22 Ry    6.18 a.u.  11.03 11.03  8.13*2*pi/ulx,y,z
   ENINI  =  520.0     initial cutoff
   ENAUG  =  569.1 eV  augmentation charge cutoff
   NELM   =   1000;   NELMIN=  2; NELMDL= -5     # of ELM steps
   EDIFF  = 0.4E-03   stopping-criterion for ELM
   LREAL  =      T    real-space projection
   NLSPLINE    = F    spline interpolate recip. space projectors
   LCOMPAT=      F    compatible to vasp.4.4
   GGA_COMPAT  = T    GGA compatible to vasp.4.4-vasp.4.6
   LMAXPAW     = -100 max onsite density
   LMAXMIX     =    2 max onsite mixed and CHGCAR
   VOSKOWN=      0    Vosko Wilk Nusair interpolation
   ROPT   =   -0.00025  -0.00025
 Ionic relaxation
   EDIFFG = 0.4E-02   stopping-criterion for IOM
[...]
  318                map_forward                           0.000182                    4   7
  319                  map_gather                            0.000042                  2   8
  320                  m_alltoallv_z                         0.000026                  2   8
  321                  map_scatter                           0.000086                  2   8
  322                map_backward                          0.000080                    2   7
  323                  map_gather                            0.000020                  1   8
  324                  m_alltoallv_z                         0.000011                  1   8
  325                  map_scatter                           0.000034                  1   8
  326          m_sumb_d                              0.000009                          2   4
  327          pothar                                0.000090                          1   4
  328            m_sumb_d                              0.000023                        1   5
  329        brmix                                 0.005470                            1   3
  330          m_sumb_d                              0.000075                          6   4
  331          brpre                                 0.000018                          2   4
  332          setg0                                 0.000592                          1   4
  333          broyd                                 0.004103                          1   4
  334            m_sumb_d                              0.000429                       51   5
  335            brget                                 0.000717                      229   5
  336            brsav                                 0.000152                       49   5
  337        m_bcast_d                             0.000017                            2   3
  338      potlok                                0.021954                              2   2
  339        fft3d_mpi                             0.015213                           36   3
  340          fftbrc_mpi                            0.012808                         36   4
  341            fftbas_plan_mpi                       0.012791                       36   5
  342              map_forward                           0.003823                     40   6
  343                map_gather                            0.001292                   24   7
  344                m_alltoallv_z                         0.001211                   24   7
  345                map_scatter                           0.001136                   24   7
  346              map_backward                          0.003023                     32   6
  347                map_gather                            0.001054                   16   7
  348                m_alltoallv_z                         0.000833                   16   7
  349                map_scatter                           0.000947                   16   7
  350              dfftw_execute                         0.004289                     30   6
  351        m_sumb_d                              0.000025                            5   3
  352        pothar                                0.000871                            2   3
  353          m_sumb_d                              0.000070                          2   4
  354        m_bcast_d                             0.001406                            4   3
  355      potlok_metagga                        0.000001                              1   2
  356      set_dd_magatom                        0.000005                              1   2
  357      set_dd_paw                            1.412478                              1   2
  358        m_sumb_d                              0.458204                            7   3
  359      augmentation_charge                   0.098427                              1   2
  360        fft3d_mpi                             0.025636                            2   3
  361          fftbrc_mpi                            0.023091                          2   4
  362            fftbas_plan_mpi                       0.023088                        2   5
  363              dfftw_execute                         0.015395                      6   6
  364              map_backward                          0.007451                      4   6
  365                map_gather                            0.001864                    2   7
  366                m_alltoallv_z                         0.003772                    2   7
  367                map_scatter                           0.001805                    2   7
  368      fftwav_mpi                            1.910471                           2760   2
  369        fftwav                                1.906852                         2760   3
  370          fft3d                                 1.832811                       2760   4
  371      densta                                4.118955                              1   2

 Flat profile

 set_dd_paw                            155.236281         162
 m_sumb_d                              146.017874      815152
 eddav                                 119.646245         164
 lapack                                109.879378      265208
 raccmu_                               107.989341      265208
 redis_pw                               53.678622     1371194
 m_alltoall_d                           26.003427     3676186
 densta                                 25.152853         165
 phaser                                 16.172609        6820
 fft3d                                  13.228511     1468532
 eccp                                   13.178938      150880
 setdij_                                11.962226         188
 redis_proj                             11.696613     1723312
 augmentation_charge                    11.155958         162
 init_acc                               10.725992           1
 fftwav                                  9.234501      965574
 total_time                              8.887232           1
 orth1                                   8.551268      795744
 racc0mu_acc                             7.880925      265208
 w1_copy                                 7.348227     1508874
 overl                                   7.153437      855076
 soft_charge                             6.665384         161
 dfftw_execute                           6.387786        4332
 rpromu_acc                              5.879583      189608
 hamiltmu                                5.540936      265208
 setup_precond                           5.498924      150880
 m_bcast_z                               5.494146      268888
 ggemm                                   4.697750      343928
 m_bcast_d                               4.436467      530745
 overl_mu                                4.134180      265208
 pw_charge                               2.507652       95818
 depsum                                  2.432555         161
 acc_init_cublas                         2.415996           1
 vhamil                                  2.328450      502958
 kinhamil                                2.292813      502958
 newband                                 2.215396      271768
 fftext_mpi                              2.157003      502958
 apply_precond                           1.941374      352078
 m_alltoallv_z                           1.695520        6321
 fftwav_mpi                              1.293066      965574
 fft3d_mpi                               1.284393      508613
 set_charge                              0.926320         161
 map_scatter                             0.883416        6321
 map_gather                              0.842319        6321
 acc_init_cusolver                       0.789689           1
 rpro_isp                                0.614770         260
 potlok                                  0.486453         162
 broyd                                   0.347765         160
 fftbas_plan_mpi                         0.297969        5655
 elmin                                   0.274923           1
 lincom                                  0.243379        6600
 w1_projall                              0.196198      186488
 rspher_all                              0.170717          14
 acc_cufft_makeplan                      0.133926          19
 brmix                                   0.116564         160
 brget                                   0.102059       33225
 setg0                                   0.097699         162
 sphpro_fast                             0.087812           2
 truncate_high_frequency_w1              0.051663      653838
 proall                                  0.051007           1
 map_backward                            0.031934        5966
 map_forward                             0.029688        5344
 brsav                                   0.027483        9342
 orthch                                  0.015105           1
 pothar                                  0.012510         163
 choleski                                0.011791          40
 force_and_stress                        0.011225           1
 fft_gq                                  0.006610         161
 strnlr                                  0.005717           1
 inisym                                  0.004672           1
 fftbrc_mpi                              0.003425        5655
 stufak                                  0.003111           1
 brpre                                   0.003035         320
 fornlr                                  0.001963           1
 strelo                                  0.001430           1
 forhar                                  0.001028           2
 strehar                                 0.000981           1
 set_dd_magatom                          0.000747         162
 vectorpot                               0.000669         161
 forloc                                  0.000561           1
 strkin                                  0.000490           1
 fewald                                  0.000350           1
 chggra                                  0.000242           1
 brgrid                                  0.000135           1
 rsp                                     0.000132           1
 fordep                                  0.000068           1
 posmap                                  0.000046           2
 crpa_reader                             0.000026           1
 potlok_metagga                          0.000017         161
 rcp                                     0.000014           1
 acc_cufft_makeplans                     0.000008           3
 rotate_active_occupied_orbital          0.000001           1
 redis_pw_over_bands                     0.000000           1
  summed up times     958.9696969985962

 Accumulative profile

 total_time                            958.969697           1
 elmin                                 920.422734           1
 eddav                                 623.347777         164
 set_dd_paw                            230.148624         162
 m_sumb_d                              146.017874      815152
 hamiltmu                              136.088325      265208
 raccmu_                               120.004446      265208
 lapack                                109.879378      265208
 redis_pw                               66.659201     1371194
 newband                                32.254745      271768
 set_charge                             31.697315         161
 m_alltoall_d                           26.003427     3676186
 densta                                 25.152853         165
 redis_proj                             24.719461     1723312
 fftwav_mpi                             20.142632      965574
 fftwav                                 18.849566      965574
 setdij_                                18.128726         188
 phaser                                 16.172609        6820
 augmentation_charge                    15.232512         162
 fft3d_mpi                              15.069897      508613
 fft3d                                  13.228511     1468532
 eccp                                   13.178938      150880
 soft_charge                            13.037910         161
 init_acc                               10.725992           1
 fftbrc_mpi                             10.172058        5655
 fftbas_plan_mpi                        10.168633        5655
 orth1                                   8.551268      795744
 kinhamil                                8.214493      502958
 racc0mu_acc                             7.880925      265208
 w1_copy                                 7.348227     1508874
 overl                                   7.153437      855076
 dfftw_execute                           6.387786        4332
 force_and_stress                        6.338361           1
 fftext_mpi                              5.921680      502958
 rpromu_acc                              5.879583      189608
 w1_projall                              5.537500      186488
 setup_precond                           5.498924      150880
 m_bcast_z                               5.494146      268888
 ggemm                                   4.697750      343928
 m_bcast_d                               4.436467      530745
 overl_mu                                4.134180      265208
 pw_charge                               2.507652       95818
 depsum                                  2.450647         161
 acc_init_cublas                         2.415996           1
 vhamil                                  2.328450      502958
 apply_precond                           1.941374      352078
 map_backward                            1.766374        5966
 map_forward                             1.716504        5344
 m_alltoallv_z                           1.695520        6321
 strnlr                                  1.649984           1
 rpro_isp                                1.509542         260
 potlok                                  1.298192         162
 map_scatter                             0.883416        6321
 map_gather                              0.842319        6321
 acc_init_cusolver                       0.789689           1
 brmix                                   0.766623         160
 fordep                                  0.583218           1
 fornlr                                  0.548370           1
 broyd                                   0.541177         160
 orthch                                  0.295411           1
 lincom                                  0.243379        6600
 fft_gq                                  0.211969         161
 rspher_all                              0.170717          14
 proall                                  0.146901           1
 acc_cufft_makeplans                     0.133934           3
 acc_cufft_makeplan                      0.133926          19
 brget                                   0.102059       33225
 setg0                                   0.097699         162
 sphpro_fast                             0.090392           2
 truncate_high_frequency_w1              0.051663      653838
 brsav                                   0.027483        9342
 pothar                                  0.014040         163
 choleski                                0.011791          40
 inisym                                  0.004718           1
 stufak                                  0.003111           1
 brpre                                   0.003035         320
 strelo                                  0.001803           1
 strehar                                 0.001039           1
 forhar                                  0.001036           2
 chggra                                  0.000789           1
 set_dd_magatom                          0.000747         162
 vectorpot                               0.000669         161
 forloc                                  0.000596           1
 fewald                                  0.000558           1
 strkin                                  0.000500           1
 brgrid                                  0.000135           1
 rsp                                     0.000132           1
 posmap                                  0.000046           2
 crpa_reader                             0.000026           1
 potlok_metagga                          0.000017         161
 rcp                                     0.000014           1
 rotate_active_occupied_orbital          0.000001           1
 redis_pw_over_bands                     0.000000           1

Profiling took   3.135747  1.535536  0.003209  0.003132 seconds
Profiling took   2.002763 seconds