 vasp.6.3.2 27Jun22 (build Jul  3 2023 11:46:21) complex
 executed on    LinuxNV_CrayMPICH date 2024.04.21  22:09:44

 INCAR:
   ADDGRID = True
   ALGO = Normal
   EDIFF = 0.0027
   ENCUT = 520.0
   IBRION = -1
   ICHARG = 0
   ISIF = 3
   ISMEAR = -5
   ISPIN = 2
   KPOINT_BSE = -1 0 0 0
   LAECHG = True
   LASPH = True
   LCHARG = True
   LELF = True
   LORBIT = 11
   LREAL = Auto
   LVHAR = True
   LWAVE = False
   MAGMOM = 8*0.6 8*7.0 38*0.6
   NELM = 1000
   NSW = 0
   PREC = accurate
   SIGMA = 0.05

 POTCAR:    PAW_PBE Ba_sv 06Sep2000
 POTCAR:    PAW_PBE Eu 23Dec2003
 POTCAR:    PAW_PBE Zn 06Sep2000
 POTCAR:    PAW_PBE Pt 04Feb2005
 POTCAR:    PAW_PBE O 08Apr2002
 POTCAR:    PAW_PBE Ba_sv 06Sep2000
   VRHFIN =Ba: 5s5p6s

   TITEL  = PAW_PBE Ba_sv 06Sep2000
   POMASS =  137.327; ZVAL   =   10.000    mass and valenz
   ENMAX  =  187.181; ENMIN  =  140.386 eV

   TITEL  = PAW_PBE Eu 23Dec2003
   POMASS =  151.965; ZVAL   =   17.000    mass and valenz
   ENMAX  =  249.668; ENMIN  =  187.251 eV

   TITEL  = PAW_PBE Zn 06Sep2000
   POMASS =   65.390; ZVAL   =   12.000    mass and valenz
   ENMAX  =  276.723; ENMIN  =  207.542 eV

   TITEL  = PAW_PBE Pt 04Feb2005
   POMASS =  195.080; ZVAL   =   10.000    mass and valenz
   ENMAX  =  230.283; ENMIN  =  172.712 eV

   TITEL  = PAW_PBE O 08Apr2002
   POMASS =   16.000; ZVAL   =    6.000    mass and valenz
   ENMAX  =  400.000; ENMIN  =  300.000 eV

 Optimization of the real space projectors (new method)

 maximal supplied QI-value         = 13.42
 optimisation between [QCUT,QGAM] = [ 11.67, 23.35] = [ 38.16,152.62] Ry
 Optimized for a Real-space Cutoff    1.68 Angstroem

   l    n(q)    QCUT    max X(q) W(low)/X(q) W(high)/X(q)  e(spline)
   0     12    11.673    13.244    0.27E-04    0.53E-05    0.55E-07
   0     12    11.673    14.240    0.39E-04    0.74E-05    0.11E-06
   1     11    11.673     4.828    0.65E-05    0.14E-04    0.51E-07
   1     11    11.673     3.934    0.16E-04    0.58E-04    0.38E-06
   2     11    11.673    87.714    0.23E-03    0.16E-03    0.84E-06
   2     11    11.673    59.874    0.22E-03    0.15E-03    0.81E-06
 Optimization of the real space projectors (new method)

[...]

   l    n(q)    QCUT    max X(q) W(low)/X(q) W(high)/X(q)  e(spline)
   2      9    11.633    66.195    0.24E-03    0.97E-04    0.19E-06
   2      9    11.633    64.643    0.25E-03    0.98E-04    0.20E-06
   0     10    11.633    95.520    0.71E-04    0.29E-04    0.12E-06
   0     10    11.633    63.403    0.69E-04    0.28E-04    0.12E-06
   1     10    11.633    19.961    0.61E-04    0.16E-03    0.11E-06
   1     10    11.633    13.289    0.50E-04    0.13E-03    0.90E-07
 Optimization of the real space projectors (new method)

 maximal supplied QI-value         = 24.76
 optimisation between [QCUT,QGAM] = [ 11.64, 23.27] = [ 37.91,151.63] Ry
 Optimized for a Real-space Cutoff    1.14 Angstroem

   l    n(q)    QCUT    max X(q) W(low)/X(q) W(high)/X(q)  e(spline)
   0      8    11.635    20.381    0.10E-03    0.33E-03    0.24E-06
   0      8    11.635    15.268    0.11E-03    0.35E-03    0.26E-06
   1      7    11.635     5.964    0.24E-03    0.31E-03    0.30E-06
   1      7    11.635     5.382    0.22E-03    0.25E-03    0.26E-06
  PAW_PBE Ba_sv 06Sep2000               :
  PAW_PBE Eu 23Dec2003                  :
  PAW_PBE Zn 06Sep2000                  :
  PAW_PBE Pt 04Feb2005                  :
  PAW_PBE O 08Apr2002                   :

 POSCAR: Ba8 Eu8 Zn6 Pt2 O30
  positions in direct lattice
 exchange correlation table for  LEXCH =        8
   RHO(1)=    0.500       N(1)  =     2000
   RHO(2)=  100.500       N(2)  =     4000

 VTST: version 4.2, (08/11/21)

 CHAIN: initializing optimizer

 OPT: Using VASP Dynamics algorithm
 CHAIN: Read ICHAIN             0

 POSCAR: Ba8 Eu8 Zn6 Pt2 O30
  positions in direct lattice

 ion  position               nearest neighbor table
   1  0.333  0.667  0.332-  27 2.78  46 2.78  37 2.78  28 2.89  44 2.89  50 2.89  30 3.24  41 3.24
                            40 3.24  53 3.24  31 3.24  29 3.24  24 3.32  18 3.47  21 3.47  17 3.47
   2  0.340  0.170  0.161-  36 2.79  30 2.85  31 2.85  39 2.89  32 2.89  43 3.02  38 3.02  45 3.08
                            35 3.08  26 3.33  22 3.34  18 3.51  17 3.51  23 3.51  22 3.52  14 3.70
   3  0.830  0.170  0.161-  52 2.79  40 2.85  53 2.85  32 2.89  49 2.89  42 3.02  25 3.02  48 3.08
                            45 3.08  33 3.33  20 3.34  17 3.51  21 3.51  23 3.51  20 3.52  14 3.70
   4  0.170  0.830  0.661-  28 2.79  38 2.85  51 2.85  46 2.89  27 2.89  30 3.02  41 3.02  47 3.08
                            26 3.08  35 3.33  18 3.34  19 3.51  22 3.51  24 3.51  18 3.52  10 3.70
   5  0.660  0.830  0.661-  44 2.79  42 2.85  54 2.85  37 2.89  27 2.89  29 3.02  40 3.02  47 3.08
                            33 3.08  48 3.33  21 3.34  20 3.51  19 3.51  24 3.51  21 3.52  10 3.70
   6  0.667  0.333  0.832-  32 2.78  49 2.78  39 2.78  52 2.89  36 2.89  34 2.89  42 3.24  25 3.24
                            51 3.24  38 3.24  43 3.24  54 3.24  23 3.32  20 3.47  22 3.47  19 3.47
   7  0.170  0.340  0.661-  50 2.79  25 2.85  43 2.85  37 2.89  46 2.89  31 3.02  53 3.02  26 3.08
                            33 3.08  45 3.33  17 3.34  20 3.51  22 3.51  24 3.51  17 3.52  10 3.70
   8  0.830  0.660  0.161-  34 2.79  41 2.85  29 2.85  39 2.89  49 2.89  54 3.02  51 3.02  48 3.08
                            35 3.08  47 3.33  19 3.34  18 3.51  21 3.51  23 3.51  19 3.52  14 3.70
   9  0.480  0.520  0.006-  43 2.33  54 2.33  39 2.38  31 2.58  29 2.58  44 2.61  50 2.61  37 2.74
                            24 3.28  11 3.52  11 3.52   1 3.75   8 3.76   2 3.76   5 3.97   7 3.97
  10  0.000  0.000  0.841-  45 2.34  48 2.34  35 2.34  47 2.52  26 2.52  33 2.52  14 3.43  14 3.43
                             5 3.70   7 3.70   4 3.70   2 4.12   8 4.12   3 4.12
  11  0.520  0.480  0.506-  29 2.33  31 2.33  37 2.38  43 2.58  54 2.58  36 2.61  34 2.61  39 2.74
                            23 3.28   9 3.52   9 3.52   6 3.75   7 3.76   5 3.76   2 3.97   8 3.97
  12  0.480  0.960  0.006-  42 2.33  38 2.33  32 2.38  40 2.58  30 2.58  44 2.61  28 2.61  27 2.74
                            24 3.28  16 3.52  16 3.52   1 3.75   3 3.76   2 3.76   5 3.97   4 3.97
  13  0.040  0.520  0.006-  25 2.33  51 2.33  49 2.38  53 2.58  41 2.58  50 2.61  28 2.61  46 2.74
                            24 3.28  15 3.52  15 3.52   1 3.75   3 3.76   8 3.76   7 3.97   4 3.97
  14  0.000  0.000  0.341-  26 2.34  47 2.34  33 2.34  45 2.52  48 2.52  35 2.52  10 3.43  10 3.43
                             2 3.70   8 3.70   3 3.70   7 4.12   5 4.12   4 4.12
  15  0.960  0.480  0.506-  41 2.33  53 2.33  46 2.38  51 2.58  25 2.58  34 2.61  52 2.61  49 2.74
                            23 3.28  13 3.52  13 3.52   6 3.75   4 3.76   7 3.76   8 3.97   3 3.97
  16  0.520  0.040  0.506-  30 2.33  40 2.33  27 2.38  38 2.58  42 2.58  36 2.61  52 2.61  32 2.74
                            23 3.28  12 3.52  12 3.52   6 3.75   4 3.76   5 3.76   2 3.97   3 3.97
  17  0.172  0.344  0.175-  45 1.93  31 1.95  53 1.95  50 2.07   7 3.34   1 3.47   3 3.51   2 3.51
                             7 3.52
  18  0.172  0.828  0.175-  35 1.93  41 1.95  30 1.95  28 2.07   4 3.34   1 3.47   2 3.51   8 3.51
                             4 3.52
  19  0.828  0.656  0.675-  47 1.93  54 1.95  51 1.95  34 2.07   8 3.34   6 3.47   4 3.51   5 3.51
                             8 3.52
  20  0.828  0.172  0.675-  33 1.93  25 1.95  42 1.95  52 2.07   3 3.34   6 3.47   5 3.51   7 3.51
                             3 3.52
  21  0.656  0.828  0.175-  48 1.93  29 1.95  40 1.95  44 2.07   5 3.34   1 3.47   3 3.51   8 3.51
                             5 3.52
  22  0.344  0.172  0.675-  26 1.93  43 1.95  38 1.95  36 2.07   2 3.34   6 3.47   4 3.51   7 3.51
                             2 3.52
  23  0.667  0.333  0.317-  32 2.01  49 2.01  39 2.01  52 2.04  36 2.04  34 2.04  15 3.28  16 3.28
                            11 3.28   6 3.32   3 3.51   8 3.51   2 3.51   6 3.53
  24  0.333  0.667  0.817-  27 2.01  46 2.01  37 2.01  28 2.04  44 2.04  50 2.04  12 3.28  13 3.28
                             9 3.28   1 3.32   4 3.51   7 3.51   5 3.51   1 3.53
  25  0.942  0.338  0.803-  20 1.95  13 2.33  15 2.58   7 2.85   3 3.02   6 3.24
  26  0.168  0.084  0.573-  22 1.93  14 2.34  10 2.52   7 3.08   4 3.08   2 3.33
  27  0.415  0.830  0.656-  24 2.01  16 2.38  12 2.74   1 2.78   4 2.89   5 2.89
  28  0.252  0.748  0.988-  24 2.04  18 2.07  12 2.61  13 2.61   4 2.79   1 2.89
  29  0.605  0.662  0.303-  21 1.95  11 2.33   9 2.58   8 2.85   5 3.02   1 3.24
  30  0.338  0.942  0.303-  18 1.95  16 2.33  12 2.58   2 2.85   4 3.02   1 3.24
  31  0.338  0.395  0.303-  17 1.95  11 2.33   9 2.58   2 2.85   7 3.02   1 3.24
  32  0.585  0.170  0.156-  23 2.01  12 2.38  16 2.74   6 2.78   3 2.89   2 2.89
  33  0.916  0.084  0.573-  20 1.93  14 2.34  10 2.52   7 3.08   5 3.08   3 3.33
  34  0.748  0.497  0.488-  23 2.04  19 2.07  15 2.61  11 2.61   8 2.79   6 2.89
  35  0.084  0.916  0.073-  18 1.93  10 2.34  14 2.52   8 3.08   2 3.08   4 3.33
  36  0.503  0.252  0.488-  23 2.04  22 2.07  16 2.61  11 2.61   2 2.79   6 2.89
  37  0.415  0.585  0.656-  24 2.01  11 2.38   9 2.74   1 2.78   7 2.89   5 2.89
  38  0.395  0.058  0.803-  22 1.95  12 2.33  16 2.58   4 2.85   2 3.02   6 3.24
  39  0.585  0.415  0.156-  23 2.01   9 2.38  11 2.74   6 2.78   8 2.89   2 2.89
  40  0.605  0.942  0.303-  21 1.95  16 2.33  12 2.58   3 2.85   5 3.02   1 3.24
  41  0.058  0.662  0.303-  18 1.95  15 2.33  13 2.58   8 2.85   4 3.02   1 3.24
  42  0.662  0.058  0.803-  20 1.95  12 2.33  16 2.58   5 2.85   3 3.02   6 3.24
  43  0.395  0.338  0.803-  22 1.95   9 2.33  11 2.58   7 2.85   2 3.02   6 3.24
  44  0.497  0.748  0.988-  24 2.04  21 2.07  12 2.61   9 2.61   5 2.79   1 2.89
  45  0.084  0.168  0.073-  17 1.93  10 2.34  14 2.52   2 3.08   3 3.08   7 3.33
  46  0.170  0.585  0.656-  24 2.01  15 2.38  13 2.74   1 2.78   4 2.89   7 2.89
  47  0.916  0.832  0.573-  19 1.93  14 2.34  10 2.52   5 3.08   4 3.08   8 3.33
  48  0.832  0.916  0.073-  21 1.93  10 2.34  14 2.52   8 3.08   3 3.08   5 3.33
  49  0.830  0.415  0.156-  23 2.01  13 2.38  15 2.74   6 2.78   3 2.89   8 2.89
  50  0.252  0.503  0.988-  24 2.04  17 2.07  13 2.61   9 2.61   7 2.79   1 2.89
  51  0.942  0.605  0.803-  19 1.95  13 2.33  15 2.58   4 2.85   8 3.02   6 3.24
  52  0.748  0.252  0.488-  23 2.04  20 2.07  15 2.61  16 2.61   3 2.79   6 2.89
  53  0.058  0.395  0.303-  17 1.95  15 2.33  13 2.58   3 2.85   7 3.02   1 3.24
  54  0.662  0.605  0.803-  19 1.95   9 2.33  11 2.58   5 2.85   8 3.02   6 3.24

  LATTYP: Found a hexagonal cell.
 ALAT       =    11.8220664493
 C/A-ratio  =     0.5796469703

  Lattice vectors:

 A1 = (   5.9110330000, -10.2382100000,   0.0000000000)
 A2 = (   5.9110330000,  10.2382100000,   0.0000000000)
 A3 = (   0.0000000000,   0.0000000000,   6.8526250000)

Analysis of symmetry for initial positions (statically):
 Subroutine PRICEL returns:
 Original cell was already a primitive cell.

 Routine SETGRP: Setting up the symmetry group for a
 hexagonal supercell.

 Subroutine GETGRP returns: Found 12 space group operations
[...]
  318                map_forward                           0.000390                    4   7
  319                  map_gather                            0.000065                  2   8
  320                  m_alltoallv_z                         0.000029                  2   8
  321                  map_scatter                           0.000255                  2   8
  322                map_backward                          0.000141                    2   7
  323                  map_gather                            0.000035                  1   8
  324                  m_alltoallv_z                         0.000012                  1   8
  325                  map_scatter                           0.000074                  1   8
  326          m_sumb_d                              0.000009                          2   4
  327          pothar                                0.000107                          1   4
  328            m_sumb_d                              0.000019                        1   5
  329        brmix                                 0.026168                            1   3
  330          m_sumb_d                              0.000027                          6   4
  331          brpre                                 0.000069                          2   4
  332          setg0                                 0.003044                          1   4
  333          broyd                                 0.019088                          1   4
  334            brget                                 0.004886                      326   5
  335            brsav                                 0.002309                      163   5
  336            m_sumb_d                              0.000369                       47   5
  337        m_bcast_d                             0.000121                            2   3
  338      potlok                                0.109536                              2   2
  339        fft3d_mpi                             0.062508                           36   3
  340          fftbrc_mpi                            0.053602                         36   4
  341            fftbas_plan_mpi                       0.053579                       36   5
  342              map_forward                           0.014568                     40   6
  343                map_gather                            0.003769                   24   7
  344                m_alltoallv_z                         0.006283                   24   7
  345                map_scatter                           0.004240                   24   7
  346              map_backward                          0.011930                     32   6
  347                map_gather                            0.002800                   16   7
  348                m_alltoallv_z                         0.005323                   16   7
  349                map_scatter                           0.003567                   16   7
  350              dfftw_execute                         0.025257                     30   6
  351        m_sumb_d                              0.000026                            5   3
  352        pothar                                0.004314                            2   3
  353          m_sumb_d                              0.000307                          2   4
  354        m_bcast_d                             0.007229                            4   3
  355      potlok_metagga                        0.000000                              1   2
  356      set_dd_magatom                        0.000004                              1   2
  357      set_dd_paw                            5.539351                              1   2
  358        m_sumb_d                              0.227448                            7   3
  359      augmentation_charge                   0.466765                              1   2
  360        fft3d_mpi                             0.199508                            2   3
  361          fftbrc_mpi                            0.174635                          2   4
  362            fftbas_plan_mpi                       0.174631                        2   5
  363              dfftw_execute                         0.116489                      6   6
  364              map_backward                          0.057831                      4   6
  365                map_gather                            0.021436                    2   7
  366                m_alltoallv_z                         0.013121                    2   7
  367                map_scatter                           0.023260                    2   7
  368      fftwav_mpi                            8.358464                           3024   2
  369        fftwav                                8.354305                         3024   3
  370          fft3d                                 7.694512                       3024   4
  371      densta                                4.825285                              1   2

 Flat profile

 set_dd_paw                           1937.951734         368
 eddav                                 484.405825         370
 raccmu_                               433.326747      784119
 lapack                                399.852481      784119
 m_sumb_d                              274.232401     2386831
 redis_pw                              192.337757     4340658
 setdij_                                99.807504         394
 augmentation_charge                    98.221526         368
 dfftw_execute                          94.607327        9276
 m_alltoall_d                           83.484530    11355666
 phaser                                 48.285038        4518
 eccp                                   47.261905      372960
 fft3d                                  43.373416     4618958
 orth1                                  40.657713     2352489
 redis_proj                             36.894258     5535948
 hamiltmu                               32.878889      784119
 total_time                             31.609845           1
 fftwav                                 29.676183     3050720
 overl                                  23.109998     2763528
 racc0mu_acc                            22.931051      784119
 w1_copy                                22.785271     4704714
 densta                                 20.798033         371
 fft3d_mpi                              20.432933     1580897
 rpromu_acc                             18.664057      600915
 m_bcast_z                              17.709016      788151
 map_scatter                            17.538798       14149
 ggemm                                  16.259117      970599
 map_gather                             15.824264       14149
 soft_charge                            14.875993         367
 m_alltoallv_z                          14.850708       14149
 setup_precond                          13.710598      372960
 m_bcast_d                              12.829797     1568979
 overl_mu                               12.388052      784119
 set_charge                             11.874197         367
 pw_charge                              11.677828      271076
 init_acc                               11.668928           1
 vhamil                                  7.249015     1568238
 kinhamil                                7.169635     1568238
 fftext_mpi                              6.716096     1568238
 apply_precond                           6.453334     1195278
 depsum                                  6.164285         367
 newband                                 5.964241      788559
 fftwav_mpi                              4.059496     3050720
 broyd                                   3.815321         366
 potlok                                  3.537750         368
 acc_init_cublas                         2.426998           1
 brmix                                   1.699491         366
 brget                                   1.270789       83243
 setg0                                   1.145711         368
 elmin                                   0.925149           1
 acc_init_cusolver                       0.789299           1
 rpro_isp                                0.728652          78
 rspher_all                              0.697922          14
 fftbas_plan_mpi                         0.683644       12659
 w1_projall                              0.601556      597639
 sphpro_fast                             0.413824           2
 brsav                                   0.356081       23978
 lincom                                  0.222979        4452
 truncate_high_frequency_w1              0.157400     1941198
 acc_cufft_makeplan                      0.120637          19
 proall                                  0.117844           1
 map_forward                             0.102779       11936
 map_backward                            0.094694       13382
 fft_gq                                  0.089806         367
 stufak                                  0.070906           1
 orthch                                  0.060637           1
 force_and_stress                        0.045266           1
 pothar                                  0.041677         369
 brpre                                   0.027283         732
 choleski                                0.013031          12
 fftbrc_mpi                              0.008596       12659
 forhar                                  0.007556           2
 strnlr                                  0.005711           1
 inisym                                  0.005505           1
 strelo                                  0.005012           1
 rsp                                     0.004768           1
 strehar                                 0.004159           1
 forloc                                  0.003818           1
 strkin                                  0.002693           1
 fornlr                                  0.001940           1
 set_dd_magatom                          0.001730         368
 vectorpot                               0.001526         367
 brgrid                                  0.000510           1
 fewald                                  0.000375           1
 chggra                                  0.000307           1
 fordep                                  0.000242           1
 posmap                                  0.000186           2
 rcp                                     0.000095           1
 potlok_metagga                          0.000046         367
 crpa_reader                             0.000026           1
 acc_cufft_makeplans                     0.000009           3
 rotate_active_occupied_orbital          0.000000           1
 redis_pw_over_bands                     0.000000           1
  summed up times     4772.881752967834

 Accumulative profile

 total_time                           4772.881753           1
 elmin                                4677.901839           1
 eddav                                2237.963126         370
 set_dd_paw                           2016.637542         368
 hamiltmu                              534.273046      784119
 raccmu_                               468.645851      784119
 lapack                                399.852481      784119
 m_sumb_d                              274.232401     2386831
 redis_pw                              235.304610     4340658
 set_charge                            234.676323         367
 setdij_                               184.374405         394
 fft3d_mpi                             175.274854     1580897
 augmentation_charge                   172.479058         368
 fftbrc_mpi                            143.710810       12659
 fftbas_plan_mpi                       143.702214       12659
 newband                                96.344304      788559
 dfftw_execute                          94.607327        9276
 m_alltoall_d                           83.484530    11355666
 redis_proj                             77.411934     5535948
 fftwav_mpi                             65.977983     3050720
 fftwav                                 61.918487     3050720
 phaser                                 48.285038        4518
 eccp                                   47.261905      372960
 fft3d                                  43.373416     4618958
 soft_charge                            42.692499         367
 orth1                                  40.657713     2352489
 map_backward                           27.542571       13382
 kinhamil                               25.499291     1568238
 overl                                  23.109998     2763528
 racc0mu_acc                            22.931051      784119
 w1_copy                                22.785271     4704714
 force_and_stress                       22.112229           1
 map_forward                            20.868672       11936
 densta                                 20.798033         371
 rpromu_acc                             18.664057      600915
 fftext_mpi                             18.329656     1568238
 w1_projall                             18.018160      597639
 m_bcast_z                              17.709016      788151
 map_scatter                            17.538798       14149
 ggemm                                  16.259117      970599
 map_gather                             15.824264       14149
 m_alltoallv_z                          14.850708       14149
 setup_precond                          13.710598      372960
 m_bcast_d                              12.829797     1568979
 overl_mu                               12.388052      784119
 pw_charge                              11.677828      271076
 init_acc                               11.668928           1
 brmix                                   8.602187         366
 vhamil                                  7.249015     1568238
 apply_precond                           6.453334     1195278
 depsum                                  6.394142         367
 potlok                                  6.276738         368
 broyd                                   5.692552         366
 strnlr                                  2.819795           1
 fordep                                  2.801495           1
 acc_init_cublas                         2.426998           1
 rpro_isp                                2.418314          78
 fft_gq                                  2.336038         367
 brget                                   1.270789       83243
 setg0                                   1.145711         368
 fornlr                                  0.943542           1
 acc_init_cusolver                       0.789299           1
 rspher_all                              0.697922          14
 sphpro_fast                             0.431701           2
 orthch                                  0.364788           1
 brsav                                   0.356081       23978
 proall                                  0.275472           1
 lincom                                  0.222979        4452
 truncate_high_frequency_w1              0.157400     1941198
 acc_cufft_makeplans                     0.120646           3
 acc_cufft_makeplan                      0.120637          19
 stufak                                  0.070906           1
 pothar                                  0.048180         369
 brpre                                   0.027283         732
 choleski                                0.013031          12
 forhar                                  0.007600           2
 fewald                                  0.006341           1
 forloc                                  0.005976           1
 inisym                                  0.005691           1
 strelo                                  0.005143           1
 rsp                                     0.004768           1
 strehar                                 0.004166           1
 strkin                                  0.002701           1
 set_dd_magatom                          0.001730         368
 vectorpot                               0.001526         367
 chggra                                  0.001180           1
 brgrid                                  0.000510           1
 posmap                                  0.000186           2
 rcp                                     0.000095           1
 potlok_metagga                          0.000046         367
 crpa_reader                             0.000026           1
 rotate_active_occupied_orbital          0.000000           1
 redis_pw_over_bands                     0.000000           1

Profiling took   9.799729  4.747657  0.003451  0.003336 seconds
Profiling took   6.216917 seconds