 vasp.6.3.2 27Jun22 (build Jul  3 2023 11:46:21) complex
 executed on    LinuxNV_CrayMPICH date 2024.04.21  21:13:32

 INCAR:
   ADDGRID = True
   ALGO = Normal
   EDIFF = 0.0012
   ENCUT = 520.0
   IBRION = -1
   ICHARG = 0
   ISIF = 3
   ISMEAR = 0
   ISPIN = 2
   KPOINT_BSE = -1 0 0 0
   LAECHG = True
   LASPH = True
   LCHARG = True
   LELF = True
   LORBIT = 11
   LREAL = Auto
   LVHAR = True
   LWAVE = False
   MAGMOM = 16*7.0 8*0.6
   NELM = 1000
   NSW = 0
   PREC = accurate
   SIGMA = 0.05

 POTCAR:    PAW_PBE Gd 23Dec2003
 POTCAR:    PAW_PBE Mg_pv 13Apr2007
 POTCAR:    PAW_PBE Ru_pv 28Jan2005
 POTCAR:    PAW_PBE Gd 23Dec2003
   VRHFIN =Gd : [core=Xe4]

   TITEL  = PAW_PBE Gd 23Dec2003
   POMASS =  157.250; ZVAL   =   18.000    mass and valenz
   ENMAX  =  256.472; ENMIN  =  192.354 eV

   TITEL  = PAW_PBE Mg_pv 13Apr2007
   POMASS =   24.305; ZVAL   =    8.000    mass and valenz
   ENMAX  =  403.929; ENMIN  =  302.947 eV

   TITEL  = PAW_PBE Ru_pv 28Jan2005
   POMASS =  101.070; ZVAL   =   14.000    mass and valenz
   ENMAX  =  240.049; ENMIN  =  180.037 eV

 Optimization of the real space projectors (new method)

 maximal supplied QI-value         = 13.42
 optimisation between [QCUT,QGAM] = [ 11.67, 23.35] = [ 38.16,152.62] Ry
 Optimized for a Real-space Cutoff    1.63 Angstroem

   l    n(q)    QCUT    max X(q) W(low)/X(q) W(high)/X(q)  e(spline)
   0     11    11.673    10.501    0.14E-04    0.17E-05    0.21E-07
   0     11    11.673     9.148    0.21E-04    0.32E-05    0.45E-07
   1     11    11.673     4.035    0.33E-05    0.11E-04    0.84E-07
   1     11    11.673     4.388    0.11E-04    0.47E-04    0.34E-06
   2     10    11.673    20.656    0.12E-04    0.28E-04    0.54E-06
   2     10    11.673    12.651    0.11E-04    0.26E-04    0.51E-06
   3     10    11.673    61.921    0.19E-03    0.22E-03    0.23E-06
   3     10    11.673    48.328    0.20E-03    0.23E-03    0.23E-06
 Optimization of the real space projectors (new method)

[...]

   l    n(q)    QCUT    max X(q) W(low)/X(q) W(high)/X(q)  e(spline)
   1      8    11.527     2.974    0.44E-04    0.56E-04    0.12E-06
   1      8    11.527     4.279    0.12E-03    0.12E-03    0.26E-06
   0      9    11.527    16.381    0.46E-04    0.64E-04    0.78E-07
   0      9    11.527     5.611    0.26E-04    0.43E-04    0.55E-07
   2      8    11.527     4.652    0.22E-03    0.72E-04    0.47E-07
 Optimization of the real space projectors (new method)

 maximal supplied QI-value         = 15.12
 optimisation between [QCUT,QGAM] = [ 11.64, 23.28] = [ 37.95,151.78] Ry
 Optimized for a Real-space Cutoff    1.49 Angstroem

   l    n(q)    QCUT    max X(q) W(low)/X(q) W(high)/X(q)  e(spline)
   1     10    11.641     3.180    0.30E-04    0.36E-05    0.54E-07
   1     10    11.641     5.351    0.12E-03    0.51E-04    0.30E-06
   2      9    11.641    66.565    0.22E-03    0.78E-04    0.20E-06
   2      9    11.641    63.466    0.22E-03    0.79E-04    0.20E-06
   0     10    11.641    85.644    0.61E-04    0.23E-04    0.12E-06
   0     10    11.641    44.119    0.56E-04    0.21E-04    0.11E-06
  PAW_PBE Gd 23Dec2003                  :
  PAW_PBE Mg_pv 13Apr2007               :
  PAW_PBE Ru_pv 28Jan2005               :

 POSCAR: Gd16 Mg4 Ru4
  positions in direct lattice
 exchange correlation table for  LEXCH =        8
   RHO(1)=    0.500       N(1)  =     2000
   RHO(2)=  100.500       N(2)  =     4000

 VTST: version 4.2, (08/11/21)

 CHAIN: initializing optimizer

 OPT: Using VASP Dynamics algorithm
 CHAIN: Read ICHAIN             0

 POSCAR: Gd16 Mg4 Ru4
  positions in direct lattice

 ion  position               nearest neighbor table
   1  0.345  0.345  0.345-  23 2.87  24 2.87  22 2.87  11 3.54  13 3.54  15 3.54
   2  0.345  0.345  0.966-  23 2.87  24 2.87  21 2.87  15 3.54  12 3.54  14 3.54
   3  0.345  0.966  0.345-  22 2.87  24 2.87  21 2.87  13 3.54  12 3.54  16 3.54
   4  0.966  0.345  0.345-  23 2.87  22 2.87  21 2.87  11 3.54  16 3.54  14 3.54
   5  0.813  0.187  0.187-  21 2.80  24 2.80
   6  0.187  0.813  0.813-  22 2.80  23 2.80
   7  0.187  0.813  0.187-  21 2.80  23 2.80
   8  0.813  0.187  0.813-  22 2.80  24 2.80
   9  0.187  0.187  0.813-  21 2.80  22 2.80
  10  0.813  0.813  0.187-  23 2.80  24 2.80
  11  0.938  0.562  0.562-   4 3.54   1 3.54
  12  0.562  0.938  0.938-   3 3.54   2 3.54
  13  0.562  0.938  0.562-   3 3.54   1 3.54
  14  0.938  0.562  0.938-   4 3.54   2 3.54
  15  0.562  0.562  0.938-   2 3.54   1 3.54
  16  0.938  0.938  0.562-   4 3.54   3 3.54
  17  0.579  0.579  0.579-
  18  0.579  0.579  0.262-
  19  0.579  0.262  0.579-
  20  0.262  0.579  0.579-
  21  0.139  0.139  0.139-   5 2.80   7 2.80   9 2.80   3 2.87   2 2.87   4 2.87
  22  0.139  0.139  0.583-   6 2.80   8 2.80   9 2.80   3 2.87   4 2.87   1 2.87
  23  0.139  0.583  0.139-   6 2.80  10 2.80   7 2.80   4 2.87   2 2.87   1 2.87
  24  0.583  0.139  0.139-   8 2.80  10 2.80   5 2.80   3 2.87   2 2.87   1 2.87

  LATTYP: Found a face centered cubic cell.
 ALAT       =    13.8554300000

  Lattice vectors:

 A1 = (   0.0000000000,   6.9277150000,   6.9277150000)
 A2 = (   6.9277150000,   0.0000000000,   6.9277150000)
 A3 = (   6.9277150000,   6.9277150000,   0.0000000000)

Analysis of symmetry for initial positions (statically):
 Subroutine PRICEL returns:
 Original cell was already a primitive cell.

 Routine SETGRP: Setting up the symmetry group for a
 face centered cubic supercell.

 Subroutine GETGRP returns: Found 24 space group operations
 (whereof 24 operations were pure point group operations)
 out of a pool of 48 trial point group operations.

The static configuration has the point symmetry T_d .

Analysis of symmetry for dynamics (positions and initial velocities):
 Subroutine PRICEL returns:
 Original cell was already a primitive cell.

[...]

The dynamic configuration has the point symmetry T_d .

Analysis of structural, dynamic, and magnetic symmetry:
 Subroutine PRICEL returns:
 Original cell was already a primitive cell.

 Routine SETGRP: Setting up the symmetry group for a
 face centered cubic supercell.

 Subroutine GETGRP returns: Found 24 space group operations
 (whereof 24 operations were pure point group operations)
 out of a pool of 48 trial point group operations.

The overall configuration has the point symmetry T_d .

 Subroutine INISYM returns: Found 24 space group operations
 (whereof 24 operations are pure point group operations),
 and found     1 'primitive' translations

                                     Primitive cell

  volume of cell :     664.9669

  direct lattice vectors                    reciprocal lattice vectors
     0.000000000  6.927715000  6.927715000    -0.072173870  0.072173870  0.072173870
     6.927715000  0.000000000  6.927715000     0.072173870 -0.072173870  0.072173870
     6.927715000  6.927715000  0.000000000     0.072173870  0.072173870 -0.072173870

  length of vectors
     9.797268509  9.797268509  9.797268509     0.125008809  0.125008809  0.125008809

  position of ions in fractional coordinates (direct lattice)
     0.344833000  0.344833000  0.344833000
     0.344833000  0.344833000  0.965501000
     0.344833000  0.965501000  0.344833000
     0.965501000  0.344833000  0.344833000
     0.813428000  0.186572000  0.186572000
     0.186572000  0.813428000  0.813428000
     0.186572000  0.813428000  0.186572000
     0.813428000  0.186572000  0.813428000
     0.186572000  0.186572000  0.813428000
     0.813428000  0.813428000  0.186572000
     0.937750000  0.562250000  0.562250000
     0.562250000  0.937750000  0.937750000
     0.562250000  0.937750000  0.562250000
     0.937750000  0.562250000  0.937750000
     0.562250000  0.562250000  0.937750000
     0.937750000  0.937750000  0.562250000
     0.579182000  0.579182000  0.579182000
     0.579182000  0.579182000  0.262455000
     0.579182000  0.262455000  0.579182000
     0.262455000  0.579182000  0.579182000
     0.138987000  0.138987000  0.138987000
     0.138987000  0.138987000  0.583038000
     0.138987000  0.583038000  0.138987000
     0.583038000  0.138987000  0.138987000

  ion indices of the primitive-cell ions
   primitive index   ion index
                 1           1
                 2           2
                 3           3
                 4           4
                 5           5
                 6           6
                 7           7
                 8           8
                 9           9
                10          10
                11          11
                12          12
                13          13
                14          14
                15          15
                16          16
                17          17
                18          18
                19          19
                20          20
                21          21
                22          22
                23          23
                24          24

 KPOINTS: Kpoints from vasprun.xml

Automatic generation of k-mesh.
 Grid dimensions read from file:
 generate k-points for:    3    3    3

 Generating k-lattice:

  Cartesian coordinates                     Fractional coordinates (reciprocal lattice)
    -0.024057957  0.024057957  0.024057957     0.333333333  0.000000000  0.000000000
     0.024057957 -0.024057957  0.024057957     0.000000000  0.333333333 -0.000000000
     0.024057957  0.024057957 -0.024057957    -0.000000000 -0.000000000  0.333333333

  Length of vectors
     0.041669603  0.041669603  0.041669603

  Shift w.r.t. Gamma in fractional coordinates (k-lattice)
     0.000000000  0.000000000  0.000000000

 Subroutine IBZKPT returns following result:

 Found      4 irreducible k-points:

 Following reciprocal coordinates:
            Coordinates               Weight
  0.000000  0.000000  0.000000      1.000000
  0.333333  0.000000  0.000000      8.000000
  0.333333  0.333333  0.000000      6.000000
 -0.333333  0.333333  0.000000     12.000000

 Following cartesian coordinates:
            Coordinates               Weight
  0.000000  0.000000  0.000000      1.000000
 -0.024058  0.024058  0.024058      8.000000
  0.000000  0.000000  0.048116      6.000000
  0.048116 -0.048116  0.000000     12.000000

 SYSTEM =  unknown system
 POSCAR =  Gd16 Mg4 Ru4

 Startparameter for this run:
   NWRITE =      2    write-flag & timer
   PREC   = accura    normal or accurate (medium, high low for compatibility)
   ISTART =      0    job   : 0-new  1-cont  2-samecut
   ICHARG =      0    charge: 1-file 2-atom 10-const
   ISPIN  =      2    spin polarized calculation?
   LNONCOLLINEAR =      F non collinear calculations
   LSORBIT =      F    spin-orbit coupling
   INIWAV =      1    electr: 0-lowe 1-rand  2-diag
   LASPH  =      T    aspherical Exc in radial PAW
 Electronic Relaxation 1
   ENCUT  =  520.0 eV  38.22 Ry    6.18 a.u.  18.22 18.22 18.22*2*pi/ulx,y,z
   ENINI  =  520.0     initial cutoff
   ENAUG  =  758.8 eV  augmentation charge cutoff
   NELM   =   1000;   NELMIN=  2; NELMDL= -5     # of ELM steps
   EDIFF  = 0.1E-02   stopping-criterion for ELM
   LREAL  =      T    real-space projection
   NLSPLINE    = F    spline interpolate recip. space projectors
   LCOMPAT=      F    compatible to vasp.4.4
[...]
  320                  map_gather                            0.000064                  2   8
  321                  m_alltoallv_z                         0.000028                  2   8
  322                  map_scatter                           0.000288                  2   8
  323                map_backward                          0.000146                    2   7
  324                  map_gather                            0.000035                  1   8
  325                  m_alltoallv_z                         0.000013                  1   8
  326                  map_scatter                           0.000078                  1   8
  327          m_sumb_d                              0.000009                          2   4
  328          pothar                                0.000119                          1   4
  329            m_sumb_d                              0.000027                        1   5
  330        brmix                                 0.028517                            1   3
  331          m_sumb_d                              0.000058                          6   4
  332          brpre                                 0.000084                          2   4
  333          setg0                                 0.003714                          1   4
  334          broyd                                 0.020158                          1   4
  335            brget                                 0.004887                      326   5
  336            brsav                                 0.002301                      163   5
  337            m_sumb_d                              0.001127                       47   5
  338        m_bcast_d                             0.000032                            2   3
  339      potlok                                0.112546                              2   2
  340        fft3d_mpi                             0.072712                           36   3
  341          fftbrc_mpi                            0.060004                         36   4
  342            fftbas_plan_mpi                       0.059976                       36   5
  343              map_forward                           0.016694                     40   6
  344                map_gather                            0.004195                   24   7
  345                m_alltoallv_z                         0.007475                   24   7
  346                map_scatter                           0.004762                   24   7
  347              map_backward                          0.013415                     32   6
  348                map_gather                            0.003005                   16   7
  349                m_alltoallv_z                         0.005895                   16   7
  350                map_scatter                           0.004254                   16   7
  351              dfftw_execute                         0.027843                     30   6
  352        m_sumb_d                              0.000034                            5   3
  353        pothar                                0.005398                            2   3
  354          m_sumb_d                              0.000511                          2   4
  355        m_bcast_d                             0.007714                            4   3
  356      potlok_metagga                        0.000000                              1   2
  357      set_dd_magatom                        0.000004                              1   2
  358      set_dd_paw                            4.687860                              1   2
  359        m_sumb_d                              0.015385                            7   3
  360      augmentation_charge                   0.573181                              1   2
  361        fft3d_mpi                             0.187972                            2   3
  362          fftbrc_mpi                            0.157510                          2   4
  363            fftbas_plan_mpi                       0.157506                        2   5
  364              dfftw_execute                         0.089117                      6   6
  365              map_backward                          0.068192                      4   6
  366                map_gather                            0.025413                    2   7
  367                m_alltoallv_z                         0.014593                    2   7
  368                map_scatter                           0.028173                    2   7
  369      fftwav_mpi                            5.919826                           1704   2
  370        fftwav                                5.917498                         1704   3
  371          fft3d                                 5.502951                       1704   4
  372      densta                                0.002533                              1   2
  373        m_sumb_d                              0.001519                           48   3

 Flat profile

 set_dd_paw                           4662.843639         998
 raccmu_                               889.500012     1159837
 eddav                                 721.572424        1000
 lapack                                549.171460     1159837
 augmentation_charge                   388.017859         998
 setdij_                               384.778352        1024
 m_sumb_d                              301.169959     3614408
 redis_pw                              284.108840     6289120
 dfftw_execute                         217.098060       24396
 m_alltoall_d                          118.990358    16533416
 phaser                                 81.622813        8052
 eccp                                   73.952444      568000
 fft3d_mpi                              64.939952     2314447
 orth1                                  61.561904     3479583
 map_scatter                            55.505509       38089
 hamiltmu                               55.447188     1159837
 fft3d                                  55.396626     6674185
 redis_proj                             51.880002     8001496
 map_gather                             49.408008       38089
 fftwav                                 41.755379     4393817
 set_charge                             41.520321         997
 m_alltoallv_z                          38.180982       38089
 total_time                             36.545816           1
 racc0mu_acc                            33.716101     1159837
 overl                                  33.129027     3992744
 w1_copy                                32.757357     6841104
 rpromu_acc                             25.724503      873709
 m_bcast_z                              25.226815     1162109
 soft_charge                            24.168821         997
 ggemm                                  23.606710     1447837
 setup_precond                          20.598810      568000
 m_bcast_d                              19.845453     2321675
 overl_mu                               18.023246     1159837
 pw_charge                              17.753130      391993
 init_acc                               11.534171           1
 broyd                                  10.788889         996
 potlok                                 10.615877         998
 vhamil                                 10.455749     2280368
 kinhamil                               10.228031     2280368
 fftext_mpi                              9.645279     2280368
 depsum                                  9.492752         997
 apply_precond                           9.295953     1712368
 newband                                 8.730091     1167837
 fftwav_mpi                              5.820858     4393817
 brmix                                   5.183836         996
 setg0                                   3.609165         998
 brget                                   3.603036      235955
 elmin                                   2.546431           1
 acc_init_cublas                         2.466896           1
 fftbas_plan_mpi                         1.753204       34079
 brsav                                   1.014733       68456
 w1_projall                              0.898213      871837
 rspher_all                              0.864872          14
 acc_init_cusolver                       0.795649           1
 lincom                                  0.455360        8008
 rpro_isp                                0.434394          52
 densta                                  0.421651        1001
 map_backward                            0.279543       36062
 fft_gq                                  0.271890         997
 map_forward                             0.255393       32096
 truncate_high_frequency_w1              0.235229     2848368
 sphpro_fast                             0.132249           2
 pothar                                  0.110199         999
 acc_cufft_makeplan                      0.109077          19
 proall                                  0.091714           1
 brpre                                   0.079035        1992
 stufak                                  0.037739           1
 force_and_stress                        0.031787           1
 orthch                                  0.028970           1
 fftbrc_mpi                              0.022250       34079
 choleski                                0.009737           8
 forhar                                  0.007838           2
 inisym                                  0.006057           1
 strelo                                  0.005944           1
 set_dd_magatom                          0.004854         998
 strehar                                 0.004732           1
 forloc                                  0.003977           1
 vectorpot                               0.003942         997
 strnlr                                  0.002928           1
 strkin                                  0.001867           1
 fornlr                                  0.000972           1
 rsp                                     0.000842           1
 brgrid                                  0.000664           1
 fewald                                  0.000337           1
 chggra                                  0.000319           1
 fordep                                  0.000164           1
 posmap                                  0.000120           2
 potlok_metagga                          0.000077         997
 rcp                                     0.000039           1
 crpa_reader                             0.000031           1
 acc_cufft_makeplans                     0.000019           3
 rotate_active_occupied_orbital          0.000000           1
 redis_pw_over_bands                     0.000000           1
  summed up times     9621.913503885269

 Accumulative profile

 total_time                           9621.913504           1
 elmin                                9529.601084           1
 set_dd_paw                           4678.302180         998
 eddav                                3518.330902        1000
 hamiltmu                             1043.683260     1159837
 raccmu_                               941.239360     1159837
 set_charge                            707.621729         997
 setdij_                               607.390053        1024
 augmentation_charge                   577.108819         998
 lapack                                549.171460     1159837
 fft3d_mpi                             443.417072     2314447
 fftbrc_mpi                            362.502948       34079
 fftbas_plan_mpi                       362.480699       34079
 redis_pw                              346.001139     6289120
 m_sumb_d                              301.169959     3614408
 dfftw_execute                         217.098060       24396
 newband                               148.962833     1167837
 m_alltoall_d                          118.990358    16533416
 redis_proj                            108.978060     8001496
 fftwav_mpi                             86.998691     4393817
 phaser                                 81.622813        8052
 fftwav                                 81.177833     4393817
 map_backward                           80.249051       36062
 eccp                                   73.952444      568000
 soft_charge                            73.865352         997
 map_forward                            63.380383       32096
 orth1                                  61.561904     3479583
 map_scatter                            55.505509       38089
 fft3d                                  55.396626     6674185
 map_gather                             49.408008       38089
 m_alltoallv_z                          38.180982       38089
 kinhamil                               36.540964     2280368
 racc0mu_acc                            33.716101     1159837
 overl                                  33.129027     3992744
 w1_copy                                32.757357     6841104
 fftext_mpi                             26.312933     2280368
 w1_projall                             25.808410      871837
 brmix                                  25.749442         996
 rpromu_acc                             25.724503      873709
 m_bcast_z                              25.226815     1162109
 ggemm                                  23.606710     1447837
 force_and_stress                       23.525362           1
 setup_precond                          20.598810      568000
 m_bcast_d                              19.845453     2321675
 overl_mu                               18.023246     1159837
 potlok                                 17.771915         998
 pw_charge                              17.753130      391993
 broyd                                  16.757857         996
 init_acc                               11.534171           1
 vhamil                                 10.455749     2280368
 depsum                                  9.849385         997
 apply_precond                           9.295953     1712368
 fft_gq                                  8.157341         997
 setg0                                   3.609165         998
 brget                                   3.603036      235955
 fordep                                  3.529295           1
 acc_init_cublas                         2.466896           1
 strnlr                                  2.047443           1
 rpro_isp                                1.504994          52
 brsav                                   1.014733       68456
 rspher_all                              0.864872          14
 acc_init_cusolver                       0.795649           1
 fornlr                                  0.681257           1
 densta                                  0.646984        1001
 lincom                                  0.455360        8008
 orthch                                  0.316342           1
 truncate_high_frequency_w1              0.235229     2848368
 proall                                  0.190390           1
 sphpro_fast                             0.136778           2
 pothar                                  0.124881         999
 acc_cufft_makeplans                     0.109096           3
 acc_cufft_makeplan                      0.109077          19
 brpre                                   0.079035        1992
 stufak                                  0.037739           1
 choleski                                0.009737           8
 forhar                                  0.007913           2
 inisym                                  0.006177           1
 strelo                                  0.005960           1
 set_dd_magatom                          0.004854         998
 strehar                                 0.004735           1
 forloc                                  0.004016           1
 vectorpot                               0.003942         997
 strkin                                  0.001880           1
 fewald                                  0.001823           1
 chggra                                  0.001252           1
 rsp                                     0.000842           1
 brgrid                                  0.000664           1
 posmap                                  0.000120           2
 potlok_metagga                          0.000077         997
 rcp                                     0.000039           1
 crpa_reader                             0.000031           1
 rotate_active_occupied_orbital          0.000000           1
 redis_pw_over_bands                     0.000000           1

Profiling took  14.613193  6.999705  0.003099  0.002985 seconds
Profiling took   8.902739 seconds