 vasp.6.3.2 27Jun22 (build Jul  3 2023 11:46:21) complex
 executed on    LinuxNV_CrayMPICH date 2024.04.21  23:13:53

 INCAR:
   ADDGRID = True
   ALGO = Normal
   EDIFF = 0.00065
   ENCUT = 520.0
   IBRION = -1
   ICHARG = 0
   ISIF = 3
   ISMEAR = -5
   ISPIN = 2
   KPOINT_BSE = -1 0 0 0
   LAECHG = True
   LASPH = True
   LCHARG = True
   LELF = True
   LORBIT = 11
   LREAL = Auto
   LVHAR = True
   LWAVE = False
   MAGMOM = 1*7.0 12*0.6
   NELM = 1000
   NSW = 0
   PREC = accurate
   SIGMA = 0.05

 POTCAR:    PAW_PBE Gd 23Dec2003
 POTCAR:    PAW_PBE Bi 08Apr2002
 POTCAR:    PAW_PBE O 08Apr2002
 POTCAR:    PAW_PBE Gd 23Dec2003
   VRHFIN =Gd : [core=Xe4]

   TITEL  = PAW_PBE Gd 23Dec2003
   POMASS =  157.250; ZVAL   =   18.000    mass and valenz
   ENMAX  =  256.472; ENMIN  =  192.354 eV

   TITEL  = PAW_PBE Bi 08Apr2002
   POMASS =  208.980; ZVAL   =    5.000    mass and valenz
   ENMAX  =  105.037; ENMIN  =   78.777 eV

   TITEL  = PAW_PBE O 08Apr2002
   POMASS =   16.000; ZVAL   =    6.000    mass and valenz
   ENMAX  =  400.000; ENMIN  =  300.000 eV

 Optimization of the real space projectors (new method)

 maximal supplied QI-value         = 13.42
 optimisation between [QCUT,QGAM] = [ 11.67, 23.35] = [ 38.16,152.62] Ry
 Optimized for a Real-space Cutoff    1.63 Angstroem

   l    n(q)    QCUT    max X(q) W(low)/X(q) W(high)/X(q)  e(spline)
   0     11    11.673    10.501    0.14E-04    0.17E-05    0.21E-07
   0     11    11.673     9.148    0.21E-04    0.32E-05    0.45E-07
   1     11    11.673     4.035    0.33E-05    0.11E-04    0.84E-07
   1     11    11.673     4.388    0.11E-04    0.47E-04    0.34E-06
   2     10    11.673    20.656    0.12E-04    0.28E-04    0.54E-06
   2     10    11.673    12.651    0.11E-04    0.26E-04    0.51E-06
   3     10    11.673    61.921    0.19E-03    0.22E-03    0.23E-06
   3     10    11.673    48.328    0.20E-03    0.23E-03    0.23E-06
 Optimization of the real space projectors (new method)

[...]

   l    n(q)    QCUT    max X(q) W(low)/X(q) W(high)/X(q)  e(spline)
   0     11    11.599    93.365    0.41E-04    0.18E-04    0.34E-06
   0     11    11.599    75.373    0.44E-04    0.20E-04    0.37E-06
   1     11    11.599    32.978    0.10E-03    0.17E-03    0.40E-06
   1     11    11.599    35.433    0.11E-03    0.18E-03    0.44E-06
   2     10    11.599     8.108    0.42E-04    0.24E-04    0.15E-06
 Optimization of the real space projectors (new method)

 maximal supplied QI-value         = 24.76
 optimisation between [QCUT,QGAM] = [ 11.64, 23.27] = [ 37.91,151.63] Ry
 Optimized for a Real-space Cutoff    1.14 Angstroem

   l    n(q)    QCUT    max X(q) W(low)/X(q) W(high)/X(q)  e(spline)
   0      8    11.635    20.381    0.10E-03    0.33E-03    0.24E-06
   0      8    11.635    15.268    0.11E-03    0.35E-03    0.26E-06
   1      7    11.635     5.964    0.24E-03    0.31E-03    0.30E-06
   1      7    11.635     5.382    0.22E-03    0.25E-03    0.26E-06
  PAW_PBE Gd 23Dec2003                  :
  PAW_PBE Bi 08Apr2002                  :
  PAW_PBE O 08Apr2002                   :

 POSCAR: Gd1 Bi4 O8
  positions in direct lattice
 exchange correlation table for  LEXCH =        8
   RHO(1)=    0.500       N(1)  =     2000
   RHO(2)=  100.500       N(2)  =     4000

 VTST: version 4.2, (08/11/21)

 CHAIN: initializing optimizer

 OPT: Using VASP Dynamics algorithm
 CHAIN: Read ICHAIN             0

 POSCAR: Gd1 Bi4 O8
  positions in direct lattice

 ion  position               nearest neighbor table
   1  0.021  0.021  0.987-   9 2.34  13 2.37  13 2.37  10 2.41   6 2.44   6 2.44   7 2.47   4 3.71
                             4 3.71   2 3.71   2 3.71
   2  0.796  0.796  0.799-   9 2.23   6 2.25   8 2.33   8 2.33   7 2.34   7 2.34   1 3.71   1 3.71
                             3 3.73   3 3.73
   3  0.573  0.573  0.619-   6 2.35  12 2.42  12 2.42   9 2.52   9 2.52  11 2.53   8 2.61   2 3.73
                             2 3.73   5 3.81   5 3.81
   4  0.407  0.407  0.361-  10 2.23  10 2.23  13 2.35  12 2.50  11 2.50   8 2.55   1 3.71   1 3.71
                             5 3.73   5 3.85   5 3.85
   5  0.191  0.191  0.232-  11 2.23  11 2.23  12 2.40  10 2.51  13 2.53   7 2.55   4 3.73   3 3.81
                             3 3.81   4 3.85   4 3.85
   6  0.624  0.624  0.814-   2 2.25   3 2.35   1 2.44   1 2.44
   7  0.214  0.214  0.959-   2 2.34   2 2.34   1 2.47   5 2.55
   8  0.373  0.373  0.640-   2 2.33   2 2.33   4 2.55   3 2.61
   9  0.960  0.960  0.803-   2 2.23   1 2.34   3 2.52   3 2.52
  10  0.000  0.000  0.244-   4 2.23   4 2.23   1 2.41   5 2.51
  11  0.597  0.597  0.348-   5 2.23   5 2.23   4 2.50   3 2.53
  12  0.193  0.193  0.473-   5 2.40   3 2.42   3 2.42   4 2.50
  13  0.406  0.406  0.123-   4 2.35   1 2.37   1 2.37   5 2.53

  LATTYP: Found a base centered monoclinic cell.
 ALAT       =    13.4848000000
 B/A-ratio  =     0.2788652409
 C/A-ratio  =     0.7324392979
 COS(beta)  =    -0.5095340902

  Lattice vectors:

 A1 = (  -1.8802210000,  -6.7424000000,   0.0000000000)
 A2 = (   1.8802210000,  -6.7424000000,   0.0000000000)
 A3 = (   0.0000000000,   5.0325650000,   8.4984950000)

Analysis of symmetry for initial positions (statically):
 Subroutine PRICEL returns:
 Original cell was already a primitive cell.

 Routine SETGRP: Setting up the symmetry group for a
 base centered monoclinic supercell.

 Subroutine GETGRP returns: Found  2 space group operations
 (whereof  2 operations were pure point group operations)
 out of a pool of  4 trial point group operations.

The static configuration has the point symmetry C_1h.

Analysis of symmetry for dynamics (positions and initial velocities):
 Subroutine PRICEL returns:
 Original cell was already a primitive cell.

[...]

The dynamic configuration has the point symmetry C_1h.

Analysis of structural, dynamic, and magnetic symmetry:
 Subroutine PRICEL returns:
 Original cell was already a primitive cell.

 Routine SETGRP: Setting up the symmetry group for a
 base centered monoclinic supercell.

 Subroutine GETGRP returns: Found  2 space group operations
 (whereof  2 operations were pure point group operations)
 out of a pool of  4 trial point group operations.

The overall configuration has the point symmetry C_1h.

 Subroutine INISYM returns: Found  2 space group operations
 (whereof  2 operations are pure point group operations),
 and found     1 'primitive' translations

                                     Primitive cell

  volume of cell :     215.4743

  direct lattice vectors                    reciprocal lattice vectors
     1.880221000  6.742400000  0.000000000     0.265926186  0.074157570 -0.043913986
    -1.880221000  6.742400000  0.000000000    -0.265926186  0.074157570 -0.043913986
     0.000000000  5.032565000  8.498495000     0.000000000 -0.000000000  0.117667893

  length of vectors
     6.999656332  6.999656332  9.876797444     0.279543413  0.279543413  0.117667893

  position of ions in fractional coordinates (direct lattice)
     0.020793000  0.020793000  0.987111000
     0.796203000  0.796203000  0.799131000
     0.573377000  0.573377000  0.618839000
     0.406635000  0.406635000  0.360768000
     0.190542000  0.190542000  0.231824000
     0.624136000  0.624136000  0.814269000
     0.213625000  0.213625000  0.958505000
     0.372605000  0.372605000  0.639927000
     0.960369000  0.960369000  0.802720000
     0.000432000  0.000432000  0.243736000
     0.596869000  0.596869000  0.347808000
     0.193410000  0.193410000  0.472921000
     0.405728000  0.405728000  0.123126000

  ion indices of the primitive-cell ions
   primitive index   ion index
                 1           1
                 2           2
                 3           3
                 4           4
                 5           5
                 6           6
                 7           7
                 8           8
                 9           9
                10          10
                11          11
                12          12
                13          13

 KPOINTS: Kpoints from vasprun.xml

Automatic generation of k-mesh.
 Grid dimensions read from file:
 generate k-points for:    5    5    3

 Generating k-lattice:

  Cartesian coordinates                     Fractional coordinates (reciprocal lattice)
     0.053185237  0.014831514 -0.008782797     0.200000000 -0.000000000 -0.000000000
    -0.053185237  0.014831514 -0.008782797    -0.000000000  0.200000000 -0.000000000
     0.000000000 -0.000000000  0.039222631     0.000000000  0.000000000  0.333333333

  Length of vectors
     0.055908683  0.055908683  0.039222631

  Shift w.r.t. Gamma in fractional coordinates (k-lattice)
     0.000000000  0.000000000  0.000000000

 TETIRR: Found    114 inequivalent tetrahedra from      450

 Subroutine IBZKPT returns following result:

 Found     24 irreducible k-points:

 Following reciprocal coordinates:
            Coordinates               Weight
  0.000000  0.000000  0.000000      1.000000
  0.200000  0.000000  0.000000      4.000000
  0.400000  0.000000  0.000000      4.000000
  0.200000  0.200000  0.000000      2.000000
  0.400000  0.200000  0.000000      4.000000
 -0.400000  0.200000  0.000000      4.000000
 -0.200000  0.200000  0.000000      2.000000
  0.400000  0.400000  0.000000      2.000000
 -0.400000  0.400000  0.000000      2.000000
  0.000000  0.000000  0.333333      2.000000
  0.200000  0.000000  0.333333      4.000000
  0.400000  0.000000  0.333333      4.000000
 -0.400000  0.000000  0.333333      4.000000
 -0.200000  0.000000  0.333333      4.000000
  0.200000  0.200000  0.333333      2.000000
  0.400000  0.200000  0.333333      4.000000
 -0.400000  0.200000  0.333333      4.000000
 -0.200000  0.200000  0.333333      4.000000
  0.400000  0.400000  0.333333      2.000000
 -0.400000  0.400000  0.333333      4.000000
 -0.200000  0.400000  0.333333      4.000000
 -0.400000 -0.400000  0.333333      2.000000
 -0.200000 -0.400000  0.333333      4.000000
 -0.200000 -0.200000  0.333333      2.000000

 Following cartesian coordinates:
            Coordinates               Weight
  0.000000  0.000000  0.000000      1.000000
  0.053185  0.014832 -0.008783      4.000000
  0.106370  0.029663 -0.017566      4.000000
  0.000000  0.029663 -0.017566      2.000000
  0.053185  0.044495 -0.026348      4.000000
 -0.159556 -0.014832  0.008783      4.000000
 -0.106370  0.000000  0.000000      2.000000
 -0.000000  0.059326 -0.035131      2.000000
 -0.212741  0.000000  0.000000      2.000000
  0.000000  0.000000  0.039223      2.000000
  0.053185  0.014832  0.030440      4.000000
  0.106370  0.029663  0.021657      4.000000
 -0.106370 -0.029663  0.056788      4.000000
 -0.053185 -0.014832  0.048005      4.000000
  0.000000  0.029663  0.021657      2.000000
  0.053185  0.044495  0.012874      4.000000
 -0.159556 -0.014832  0.048005      4.000000
 -0.106370  0.000000  0.039223      4.000000
 -0.000000  0.059326  0.004091      2.000000
 -0.212741  0.000000  0.039223      4.000000
 -0.159556  0.014832  0.030440      4.000000
 -0.000000 -0.059326  0.074354      2.000000
  0.053185 -0.044495  0.065571      4.000000
  0.000000 -0.029663  0.056788      2.000000

 SYSTEM =  unknown system
 POSCAR =  Gd1 Bi4 O8

[...]
  318                map_forward                           0.000232                    4   7
  319                  map_gather                            0.000050                  2   8
  320                  m_alltoallv_z                         0.000031                  2   8
  321                  map_scatter                           0.000112                  2   8
  322                map_backward                          0.000109                    2   7
  323                  map_gather                            0.000028                  1   8
  324                  m_alltoallv_z                         0.000013                  1   8
  325                  map_scatter                           0.000050                  1   8
  326          m_sumb_d                              0.000011                          2   4
  327          pothar                                0.000093                          1   4
  328            m_sumb_d                              0.000015                        1   5
  329        brmix                                 0.006417                            1   3
  330          m_sumb_d                              0.000119                          6   4
  331          brpre                                 0.000043                          2   4
  332          setg0                                 0.001621                          1   4
  333          broyd                                 0.002635                          1   4
  334            m_sumb_d                              0.000136                       25   5
  335            brget                                 0.000790                       99   5
  336            brsav                                 0.000180                       23   5
  337        m_bcast_d                             0.000028                            2   3
  338      potlok                                0.052442                              2   2
  339        fft3d_mpi                             0.034810                           36   3
  340          fftbrc_mpi                            0.030119                         36   4
  341            fftbas_plan_mpi                       0.030087                       36   5
  342              map_forward                           0.008502                     40   6
  343                map_gather                            0.002524                   24   7
  344                m_alltoallv_z                         0.003340                   24   7
  345                map_scatter                           0.002408                   24   7
  346              map_backward                          0.007312                     32   6
  347                map_gather                            0.002403                   16   7
  348                m_alltoallv_z                         0.002661                   16   7
  349                map_scatter                           0.002038                   16   7
  350              dfftw_execute                         0.012491                     30   6
  351        m_sumb_d                              0.000027                            5   3
  352        pothar                                0.002244                            2   3
  353          m_sumb_d                              0.000012                          2   4
  354        m_bcast_d                             0.003820                            4   3
  355      potlok_metagga                        0.000000                              1   2
  356      set_dd_magatom                        0.000005                              1   2
  357      set_dd_paw                            1.862029                              1   2
  358        m_sumb_d                              0.933329                            7   3
  359      augmentation_charge                   0.279383                              1   2
  360        fft3d_mpi                             0.091050                            2   3
  361          fftbrc_mpi                            0.081375                          2   4
  362            fftbas_plan_mpi                       0.081372                        2   5
  363              dfftw_execute                         0.051598                      6   6
  364              map_backward                          0.029483                      4   6
  365                map_gather                            0.010100                    2   7
  366                m_alltoallv_z                         0.010353                    2   7
  367                map_scatter                           0.009019                    2   7
  368      fftwav_mpi                            3.240162                           2160   2
  369        fftwav                                3.237416                         2160   3
  370          fft3d                                 3.006630                       2160   4
  371      densta                                1.146095                              1   2

 Flat profile

 raccmu_                                34.252862       36117
 m_sumb_d                               32.375815      112500
 set_dd_paw                             19.390682          21
 eddav                                  18.192730          23
 total_time                             17.220375           1
 lapack                                 16.302332       36117
 init_acc                               11.193442           1
 setdij_                                 8.525761          47
 phaser                                  8.433512        1416
 redis_pw                                7.811150      186537
 fft3d                                   5.274836      206340
 dfftw_execute                           4.188361         948
 augmentation_charge                     3.953043          21
 m_alltoall_d                            3.588453      488677
 acc_init_cublas                         3.462471           1
 densta                                  2.292802          24
 eccp                                    1.753165       16560
 fftwav                                  1.663033      139409
 redis_proj                              1.583593      236956
 rpromu_acc                              1.326354       29781
 orth1                                   1.291169      108447
 hamiltmu                                1.127291       36117
 m_alltoallv_z                           1.044690         963
 racc0mu_acc                             1.028994       36117
 acc_init_cusolver                       1.008664           1
 w1_copy                                 0.988182      200793
 overl                                   0.969075      117350
 m_bcast_z                               0.924691       38997
 soft_charge                             0.702332          20
 fft3d_mpi                               0.700264       67792
 map_scatter                             0.637787         963
 map_gather                              0.618690         963
 setup_precond                           0.601096       16560
 m_bcast_d                               0.596543       72281
 rpro_isp                                0.582802         312
 overl_mu                                0.553896       36117
 ggemm                                   0.481909       44949
 pw_charge                               0.425871       10587
 acc_cufft_makeplan                      0.327049          19
 set_charge                              0.321454          20
 rspher_all                              0.312625          14
 vhamil                                  0.309514       66931
 kinhamil                                0.308563       66931
 newband                                 0.301579       37221
 fftext_mpi                              0.289069       66931
 apply_precond                           0.279768       50371
 depsum                                  0.225304          20
 fftwav_mpi                              0.183899      139409
 potlok                                  0.134040          21
 sphpro_fast                             0.086337           2
 elmin                                   0.071264           1
 fftbas_plan_mpi                         0.067264         861
 proall                                  0.055204           1
 brmix                                   0.052259          19
 lincom                                  0.041635        1152
 setg0                                   0.031819          21
 w1_projall                              0.029469       27285
 broyd                                   0.027868          19
 orthch                                  0.018672           1
 choleski                                0.016379          48
 force_and_stress                        0.015360           1
 stufak                                  0.010770           1
 brget                                   0.008321        1020
 strnlr                                  0.006951           1
 truncate_high_frequency_w1              0.006640       83491
 map_forward                             0.005338         832
 map_backward                            0.004955         890
 inisym                                  0.004349           1
 pothar                                  0.003949          22
 strelo                                  0.003194           1
 forhar                                  0.002693           2
 fft_gq                                  0.002685          20
 fornlr                                  0.002424           1
 strehar                                 0.002256           1
 brsav                                   0.002198         269
 forloc                                  0.001368           1
 brpre                                   0.000908          38
 strkin                                  0.000688           1
 fftbrc_mpi                              0.000628         861
 rsp                                     0.000348           1
 fewald                                  0.000344           1
 brgrid                                  0.000307           1
 chggra                                  0.000269           1
 set_dd_magatom                          0.000107          21
 vectorpot                               0.000083          20
 fordep                                  0.000078           1
 crpa_reader                             0.000026           1
 rcp                                     0.000023           1
 posmap                                  0.000015           2
 acc_cufft_makeplans                     0.000012           3
 potlok_metagga                          0.000002          20
 rotate_active_occupied_orbital          0.000000           1
 redis_pw_over_bands                     0.000000           1
  summed up times     220.6470410823822

 Accumulative profile

 total_time                            220.647041           1
 elmin                                 164.519215           1
 eddav                                 115.185169          23
 set_dd_paw                             39.023523          21
 hamiltmu                               38.380526       36117
 raccmu_                                35.835753       36117
 m_sumb_d                               32.375815      112500
 lapack                                 16.302332       36117
 setdij_                                13.080348          47
 force_and_stress                       12.928444           1
 init_acc                               11.193442           1
 redis_pw                                9.528460      186537
 set_charge                              8.622113          20
 phaser                                  8.433512        1416
 fft3d_mpi                               7.757818       67792
 fftwav_mpi                              6.631927      139409
 fftbrc_mpi                              6.567713         861
 fftbas_plan_mpi                         6.567085         861
 fftwav                                  6.448028      139409
 augmentation_charge                     5.878686          21
 fft3d                                   5.274836      206340
 dfftw_execute                           4.188361         948
 newband                                 3.957160       37221
 m_alltoall_d                            3.588453      488677
 acc_init_cublas                         3.462471           1
 redis_proj                              3.454736      236956
 strnlr                                  2.568363           1
 soft_charge                             2.416315          20
 densta                                  2.292802          24
 eccp                                    1.753165       16560
 fordep                                  1.659213           1
 rpro_isp                                1.434254         312
 rpromu_acc                              1.326354       29781
 orth1                                   1.291169      108447
 map_forward                             1.282584         832
 kinhamil                                1.107968       66931
 m_alltoallv_z                           1.044690         963
 racc0mu_acc                             1.028994       36117
 map_backward                            1.028876         890
 acc_init_cusolver                       1.008664           1
 w1_copy                                 0.988182      200793
 overl                                   0.969075      117350
 m_bcast_z                               0.924691       38997
 fornlr                                  0.858480           1
 fftext_mpi                              0.799405       66931
 w1_projall                              0.797703       27285
 map_scatter                             0.637787         963
 map_gather                              0.618690         963
 setup_precond                           0.601096       16560
 m_bcast_d                               0.596543       72281
 overl_mu                                0.553896       36117
 ggemm                                   0.481909       44949
 pw_charge                               0.425871       10587
 potlok                                  0.395505          21
 orthch                                  0.391701           1
 acc_cufft_makeplans                     0.327061           3
 acc_cufft_makeplan                      0.327049          19
 rspher_all                              0.312625          14
 vhamil                                  0.309514       66931
 apply_precond                           0.279768       50371
 proall                                  0.237852           1
 depsum                                  0.231108          20
 brmix                                   0.128479          19
 sphpro_fast                             0.089489           2
 fft_gq                                  0.072367          20
 lincom                                  0.041635        1152
 broyd                                   0.040181          19
 setg0                                   0.031819          21
 choleski                                0.016379          48
 stufak                                  0.010770           1
 brget                                   0.008321        1020
 truncate_high_frequency_w1              0.006640       83491
 inisym                                  0.004364           1
 pothar                                  0.004162          22
 strelo                                  0.003204           1
 forhar                                  0.002758           2
 strehar                                 0.002283           1
 brsav                                   0.002198         269
 forloc                                  0.001420           1
 chggra                                  0.000927           1
 brpre                                   0.000908          38
 fewald                                  0.000857           1
 strkin                                  0.000704           1
 rsp                                     0.000348           1
 brgrid                                  0.000307           1
 set_dd_magatom                          0.000107          21
 vectorpot                               0.000083          20
 crpa_reader                             0.000026           1
 rcp                                     0.000023           1
 posmap                                  0.000015           2
 potlok_metagga                          0.000002          20
 rotate_active_occupied_orbital          0.000000           1
 redis_pw_over_bands                     0.000000           1

Profiling took   0.440975  0.214840  0.003419  0.003314 seconds
Profiling took   0.270058 seconds