 vasp.6.3.2 27Jun22 (build Jul  3 2023 11:46:21) complex
 executed on    LinuxNV_CrayMPICH date 2024.04.21  04:53:57

 INCAR:
   ALGO = Normal
   EDIFF = 0.0006
   ENCUT = 520.0
   IBRION = -1
   ISIF = 3
   ISMEAR = -5
   ISPIN = 2
   KPAR = 8
   LAECHG = True
   LASPH = True
   LCHARG = True
   LORBIT = 11
   LREAL = Auto
   LVHAR = True
   LWAVE = False
   MAGMOM = 2*7.0 2*0.6 6*5.0 2*0.6
   NELM = 1000
   NPAR = 4
   NSW = 0
   PREC = Accurate
   SIGMA = 0.05

 POTCAR:    PAW_PBE Gd 23Dec2003
 POTCAR:    PAW_PBE Co 02Aug2007
 POTCAR:    PAW_PBE Ni_pv 06Sep2000
 POTCAR:    PAW_PBE B 06Sep2000
 POTCAR:    PAW_PBE Gd 23Dec2003
   VRHFIN =Gd : [core=Xe4]

   TITEL  = PAW_PBE Gd 23Dec2003
   POMASS =  157.250; ZVAL   =   18.000    mass and valenz
   ENMAX  =  256.472; ENMIN  =  192.354 eV

   TITEL  = PAW_PBE Co 02Aug2007
   POMASS =   58.933; ZVAL   =    9.000    mass and valenz
   ENMAX  =  267.968; ENMIN  =  200.976 eV

   TITEL  = PAW_PBE Ni_pv 06Sep2000
   POMASS =   58.690; ZVAL   =   16.000    mass and valenz
   ENMAX  =  367.986; ENMIN  =  275.989 eV

   TITEL  = PAW_PBE B 06Sep2000
   POMASS =   10.811; ZVAL   =    3.000    mass and valenz
   ENMAX  =  318.614; ENMIN  =  238.960 eV

 Optimization of the real space projectors (new method)

 maximal supplied QI-value         = 13.42
 optimisation between [QCUT,QGAM] = [ 11.67, 23.35] = [ 38.16,152.62] Ry
 Optimized for a Real-space Cutoff    1.63 Angstroem

   l    n(q)    QCUT    max X(q) W(low)/X(q) W(high)/X(q)  e(spline)
   0     11    11.673    10.501    0.14E-04    0.17E-05    0.21E-07
   0     11    11.673     9.148    0.21E-04    0.32E-05    0.45E-07
   1     11    11.673     4.035    0.33E-05    0.11E-04    0.84E-07
   1     11    11.673     4.388    0.11E-04    0.47E-04    0.34E-06
   2     10    11.673    20.656    0.12E-04    0.28E-04    0.54E-06
   2     10    11.673    12.651    0.11E-04    0.26E-04    0.51E-06
   3     10    11.673    61.921    0.19E-03    0.22E-03    0.23E-06
   3     10    11.673    48.328    0.20E-03    0.23E-03    0.23E-06
 Optimization of the real space projectors (new method)

[...]

   l    n(q)    QCUT    max X(q) W(low)/X(q) W(high)/X(q)  e(spline)
   1      9    11.527     2.836    0.16E-04    0.30E-04    0.95E-07
   1      9    11.527     4.023    0.73E-04    0.81E-04    0.21E-06
   2      9    11.527    73.368    0.15E-03    0.29E-03    0.28E-06
   2      9    11.527    69.010    0.15E-03    0.29E-03    0.29E-06
   0      9    11.527    54.797    0.43E-04    0.28E-04    0.85E-07
   0      9    11.527    24.266    0.33E-04    0.24E-04    0.75E-07
 Optimization of the real space projectors (new method)

 maximal supplied QI-value         = 22.11
 optimisation between [QCUT,QGAM] = [ 11.50, 23.22] = [ 37.02,150.92] Ry
 Optimized for a Real-space Cutoff    1.21 Angstroem

   l    n(q)    QCUT    max X(q) W(low)/X(q) W(high)/X(q)  e(spline)
   0      8    11.497    53.033    0.18E-03    0.30E-03    0.10E-06
   0      8    11.497    34.740    0.17E-03    0.29E-03    0.10E-06
   1      8    11.497    30.949    0.20E-03    0.12E-03    0.21E-06
   1      8    11.497    19.518    0.18E-03    0.11E-03    0.19E-06
  PAW_PBE Gd 23Dec2003                  :
  PAW_PBE Co 02Aug2007                  :
  PAW_PBE Ni_pv 06Sep2000               :
  PAW_PBE B 06Sep2000                   :

 POSCAR: Gd2 Co2 Ni6 B2
  positions in direct lattice
 exchange correlation table for  LEXCH =        8
   RHO(1)=    0.500       N(1)  =     2000
   RHO(2)=  100.500       N(2)  =     4000

 VTST: version 4.2, (08/11/21)

 CHAIN: initializing optimizer

 OPT: Using VASP Dynamics algorithm
 CHAIN: Read ICHAIN             0

 POSCAR: Gd2 Co2 Ni6 B2
  positions in direct lattice

 ion  position               nearest neighbor table
   1  0.000  0.000  0.000-   3 2.89   4 2.89   3 2.89   4 2.89   3 2.89   4 2.89   2 3.47   2 3.47

   2  0.000  0.000  0.500-   5 2.88   8 2.88   5 2.88   8 2.88   6 2.88   9 2.88   6 2.88   9 2.88
                             7 2.88  10 2.88   7 2.88  10 2.88   1 3.47   1 3.47
   3  0.667  0.333  0.000-   7 2.49  10 2.49   9 2.49   6 2.49   5 2.49   8 2.49   4 2.89   4 2.89
                             1 2.89   1 2.89   1 2.89   4 2.89
   4  0.333  0.667  0.000-   7 2.49  10 2.49   9 2.49   6 2.49   5 2.49   8 2.49   3 2.89   3 2.89
                             1 2.89   1 2.89   1 2.89   3 2.89
   5  0.500  0.500  0.707-  11 2.04  12 2.04   3 2.49   4 2.49   7 2.50   7 2.50   6 2.50   6 2.50
                             2 2.88   2 2.88
   6  0.500  0.000  0.707-  11 2.04  12 2.04   3 2.49   4 2.49   7 2.50   7 2.50   5 2.50   5 2.50
                             2 2.88   2 2.88
   7  0.000  0.500  0.707-  11 2.04  12 2.04   3 2.49   4 2.49   6 2.50   6 2.50   5 2.50   5 2.50
                             2 2.88   2 2.88
   8  0.500  0.500  0.293-  11 2.04  12 2.04   3 2.49   4 2.49  10 2.50  10 2.50   9 2.50   9 2.50
                             2 2.88   2 2.88
   9  0.500  0.000  0.293-  11 2.04  12 2.04   3 2.49   4 2.49  10 2.50  10 2.50   8 2.50   8 2.50
                             2 2.88   2 2.88
  10  0.000  0.500  0.293-  11 2.04  12 2.04   3 2.49   4 2.49   9 2.50   9 2.50   8 2.50   8 2.50
                             2 2.88   2 2.88
  11  0.667  0.333  0.500-   7 2.04  10 2.04   9 2.04   6 2.04   5 2.04   8 2.04
  12  0.333  0.667  0.500-   7 2.04  10 2.04   9 2.04   6 2.04   5 2.04   8 2.04

  LATTYP: Found a hexagonal cell.
 ALAT       =     5.0012910000
 C/A-ratio  =     1.3873523856

  Lattice vectors:

 A1 = (   5.0012910000,   0.0000000000,   0.0000000000)
 A2 = (  -2.5006460000,   4.3312450000,   0.0000000000)
 A3 = (   0.0000000000,   0.0000000000,   6.9385530000)

Analysis of symmetry for initial positions (statically):
 Subroutine PRICEL returns:
 Original cell was already a primitive cell.

 Routine SETGRP: Setting up the symmetry group for a
 hexagonal supercell.

 Subroutine GETGRP returns: Found 24 space group operations
 (whereof 24 operations were pure point group operations)
 out of a pool of 24 trial point group operations.

The static configuration has the point symmetry D_6h.

Analysis of symmetry for dynamics (positions and initial velocities):
 Subroutine PRICEL returns:
 Original cell was already a primitive cell.

[...]

The dynamic configuration has the point symmetry D_6h.

Analysis of structural, dynamic, and magnetic symmetry:
 Subroutine PRICEL returns:
 Original cell was already a primitive cell.

 Routine SETGRP: Setting up the symmetry group for a
 hexagonal supercell.

 Subroutine GETGRP returns: Found 24 space group operations
 (whereof 24 operations were pure point group operations)
 out of a pool of 24 trial point group operations.

The overall configuration has the point symmetry D_6h.

 Subroutine INISYM returns: Found 24 space group operations
 (whereof 24 operations are pure point group operations),
 and found     1 'primitive' translations

                                     Primitive cell

  volume of cell :     150.3017

  direct lattice vectors                    reciprocal lattice vectors
     5.001291000  0.000000000  0.000000000     0.199948373  0.115440272 -0.000000000
    -2.500646000  4.331245000  0.000000000     0.000000000  0.230880497  0.000000000
     0.000000000  0.000000000  6.938553000     0.000000000 -0.000000000  0.144122269

  length of vectors
     5.001291000  5.001291200  6.938553000     0.230880507  0.230880497  0.144122269

  position of ions in fractional coordinates (direct lattice)
     0.000000000  0.000000000  0.000000000
     0.000000000  0.000000000  0.500000000
     0.666667000  0.333333000  0.000000000
     0.333333000  0.666667000  0.000000000
     0.500000000  0.500000000  0.707143000
     0.500000000  0.000000000  0.707143000
     1.000000000  0.500000000  0.707143000
     0.500000000  0.500000000  0.292857000
     0.500000000  0.000000000  0.292857000
     1.000000000  0.500000000  0.292857000
     0.666667000  0.333333000  0.500000000
     0.333333000  0.666667000  0.500000000

  ion indices of the primitive-cell ions
   primitive index   ion index
                 1           1
                 2           2
                 3           3
                 4           4
                 5           5
                 6           6
                 7           7
                 8           8
                 9           9
                10          10
                11          11
                12          12

 KPOINTS: Kpoints from vasprun.xml

Automatic generation of k-mesh.
 Grid dimensions read from file:
 generate k-points for:    6    6    4

 Generating k-lattice:

  Cartesian coordinates                     Fractional coordinates (reciprocal lattice)
     0.033324729  0.019240045 -0.000000000     0.166666667 -0.000000000  0.000000000
     0.000000000  0.038480083  0.000000000     0.000000000  0.166666667  0.000000000
     0.000000000 -0.000000000  0.036030567     0.000000000  0.000000000  0.250000000

  Length of vectors
     0.038480084  0.038480083  0.036030567

  Shift w.r.t. Gamma in fractional coordinates (k-lattice)
     0.000000000  0.000000000  0.000000000

 TETIRR: Found    142 inequivalent tetrahedra from      864

 Subroutine IBZKPT returns following result:

 Found     21 irreducible k-points:

 Following reciprocal coordinates:
            Coordinates               Weight
  0.000000  0.000000  0.000000      1.000000
  0.166667  0.000000  0.000000      6.000000
  0.333333  0.000000  0.000000      6.000000
  0.500000  0.000000  0.000000      3.000000
  0.166667  0.166667  0.000000      6.000000
  0.333333  0.166667  0.000000     12.000000
  0.333333  0.333333  0.000000      2.000000
  0.000000  0.000000  0.250000      2.000000
  0.166667  0.000000  0.250000     12.000000
  0.333333  0.000000  0.250000     12.000000
  0.500000  0.000000  0.250000      6.000000
  0.166667  0.166667  0.250000     12.000000
  0.333333  0.166667  0.250000     24.000000
  0.333333  0.333333  0.250000      4.000000
  0.000000  0.000000  0.500000      1.000000
  0.166667  0.000000  0.500000      6.000000
  0.333333  0.000000  0.500000      6.000000
  0.500000  0.000000  0.500000      3.000000
  0.166667  0.166667  0.500000      6.000000
  0.333333  0.166667  0.500000     12.000000
  0.333333  0.333333  0.500000      2.000000

 Following cartesian coordinates:
            Coordinates               Weight
  0.000000  0.000000  0.000000      1.000000
  0.033325  0.019240  0.000000      6.000000
  0.066649  0.038480  0.000000      6.000000
  0.099974  0.057720  0.000000      3.000000
  0.033325  0.057720  0.000000      6.000000
  0.066649  0.076960  0.000000     12.000000
  0.066649  0.115440  0.000000      2.000000
  0.000000  0.000000  0.036031      2.000000
  0.033325  0.019240  0.036031     12.000000
  0.066649  0.038480  0.036031     12.000000
  0.099974  0.057720  0.036031      6.000000
  0.033325  0.057720  0.036031     12.000000
  0.066649  0.076960  0.036031     24.000000
  0.066649  0.115440  0.036031      4.000000
  0.000000  0.000000  0.072061      1.000000
  0.033325  0.019240  0.072061      6.000000
  0.066649  0.038480  0.072061      6.000000
  0.099974  0.057720  0.072061      3.000000
[...]
  173        strelo                                0.004140                            1   3
  174        strnlr                                1.953951                            1   3
  175          rspher_all                            0.129602                          9   4
  176          phaser                                0.153656                         54   4
  177          rpro_isp                              1.667562                         54   4
  178            fftwav_mpi                            0.390046                    12528   5
  179              fftwav                                0.375037                  12528   6
  180                fft3d                                 0.084471                12528   7
  181            rpromu_acc                            0.694528                     3132   5
  182          m_sumb_d                              0.000064                          9   4
  183        fft3d_mpi                             0.003013                           22   3
  184          fftbrc_mpi                            0.002131                         22   4
  185            fftbas_plan_mpi                       0.002121                       22   5
  186              map_forward                           0.000752                     20   6
  187                map_scatter                           0.000288                   10   7
  188              map_backward                          0.000782                     24   6
  189                map_gather                            0.000341                   12   7
  190        forhar                                0.007354                            2   3
  191        strehar                               0.003317                            1   3
  192        chggra                                0.000787                            1   3
  193          fft3d_mpi                             0.000428                          3   4
  194            fftbrc_mpi                            0.000303                        3   5
  195              fftbas_plan_mpi                       0.000302                      3   6
  196                map_forward                           0.000150                    4   7
  197                  map_scatter                           0.000057                  2   8
  198                map_backward                          0.000066                    2   7
  199                  map_gather                            0.000028                  1   8
  200          pothar                                0.000085                          1   4
  201        brmix                                 0.022476                            1   3
  202          brpre                                 0.000050                          2   4
  203          setg0                                 0.003045                          1   4
  204          broyd                                 0.015156                          1   4
  205            brget                                 0.002887                      229   5
  206            brsav                                 0.000596                       49   5
  207          m_bcast_z                             0.001103                          1   4
  208          m_bcast_d                             0.000022                          1   4
  209        m_bcast_d                             0.000031                            2   3
  210      potlok                                0.060023                              2   2
  211        fft3d_mpi                             0.033047                           36   3
  212          fftbrc_mpi                            0.026184                         36   4
  213            fftbas_plan_mpi                       0.026167                       36   5
  214              map_forward                           0.004199                     40   6
  215                map_scatter                           0.002624                   20   7
  216              map_backward                          0.003297                     32   6
  217                map_gather                            0.002136                   16   7
  218              dfftw_execute                         0.017077                     30   6
  219        pothar                                0.003098                            2   3
  220      potlok_metagga                        0.000000                              1   2
  221      set_dd_magatom                        0.000004                              1   2
  222      set_dd_paw                            1.878229                              1   2
  223        m_sumb_d                              0.730281                            7   3
  224      augmentation_charge                   0.039535                              1   2
  225        fft3d_mpi                             0.007871                            2   3
  226          fftbrc_mpi                            0.005846                          2   4
  227            fftbas_plan_mpi                       0.005845                        2   5
  228              dfftw_execute                         0.004070                      6   6
  229              map_backward                          0.001543                      4   6
  230                map_gather                            0.001084                    2   7
  231      densta                                4.941754                              1   2
  232        m_bcast_z                             0.000022                            1   3

 Flat profile

 set_dd_paw                            442.675735         387
 m_sumb_d                              333.204002        5443
 eddav                                 270.726724         389
 raccmu_                               131.153645      256567
 lapack                                125.562507      256567
 densta                                 54.268132         390
 eccp                                   45.382176      541488
 fft3d                                  38.144834     5741340
 fftwav                                 33.036050     3774728
 w1_copy                                27.117364     5899836
 overl                                  26.718060     3391748
 soft_charge                            20.351753         385
 setup_precond                          18.957897      541488
 racc0mu_acc                            13.729896      256567
 phaser                                 12.988425        4746
 augmentation_charge                    12.184757         386
 orth1                                  12.180628      769797
 setdij_                                11.558123         413
 rpromu_acc                              9.877641      191071
 pw_charge                               9.583222      364896
 total_time                              8.820253           1
 depsum                                  8.618199         385
 kinhamil                                8.514333     1966612
 vhamil                                  7.902600     1966612
 fftext_mpi                              7.657935     1966612
 hamiltmu                                7.235309      256567
 apply_precond                           6.911048     1425124
 init_acc                                6.288790           1
 fftwav_mpi                              4.586194     3774728
 overl_mu                                4.035656      256567
 newband                                 3.910124      261235
 ggemm                                   3.709624      326587
 broyd                                   3.466440         385
 potlok                                  2.915561         387
 set_charge                              2.488441         385
 acc_init_cublas                         2.439055           1
 fft3d_mpi                               2.219962     1978241
 dfftw_execute                           1.847651        4704
 brmix                                   1.195488         385
 brget                                   1.111030       87765
 setg0                                   0.956001         387
 elmin                                   0.876029           1
 rpro_isp                                0.828272          78
 acc_init_cusolver                       0.788531           1
 m_bcast_z                               0.646213        1167
 map_gather                              0.594373        6197
 fftbas_plan_mpi                         0.430269       11629
 map_backward                            0.376434       12394
 brsav                                   0.303745       25227
 map_forward                             0.247967       10864
 rspher_all                              0.192271          14
 truncate_high_frequency_w1              0.191381     2508100
 lincom                                  0.187776        4680
 w1_projall                              0.184063      186547
 map_scatter                             0.153421        5432
 sphpro_fast                             0.136620           2
 acc_cufft_makeplan                      0.128879          19
 proall                                  0.103307           1
 orthch                                  0.054149           1
 pothar                                  0.039333         388
 force_and_stress                        0.035954           1
 brpre                                   0.020312         770
 stufak                                  0.015683           1
 fft_gq                                  0.012225         385
 m_bcast_d                               0.009991         392
 choleski                                0.009492          12
 forhar                                  0.007354           2
 fftbrc_mpi                              0.005134       11629
 inisym                                  0.004694           1
 forloc                                  0.004186           1
 strelo                                  0.004140           1
 strehar                                 0.003317           1
 strnlr                                  0.003066           1
 vectorpot                               0.002399         386
 set_dd_magatom                          0.001578         387
 fornlr                                  0.001352           1
 strkin                                  0.000753           1
 brgrid                                  0.000387           1
 fewald                                  0.000332           1
 chggra                                  0.000274           1
 rsp                                     0.000197           1
 posmap                                  0.000054           2
 fordep                                  0.000053           1
 potlok_metagga                          0.000034         386
 crpa_reader                             0.000028           1
 rcp                                     0.000016           1
 acc_cufft_makeplans                     0.000009           3
 rotate_active_occupied_orbital          0.000001           1
 redis_pw_over_bands                     0.000000           1
  summed up times     1752.837316989899

 Accumulative profile

 total_time                           1752.837317           1
 elmin                                1721.246882           1
 eddav                                 808.267581         389
 set_dd_paw                            774.538948         387
 m_sumb_d                              333.204002        5443
 hamiltmu                              193.502343      256567
 raccmu_                               148.919197      256567
 lapack                                125.562507      256567
 newband                                82.242761      261235
 set_charge                             68.866492         385
 fftwav_mpi                             63.041049     3774728
 fftwav                                 58.454855     3774728
 densta                                 54.273776         390
 eccp                                   45.382176      541488
 soft_charge                            42.222951         385
 fft3d                                  38.144834     5741340
 kinhamil                               29.445236     1966612
 w1_copy                                27.117364     5899836
 overl                                  26.718060     3391748
 fftext_mpi                             20.930904     1966612
 setup_precond                          18.957897      541488
 fft3d_mpi                              18.601240     1978241
 augmentation_charge                    15.515190         386
 racc0mu_acc                            13.729896      256567
 phaser                                 12.988425        4746
 orth1                                  12.180628      769797
 setdij_                                11.558123         413
 rpromu_acc                              9.877641      191071
 pw_charge                               9.583222      364896
 w1_projall                              9.118049      186547
 depsum                                  8.679445         385
 vhamil                                  7.902600     1966612
 brmix                                   7.694050         385
 apply_precond                           6.911048     1425124
 init_acc                                6.288790           1
 force_and_stress                        5.527357           1
 broyd                                   4.881215         385
 potlok                                  4.395664         387
 overl_mu                                4.035656      256567
 ggemm                                   3.709624      326587
 fftbrc_mpi                              3.655250       11629
 fftbas_plan_mpi                         3.650115       11629
 acc_init_cublas                         2.439055           1
 rpro_isp                                2.331605          78
 strnlr                                  1.953951           1
 dfftw_execute                           1.847651        4704
 brget                                   1.111030       87765
 map_backward                            0.970808       12394
 setg0                                   0.956001         387
 acc_init_cusolver                       0.788531           1
 fornlr                                  0.649349           1
 m_bcast_z                               0.646213        1167
 map_gather                              0.594373        6197
 fft_gq                                  0.505102         385
 map_forward                             0.401388       10864
 brsav                                   0.303745       25227
 proall                                  0.230445           1
 rspher_all                              0.192271          14
 truncate_high_frequency_w1              0.191381     2508100
 lincom                                  0.187776        4680
 fordep                                  0.159743           1
 map_scatter                             0.153421        5432
 sphpro_fast                             0.141953           2
 acc_cufft_makeplans                     0.128888           3
 acc_cufft_makeplan                      0.128879          19
 orthch                                  0.065908           1
 pothar                                  0.039333         388
 brpre                                   0.020312         770
 stufak                                  0.015683           1
 m_bcast_d                               0.009991         392
 choleski                                0.009492          12
 forhar                                  0.007354           2
 inisym                                  0.004748           1
 forloc                                  0.004186           1
 strelo                                  0.004140           1
 strehar                                 0.003317           1
 vectorpot                               0.002399         386
 set_dd_magatom                          0.001578         387
 chggra                                  0.000787           1
 strkin                                  0.000758           1
 fewald                                  0.000596           1
 brgrid                                  0.000387           1
 rsp                                     0.000197           1
 posmap                                  0.000054           2
 potlok_metagga                          0.000034         386
 crpa_reader                             0.000028           1
 rcp                                     0.000016           1
 rotate_active_occupied_orbital          0.000001           1
 redis_pw_over_bands                     0.000000           1

Profiling took   4.541805  2.863214  0.003180  0.003113 seconds
Profiling took   3.076403 seconds