 vasp.6.3.2 27Jun22 (build Jul  3 2023 11:46:21) complex
 executed on    LinuxNV_CrayMPICH date 2024.04.21  07:10:41

 INCAR:
   ADDGRID = True
   ALGO = Normal
   EDIFF = 0.004
   ENCUT = 520.0
   IBRION = -1
   ICHARG = 0
   ISIF = 3
   ISMEAR = -5
   ISPIN = 2
   KPOINT_BSE = -1 0 0 0
   LAECHG = True
   LASPH = True
   LCHARG = True
   LELF = True
   LORBIT = 11
   LREAL = Auto
   LVHAR = True
   LWAVE = False
   MAGMOM = 8*0.6 4*7.0 68*0.6
   NELM = 1000
   NSW = 0
   PREC = accurate
   SIGMA = 0.05

 POTCAR:    PAW_PBE Rb_sv 06Sep2000
 POTCAR:    PAW_PBE Eu 23Dec2003
 POTCAR:    PAW_PBE Ga_d 06Jul2010
 POTCAR:    PAW_PBE Si 05Jan2001
 POTCAR:    PAW_PBE O 08Apr2002
 POTCAR:    PAW_PBE Rb_sv 06Sep2000
   VRHFIN =Rb: 4s4p5s

   TITEL  = PAW_PBE Rb_sv 06Sep2000
   POMASS =   85.468; ZVAL   =    9.000    mass and valenz
   ENMAX  =  220.112; ENMIN  =  165.084 eV

   TITEL  = PAW_PBE Eu 23Dec2003
   POMASS =  151.965; ZVAL   =   17.000    mass and valenz
   ENMAX  =  249.668; ENMIN  =  187.251 eV

   TITEL  = PAW_PBE Ga_d 06Jul2010
   POMASS =   69.723; ZVAL   =   13.000    mass and valenz
   ENMAX  =  282.691; ENMIN  =  212.018 eV

   TITEL  = PAW_PBE Si 05Jan2001
   POMASS =   28.085; ZVAL   =    4.000    mass and valenz
   ENMAX  =  245.345; ENMIN  =  184.009 eV

   TITEL  = PAW_PBE O 08Apr2002
   POMASS =   16.000; ZVAL   =    6.000    mass and valenz
   ENMAX  =  400.000; ENMIN  =  300.000 eV

 Optimization of the real space projectors (new method)

 maximal supplied QI-value         = 15.12
 optimisation between [QCUT,QGAM] = [ 11.64, 23.28] = [ 37.95,151.78] Ry
 Optimized for a Real-space Cutoff    1.63 Angstroem

   l    n(q)    QCUT    max X(q) W(low)/X(q) W(high)/X(q)  e(spline)
   0     11    11.641    11.905    0.26E-04    0.31E-05    0.88E-07
   0     11    11.641    15.029    0.40E-04    0.49E-05    0.17E-06
   1     11    11.641   129.694    0.10E-03    0.47E-04    0.47E-06
   1     11    11.641   129.780    0.10E-03    0.47E-04    0.47E-06
   2     10    11.641    17.083    0.83E-05    0.11E-04    0.75E-07
 Optimization of the real space projectors (new method)

[...]

   l    n(q)    QCUT    max X(q) W(low)/X(q) W(high)/X(q)  e(spline)
   0      8    11.508   159.560    0.71E-04    0.15E-03    0.51E-07
   0      8    11.508   115.863    0.70E-04    0.15E-03    0.51E-07
   1      8    11.508    88.339    0.16E-03    0.38E-04    0.82E-07
   1      8    11.508    48.592    0.15E-03    0.36E-04    0.79E-07
 Optimization of the real space projectors (new method)

 maximal supplied QI-value         = 24.76
 optimisation between [QCUT,QGAM] = [ 11.64, 23.27] = [ 37.91,151.63] Ry
 Optimized for a Real-space Cutoff    1.14 Angstroem

   l    n(q)    QCUT    max X(q) W(low)/X(q) W(high)/X(q)  e(spline)
   0      8    11.635    20.381    0.10E-03    0.33E-03    0.24E-06
   0      8    11.635    15.268    0.11E-03    0.35E-03    0.26E-06
   1      7    11.635     5.964    0.24E-03    0.31E-03    0.30E-06
   1      7    11.635     5.382    0.22E-03    0.25E-03    0.26E-06
  PAW_PBE Rb_sv 06Sep2000               :
  PAW_PBE Eu 23Dec2003                  :
  PAW_PBE Ga_d 06Jul2010                :
  PAW_PBE Si 05Jan2001                  :
  PAW_PBE O 08Apr2002                   :

 POSCAR: Rb8 Eu4 Ga4 Si16 O48
  positions in direct lattice
 exchange correlation table for  LEXCH =        8
   RHO(1)=    0.500       N(1)  =     2000
   RHO(2)=  100.500       N(2)  =     4000

 VTST: version 4.2, (08/11/21)

 CHAIN: initializing optimizer

 OPT: Using VASP Dynamics algorithm
 CHAIN: Read ICHAIN             0

 POSCAR: Rb8 Eu4 Ga4 Si16 O48
  positions in direct lattice

 ion  position               nearest neighbor table
   1  0.194  0.190  0.035-  42 2.99  33 2.99  77 3.01  65 3.06  37 3.14  39 3.16  67 3.16  75 3.40
                            13 3.60  59 3.62  29 3.66  50 3.66  19 3.68  17 3.74  63 3.82  22 3.82
   2  0.810  0.806  0.465-  41 2.99  34 2.99  78 3.01  66 3.06  38 3.14  40 3.16  68 3.16  76 3.40
                            14 3.60  60 3.62  30 3.66  49 3.66  20 3.68  18 3.74  64 3.82  21 3.82
   3  0.806  0.810  0.965-  44 2.99  35 2.99  79 3.01  67 3.06  39 3.14  37 3.16  65 3.16  73 3.40
                            15 3.60  57 3.62  31 3.66  52 3.66  17 3.68  19 3.74  61 3.82  24 3.82
   4  0.190  0.194  0.535-  43 2.99  36 2.99  80 3.01  68 3.06  40 3.14  38 3.16  66 3.16  74 3.40
                            16 3.60  58 3.62  32 3.66  51 3.66  18 3.68  20 3.74  62 3.82  23 3.82
   5  0.725  0.204  0.455-  70 2.90  63 3.03  47 3.14  34 3.18  49 3.21  61 3.38  45 3.45  55 3.49
                            51 3.59  41 3.66  27 3.66  18 3.68  15 3.70  21 3.83  25 3.90  21 3.94
   6  0.796  0.275  0.045-  69 2.90  64 3.03  48 3.14  33 3.18  50 3.21  62 3.38  46 3.45  56 3.49
                            52 3.59  42 3.66  28 3.66  17 3.68  16 3.70  22 3.83  26 3.90  22 3.94
   7  0.275  0.796  0.545-  72 2.90  61 3.03  45 3.14  36 3.18  51 3.21  63 3.38  47 3.45  53 3.49
                            49 3.59  43 3.66  25 3.66  20 3.68  13 3.70  23 3.83  27 3.90  23 3.94
   8  0.204  0.725  0.955-  71 2.90  62 3.03  46 3.14  35 3.18  52 3.21  64 3.38  48 3.45  54 3.49
                            50 3.59  44 3.66  26 3.66  19 3.68  14 3.70  24 3.83  28 3.90  24 3.94
   9  0.014  0.448  0.750-  33 2.31  66 2.32  77 2.34  78 2.44  58 2.45  57 2.59  30 3.28   1 4.16
                             2 4.18   4 4.27
  10  0.552  0.986  0.750-  34 2.31  65 2.32  78 2.34  77 2.44  57 2.45  58 2.59  29 3.28   2 4.16
                             1 4.18   3 4.27
  11  0.986  0.552  0.250-  35 2.31  68 2.32  79 2.34  80 2.44  60 2.45  59 2.59  32 3.28   3 4.16
                             4 4.18   2 4.27
  12  0.448  0.014  0.250-  36 2.31  67 2.32  80 2.34  79 2.44  59 2.45  60 2.59  31 3.28   4 4.16
                             3 4.18   1 4.27
  13  0.267  0.873  0.272-  63 1.83  42 1.84  45 1.85  75 1.86   1 3.60   7 3.70   5 4.23
  14  0.127  0.733  0.228-  64 1.83  41 1.84  46 1.85  76 1.86   2 3.60   8 3.70   6 4.23
  15  0.733  0.127  0.728-  61 1.83  44 1.84  47 1.85  73 1.86   3 3.60   5 3.70   7 4.23
  16  0.873  0.267  0.772-  62 1.83  43 1.84  48 1.85  74 1.86   4 3.60   6 3.70   8 4.23
  17  0.693  0.640  0.993-  33 1.62  65 1.62  69 1.67  37 1.68  22 3.09  31 3.15   3 3.68   6 3.68
                             1 3.74   1 4.09
  18  0.360  0.307  0.507-  34 1.62  66 1.62  70 1.67  38 1.68  21 3.09  32 3.15   4 3.68   5 3.68
                             2 3.74   2 4.09
  19  0.307  0.360  0.007-  35 1.62  67 1.62  71 1.67  39 1.68  24 3.09  29 3.15   1 3.68   8 3.68
                             3 3.74   3 4.09
  20  0.640  0.693  0.493-  36 1.62  68 1.62  72 1.67  40 1.68  23 3.09  30 3.15   2 3.68   7 3.68
                             4 3.74   4 4.09
  21  0.207  0.669  0.423-  41 1.63  45 1.64  49 1.64  70 1.64  18 3.09   2 3.82   5 3.83   5 3.94
                             7 4.01
  22  0.331  0.793  0.077-  42 1.63  46 1.64  50 1.64  69 1.64  17 3.09   1 3.82   6 3.83   6 3.94
                             8 4.01
  23  0.793  0.331  0.577-  43 1.63  47 1.64  51 1.64  72 1.64  20 3.09   4 3.82   7 3.83   7 3.94
                             5 4.01
  24  0.669  0.207  0.923-  44 1.63  48 1.64  52 1.64  71 1.64  19 3.09   3 3.82   8 3.83   8 3.94
                             6 4.01
  25  0.024  0.738  0.661-  57 1.61  61 1.63  49 1.66  53 1.66  29 3.02   7 3.66   5 3.90   3 4.03

  26  0.262  0.976  0.839-  58 1.61  62 1.63  50 1.66  54 1.66  30 3.02   8 3.66   6 3.90   4 4.03

[...]

  28  0.738  0.024  0.161-  60 1.61  64 1.63  52 1.66  56 1.66  32 3.02   6 3.66   8 3.90   2 4.03

  29  0.316  0.361  0.795-  77 1.62  73 1.64  53 1.65  39 1.66  25 3.02  19 3.15  10 3.28   1 3.66
                             3 4.22
  30  0.639  0.684  0.705-  78 1.62  74 1.64  54 1.65  40 1.66  26 3.02  20 3.15   9 3.28   2 3.66
                             4 4.22
  31  0.684  0.639  0.205-  79 1.62  75 1.64  55 1.65  37 1.66  27 3.02  17 3.15  12 3.28   3 3.66
                             1 4.22
  32  0.361  0.316  0.295-  80 1.62  76 1.64  56 1.65  38 1.66  28 3.02  18 3.15  11 3.28   4 3.66
                             2 4.22
  33  0.876  0.469  0.926-  17 1.62   9 2.31   1 2.99   6 3.18
  34  0.531  0.124  0.574-  18 1.62  10 2.31   2 2.99   5 3.18
  35  0.124  0.531  0.074-  19 1.62  11 2.31   3 2.99   8 3.18
  36  0.469  0.876  0.426-  20 1.62  12 2.31   4 2.99   7 3.18
  37  0.766  0.582  0.091-  31 1.66  17 1.68   1 3.14   3 3.16
  38  0.418  0.234  0.409-  32 1.66  18 1.68   2 3.14   4 3.16
  39  0.234  0.418  0.909-  29 1.66  19 1.68   3 3.14   1 3.16
  40  0.582  0.766  0.591-  30 1.66  20 1.68   4 3.14   2 3.16
  41  0.070  0.792  0.344-  21 1.63  14 1.84   2 2.99   5 3.66
  42  0.208  0.930  0.156-  22 1.63  13 1.84   1 2.99   6 3.66
  43  0.930  0.208  0.656-  23 1.63  16 1.84   4 2.99   7 3.66
  44  0.792  0.070  0.844-  24 1.63  15 1.84   3 2.99   8 3.66
  45  0.329  0.683  0.376-  21 1.64  13 1.85   7 3.14   5 3.45
  46  0.317  0.671  0.124-  22 1.64  14 1.85   8 3.14   6 3.45
  47  0.671  0.317  0.624-  23 1.64  15 1.85   5 3.14   7 3.45
  48  0.683  0.329  0.876-  24 1.64  16 1.85   6 3.14   8 3.45
  49  0.065  0.757  0.532-  21 1.64  25 1.66   5 3.21   7 3.59   2 3.66
  50  0.243  0.935  0.968-  22 1.64  26 1.66   6 3.21   8 3.59   1 3.66
  51  0.935  0.243  0.468-  23 1.64  27 1.66   7 3.21   5 3.59   4 3.66
  52  0.757  0.065  0.032-  24 1.64  28 1.66   8 3.21   6 3.59   3 3.66
  53  0.232  0.543  0.701-  29 1.65  25 1.66   7 3.49
  54  0.457  0.768  0.799-  30 1.65  26 1.66   8 3.49
  55  0.768  0.457  0.299-  31 1.65  27 1.66   5 3.49
  56  0.543  0.232  0.201-  32 1.65  28 1.66   6 3.49
  57  0.893  0.736  0.724-  25 1.61  10 2.45   9 2.59   3 3.62
  58  0.264  0.107  0.776-  26 1.61   9 2.45  10 2.59   4 3.62
  59  0.107  0.264  0.276-  27 1.61  12 2.45  11 2.59   1 3.62
  60  0.736  0.893  0.224-  28 1.61  11 2.45  12 2.59   2 3.62
  61  0.940  0.913  0.670-  25 1.63  15 1.83   7 3.03   5 3.38   3 3.82
  62  0.087  0.060  0.830-  26 1.63  16 1.83   8 3.03   6 3.38   4 3.82
  63  0.060  0.087  0.330-  27 1.63  13 1.83   5 3.03   7 3.38   1 3.82
  64  0.913  0.940  0.170-  28 1.63  14 1.83   6 3.03   8 3.38   2 3.82
  65  0.578  0.846  0.927-  17 1.62  10 2.32   1 3.06   3 3.16
  66  0.154  0.422  0.573-  18 1.62   9 2.32   2 3.06   4 3.16
  67  0.422  0.154  0.073-  19 1.62  12 2.32   3 3.06   1 3.16
  68  0.846  0.578  0.427-  20 1.62  11 2.32   4 3.06   2 3.16
  69  0.555  0.641  0.055-  22 1.64  17 1.67   6 2.90
  70  0.359  0.445  0.445-  21 1.64  18 1.67   5 2.90
  71  0.445  0.359  0.945-  24 1.64  19 1.67   8 2.90
  72  0.641  0.555  0.555-  23 1.64  20 1.67   7 2.90
  73  0.548  0.173  0.770-  29 1.64  15 1.86   3 3.40
  74  0.827  0.452  0.730-  30 1.64  16 1.86   4 3.40
  75  0.452  0.827  0.230-  31 1.64  13 1.86   1 3.40
  76  0.173  0.548  0.270-  32 1.64  14 1.86   2 3.40
  77  0.259  0.298  0.799-  29 1.62   9 2.34  10 2.44   1 3.01
  78  0.702  0.741  0.701-  30 1.62  10 2.34   9 2.44   2 3.01
  79  0.741  0.702  0.201-  31 1.62  11 2.34  12 2.44   3 3.01
  80  0.298  0.259  0.299-  32 1.62  12 2.34  11 2.44   4 3.01

[...]
  318                map_forward                           0.000792                    4   7
  319                  map_gather                            0.000148                  2   8
  320                  m_alltoallv_z                         0.000033                  2   8
  321                  map_scatter                           0.000535                  2   8
  322                map_backward                          0.000330                    2   7
  323                  map_gather                            0.000074                  1   8
  324                  m_alltoallv_z                         0.000014                  1   8
  325                  map_scatter                           0.000189                  1   8
  326          m_sumb_d                              0.000008                          2   4
  327          pothar                                0.000166                          1   4
  328            m_sumb_d                              0.000014                        1   5
  329        brmix                                 0.085112                            1   3
  330          m_sumb_d                              0.000166                          6   4
  331          brpre                                 0.000431                          2   4
  332          setg0                                 0.011738                          1   4
  333          broyd                                 0.060383                          1   4
  334            brget                                 0.015249                      326   5
  335            brsav                                 0.007370                      163   5
  336            m_sumb_d                              0.004196                       47   5
  337        m_bcast_d                             0.000133                            2   3
  338      potlok                                0.361986                              2   2
  339        fft3d_mpi                             0.226228                           36   3
  340          fftbrc_mpi                            0.191472                         36   4
  341            fftbas_plan_mpi                       0.191440                       36   5
  342              map_forward                           0.049399                     40   6
  343                map_gather                            0.013893                   24   7
  344                m_alltoallv_z                         0.016121                   24   7
  345                map_scatter                           0.018916                   24   7
  346              map_backward                          0.043642                     32   6
  347                map_gather                            0.009434                   16   7
  348                m_alltoallv_z                         0.015557                   16   7
  349                map_scatter                           0.017979                   16   7
  350              dfftw_execute                         0.095973                     30   6
  351        m_sumb_d                              0.000033                            5   3
  352        pothar                                0.016477                            2   3
  353          m_sumb_d                              0.000946                          2   4
  354        m_bcast_d                             0.022620                            4   3
  355      potlok_metagga                        0.000000                              1   2
  356      set_dd_magatom                        0.000004                              1   2
  357      set_dd_paw                            6.029461                              1   2
  358        m_sumb_d                              0.031702                            7   3
  359      augmentation_charge                   1.124915                              1   2
  360        fft3d_mpi                             0.601114                            2   3
  361          fftbrc_mpi                            0.524756                          2   4
  362            fftbas_plan_mpi                       0.524751                        2   5
  363              dfftw_execute                         0.332173                      6   6
  364              map_backward                          0.192247                      4   6
  365                map_gather                            0.070094                    2   7
  366                m_alltoallv_z                         0.034707                    2   7
  367                map_scatter                           0.087431                    2   7
  368      fftwav_mpi                           31.478797                           3276   2
  369        fftwav                               31.469039                         3276   3
  370          fft3d                                29.401500                       3276   4
  371      densta                                4.361999                              1   2

 Flat profile

 set_dd_paw                           1779.216430         298
 raccmu_                               680.916649      617041
 eddav                                 509.886175         300
 lapack                                297.775964      617041
 dfftw_execute                         234.049530        7596
 m_sumb_d                              218.948701     1880845
 redis_pw                              163.865154     3328770
 setdij_                               162.568918         324
 augmentation_charge                   156.082754         298
 phaser                                106.371236        3678
 hamiltmu                               85.231756      617041
 total_time                             81.099493           1
 m_alltoall_d                           68.104812     8847734
 eccp                                   65.807059      327600
 fft3d                                  63.304389     3581874
 map_scatter                            52.446456       11489
 fft3d_mpi                              52.151541     1226661
 map_gather                             43.054437       11489
 orth1                                  37.313647     1851267
 set_charge                             30.266814         297
 m_alltoallv_z                          28.932486       11489
 redis_proj                             28.682745     4217564
 fftwav                                 27.947730     2365492
 pw_charge                              22.181164      242856
 overl                                  18.346459     2105176
 racc0mu_acc                            18.175765      617041
 w1_copy                                18.138413     3649146
 rpromu_acc                             15.422887      455029
 soft_charge                            15.106187         297
 m_bcast_z                              14.615669      621409
 setup_precond                          12.112710      327600
 init_acc                               10.945375           1
 ggemm                                  10.889396      782641
 densta                                 10.369538         301
 broyd                                  10.303361         296
 m_bcast_d                              10.123671     1234683
 overl_mu                                9.922658      617041
 potlok                                  7.736549         298
 vhamil                                  6.126714     1216382
 kinhamil                                5.573412     1216382
 depsum                                  5.469088         297
 fftext_mpi                              5.334040     1216382
 newband                                 5.071749      620641
 apply_precond                           4.929626      888782
 brmix                                   3.769818         296
 setg0                                   3.476079         298
 acc_init_cublas                         3.381745           1
 fftwav_mpi                              3.189398     2365492
 brget                                   3.041098       66275
 rspher_all                              1.494140          14
 elmin                                   1.420629           1
 rpro_isp                                1.119355          78
 acc_init_cusolver                       1.027531           1
 brsav                                   0.921607       19036
 fftbas_plan_mpi                         0.653778       10279
 sphpro_fast                             0.601313           2
 w1_projall                              0.495581      451441
 stufak                                  0.326129           1
 acc_cufft_makeplan                      0.265836          19
 fft_gq                                  0.234454         297
 lincom                                  0.225801        3612
 map_backward                            0.203928       10862
 proall                                  0.177317           1
 map_forward                             0.137287        9696
 truncate_high_frequency_w1              0.129759     1543982
 orthch                                  0.099005           1
 force_and_stress                        0.083014           1
 brpre                                   0.069410         592
 pothar                                  0.067073         299
 forhar                                  0.029286           2
 choleski                                0.020853          12
 forloc                                  0.014656           1
 strelo                                  0.013989           1
 strehar                                 0.012716           1
 rsp                                     0.009607           1
 fftbrc_mpi                              0.008105       10279
 strnlr                                  0.007142           1
 strkin                                  0.005420           1
 inisym                                  0.004882           1
 fornlr                                  0.002353           1
 vectorpot                               0.001973         297
 brgrid                                  0.001508           1
 set_dd_magatom                          0.001367         298
 chggra                                  0.000623           1
 fewald                                  0.000353           1
 fordep                                  0.000252           1
 rcp                                     0.000168           1
 posmap                                  0.000072           2
 potlok_metagga                          0.000033         297
 crpa_reader                             0.000027           1
 acc_cufft_makeplans                     0.000011           3
 rotate_active_occupied_orbital          0.000001           1
 redis_pw_over_bands                     0.000000           1
  summed up times     5237.665791034698

 Accumulative profile

 total_time                           5237.665791           1
 elmin                                5033.405154           1
 eddav                                2414.346832         300
 set_dd_paw                           1806.966140         298
 hamiltmu                              820.718047      617041
 raccmu_                               709.015072      617041
 set_charge                            444.368832         297
 fft3d_mpi                             420.701625     1226661
 setdij_                               381.698629         324
 fftbrc_mpi                            359.486007       10279
 fftbas_plan_mpi                       359.477903       10279
 augmentation_charge                   336.369005         298
 lapack                                297.775964      617041
 dfftw_execute                         234.049530        7596
 m_sumb_d                              218.948701     1880845
 redis_pw                              200.677762     3328770
 newband                               110.144660      620641
 phaser                                106.371236        3678
 fftwav_mpi                             85.377439     2365492
 fftwav                                 82.188041     2365492
 map_backward                           69.640303       10862
 soft_charge                            68.581861         297
 m_alltoall_d                           68.104812     8847734
 eccp                                   65.807059      327600
 fft3d                                  63.304389     3581874
 redis_proj                             59.974949     4217564
 map_forward                            55.134291        9696
 map_scatter                            52.446456       11489
 force_and_stress                       45.540614           1
 map_gather                             43.054437       11489
 orth1                                  37.313647     1851267
 m_alltoallv_z                          28.932486       11489
 brmix                                  22.936909         296
 pw_charge                              22.181164      242856
 kinhamil                               20.344505     1216382
 overl                                  18.346459     2105176
 racc0mu_acc                            18.175765      617041
 w1_copy                                18.138413     3649146
 broyd                                  15.478676         296
 rpromu_acc                             15.422887      455029
 fftext_mpi                             14.771093     1216382
 m_bcast_z                              14.615669      621409
 w1_projall                             13.814719      451441
 potlok                                 12.139180         298
 setup_precond                          12.112710      327600
 init_acc                               10.945375           1
 ggemm                                  10.889396      782641
 densta                                 10.369538         301
 m_bcast_d                              10.123671     1234683
 overl_mu                                9.922658      617041
 fordep                                  7.079888           1
 fft_gq                                  6.198489         297
 vhamil                                  6.126714     1216382
 depsum                                  5.744613         297
 strnlr                                  5.384001           1
 apply_precond                           4.929626      888782
 rpro_isp                                3.830849          78
 setg0                                   3.476079         298
 acc_init_cublas                         3.381745           1
 brget                                   3.041098       66275
 fornlr                                  1.802042           1
 rspher_all                              1.494140          14
 acc_init_cusolver                       1.027531           1
 brsav                                   0.921607       19036
 sphpro_fast                             0.629357           2
 orthch                                  0.517684           1
 proall                                  0.482751           1
 stufak                                  0.326129           1
 acc_cufft_makeplans                     0.265847           3
 acc_cufft_makeplan                      0.265836          19
 lincom                                  0.225801        3612
 truncate_high_frequency_w1              0.129759     1543982
 pothar                                  0.073915         299
 brpre                                   0.069410         592
 forhar                                  0.029333           2
 strelo                                  0.024008           1
 choleski                                0.020853          12
 forloc                                  0.015927           1
 strehar                                 0.012726           1
 fewald                                  0.011109           1
 rsp                                     0.009607           1
 strkin                                  0.005434           1
 inisym                                  0.004954           1
 chggra                                  0.002323           1
 vectorpot                               0.001973         297
 brgrid                                  0.001508           1
 set_dd_magatom                          0.001367         298
 rcp                                     0.000168           1
 posmap                                  0.000072           2
 potlok_metagga                          0.000033         297
 crpa_reader                             0.000027           1
 rotate_active_occupied_orbital          0.000001           1
 redis_pw_over_bands                     0.000000           1

Profiling took   8.056198  3.741765  0.003593  0.003458 seconds
Profiling took   5.171165 seconds