 vasp.6.3.2 27Jun22 (build Jul  3 2023 11:46:21) complex
 executed on    LinuxNV_CrayMPICH date 2024.04.22  04:04:21

 INCAR:
   ADDGRID = True
   ALGO = Normal
   EDIFF = 0.0005
   ENCUT = 520.0
   IBRION = -1
   ICHARG = 0
   ISIF = 3
   ISMEAR = -5
   ISPIN = 2
   KPOINT_BSE = -1 0 0 0
   LAECHG = True
   LASPH = True
   LCHARG = True
   LELF = True
   LORBIT = 11
   LREAL = Auto
   LVHAR = True
   LWAVE = False
   MAGMOM = 2*7.0 8*0.6
   NELM = 1000
   NSW = 0
   PREC = accurate
   SIGMA = 0.05

 POTCAR:    PAW_PBE Eu 23Dec2003
 POTCAR:    PAW_PBE Ga_d 06Jul2010
 POTCAR:    PAW_PBE O 08Apr2002
 POTCAR:    PAW_PBE Eu 23Dec2003
   VRHFIN =Eu : [core=Kr4d]

   TITEL  = PAW_PBE Eu 23Dec2003
   POMASS =  151.965; ZVAL   =   17.000    mass and valenz
   ENMAX  =  249.668; ENMIN  =  187.251 eV

   TITEL  = PAW_PBE Ga_d 06Jul2010
   POMASS =   69.723; ZVAL   =   13.000    mass and valenz
   ENMAX  =  282.691; ENMIN  =  212.018 eV

   TITEL  = PAW_PBE O 08Apr2002
   POMASS =   16.000; ZVAL   =    6.000    mass and valenz
   ENMAX  =  400.000; ENMIN  =  300.000 eV

 Optimization of the real space projectors (new method)

 maximal supplied QI-value         = 13.42
 optimisation between [QCUT,QGAM] = [ 11.67, 23.35] = [ 38.16,152.62] Ry
 Optimized for a Real-space Cutoff    1.63 Angstroem

   l    n(q)    QCUT    max X(q) W(low)/X(q) W(high)/X(q)  e(spline)
   0     11    11.673    10.400    0.14E-04    0.18E-05    0.24E-07
   0     11    11.673    10.768    0.21E-04    0.32E-05    0.49E-07
   1     11    11.673     4.094    0.40E-05    0.13E-04    0.93E-07
   1     11    11.673     4.009    0.11E-04    0.46E-04    0.33E-06
   2     10    11.673    29.030    0.79E-04    0.60E-04    0.70E-06
   2     10    11.673    19.941    0.80E-04    0.60E-04    0.71E-06
   3     10    11.673    88.889    0.23E-03    0.29E-03    0.30E-06
   3     10    11.673    76.102    0.23E-03    0.30E-03    0.30E-06
 Optimization of the real space projectors (new method)

[...]

   l    n(q)    QCUT    max X(q) W(low)/X(q) W(high)/X(q)  e(spline)
   2      9    11.539     7.143    0.65E-04    0.19E-03    0.15E-06
   2      9    11.539     5.586    0.13E-03    0.40E-03    0.26E-06
   0      9    11.539    12.382    0.18E-04    0.19E-04    0.34E-07
   0      9    11.539     6.622    0.35E-04    0.38E-04    0.71E-07
   1      9    11.539     7.935    0.18E-03    0.22E-03    0.17E-06
   1      9    11.539     2.425    0.15E-03    0.19E-03    0.16E-06
 Optimization of the real space projectors (new method)

 maximal supplied QI-value         = 24.76
 optimisation between [QCUT,QGAM] = [ 11.64, 23.27] = [ 37.91,151.63] Ry
 Optimized for a Real-space Cutoff    1.14 Angstroem

   l    n(q)    QCUT    max X(q) W(low)/X(q) W(high)/X(q)  e(spline)
   0      8    11.635    20.381    0.10E-03    0.33E-03    0.24E-06
   0      8    11.635    15.268    0.11E-03    0.35E-03    0.26E-06
   1      7    11.635     5.964    0.24E-03    0.31E-03    0.30E-06
   1      7    11.635     5.382    0.22E-03    0.25E-03    0.26E-06
  PAW_PBE Eu 23Dec2003                  :
  PAW_PBE Ga_d 06Jul2010                :
  PAW_PBE O 08Apr2002                   :

 POSCAR: Eu2 Ga2 O6
  positions in direct lattice
 exchange correlation table for  LEXCH =        8
   RHO(1)=    0.500       N(1)  =     2000
   RHO(2)=  100.500       N(2)  =     4000

 VTST: version 4.2, (08/11/21)

 CHAIN: initializing optimizer

 OPT: Using VASP Dynamics algorithm
 CHAIN: Read ICHAIN             0

 POSCAR: Eu2 Ga2 O6
  positions in direct lattice

 ion  position               nearest neighbor table
   1  0.000  0.000  0.000-   5 2.35   6 2.35   6 2.35   5 2.35   6 2.35   5 2.35
   2  0.000  0.000  0.500-   7 2.35   8 2.35   7 2.35   8 2.35   7 2.35   8 2.35
   3  0.333  0.667  0.250-   5 1.88   8 1.88   9 2.12   9 2.12   9 2.12
   4  0.667  0.333  0.750-   6 1.88   7 1.88  10 2.12  10 2.12  10 2.12
   5  0.333  0.667  0.088-   3 1.88   1 2.35   1 2.35   1 2.35
   6  0.667  0.333  0.912-   4 1.88   1 2.35   1 2.35   1 2.35
   7  0.667  0.333  0.588-   4 1.88   2 2.35   2 2.35   2 2.35
   8  0.333  0.667  0.412-   3 1.88   2 2.35   2 2.35   2 2.35
   9  0.000  0.000  0.250-   3 2.12   3 2.12   3 2.12
  10  0.000  0.000  0.750-   4 2.12   4 2.12   4 2.12

  LATTYP: Found a hexagonal cell.
 ALAT       =     3.6729652524
 C/A-ratio  =     3.1576661370

  Lattice vectors:

 A1 = (   1.8364830000,  -3.1808810000,   0.0000000000)
 A2 = (   1.8364830000,   3.1808810000,   0.0000000000)
 A3 = (   0.0000000000,   0.0000000000,  11.5979980000)

Analysis of symmetry for initial positions (statically):
 Subroutine PRICEL returns:
 Original cell was already a primitive cell.

 Routine SETGRP: Setting up the symmetry group for a
 hexagonal supercell.

 Subroutine GETGRP returns: Found 24 space group operations
 (whereof 12 operations were pure point group operations)
 out of a pool of 24 trial point group operations.

The static configuration has the point symmetry D_3d.
 The point group associated with its full space group is D_6h.

Analysis of symmetry for dynamics (positions and initial velocities):
 Subroutine PRICEL returns:
 Original cell was already a primitive cell.

[...]

The dynamic configuration has the point symmetry D_3d.
 The point group associated with its full space group is D_6h.

Analysis of structural, dynamic, and magnetic symmetry:
 Subroutine PRICEL returns:
 Original cell was already a primitive cell.

 Routine SETGRP: Setting up the symmetry group for a
 hexagonal supercell.

 Subroutine GETGRP returns: Found 24 space group operations
 (whereof 12 operations were pure point group operations)
 out of a pool of 24 trial point group operations.

The overall configuration has the point symmetry D_3d.
 The point group associated with its full space group is D_6h.

 Subroutine INISYM returns: Found 24 space group operations
 (whereof 12 operations are pure point group operations),
 and found     1 'primitive' translations

                                     Primitive cell

  volume of cell :     135.5025

  direct lattice vectors                    reciprocal lattice vectors
     1.836483000 -3.180881000  0.000000000     0.272259531 -0.157189156  0.000000000
     1.836483000  3.180881000  0.000000000     0.272259531  0.157189156 -0.000000000
     0.000000000  0.000000000 11.597998000    -0.000000000  0.000000000  0.086221777

  length of vectors
     3.672965252  3.672965252 11.597998000     0.314378248  0.314378248  0.086221777

  position of ions in fractional coordinates (direct lattice)
     0.000000000  0.000000000  0.000000000
     0.000000000  0.000000000  0.500000000
     0.333333000  0.666667000  0.250000000
     0.666667000  0.333333000  0.750000000
     0.333333000  0.666667000  0.088311000
     0.666667000  0.333333000  0.911689000
     0.666667000  0.333333000  0.588311000
     0.333333000  0.666667000  0.411689000
     0.000000000  0.000000000  0.250000000
     0.000000000  0.000000000  0.750000000

  ion indices of the primitive-cell ions
   primitive index   ion index
                 1           1
                 2           2
                 3           3
                 4           4
                 5           5
                 6           6
                 7           7
                 8           8
                 9           9
                10          10

 KPOINTS: Kpoints from vasprun.xml

Automatic generation of k-mesh.
 Grid dimensions read from file:
 generate k-points for:    8    8    2

 Generating k-lattice:

  Cartesian coordinates                     Fractional coordinates (reciprocal lattice)
     0.034032441 -0.019648645  0.000000000     0.125000000  0.000000000  0.000000000
     0.034032441  0.019648645 -0.000000000     0.000000000  0.125000000  0.000000000
    -0.000000000  0.000000000  0.043110889     0.000000000  0.000000000  0.500000000

  Length of vectors
     0.039297281  0.039297281  0.043110889

  Shift w.r.t. Gamma in fractional coordinates (k-lattice)
     0.000000000  0.000000000  0.000000000

 TETIRR: Found    136 inequivalent tetrahedra from      768

 Subroutine IBZKPT returns following result:

 Found     20 irreducible k-points:

 Following reciprocal coordinates:
            Coordinates               Weight
  0.000000  0.000000  0.000000      1.000000
  0.125000  0.000000  0.000000      6.000000
  0.250000  0.000000  0.000000      6.000000
  0.375000  0.000000  0.000000      6.000000
  0.500000  0.000000  0.000000      3.000000
  0.125000  0.125000  0.000000      6.000000
  0.250000  0.125000  0.000000     12.000000
  0.375000  0.125000  0.000000     12.000000
  0.250000  0.250000  0.000000      6.000000
  0.375000  0.250000  0.000000      6.000000
  0.000000  0.000000  0.500000      1.000000
  0.125000  0.000000  0.500000      6.000000
  0.250000  0.000000  0.500000      6.000000
  0.375000  0.000000  0.500000      6.000000
  0.500000  0.000000  0.500000      3.000000
  0.125000  0.125000  0.500000      6.000000
  0.250000  0.125000  0.500000     12.000000
  0.375000  0.125000  0.500000     12.000000
  0.250000  0.250000  0.500000      6.000000
  0.375000  0.250000  0.500000      6.000000

 Following cartesian coordinates:
            Coordinates               Weight
  0.000000  0.000000  0.000000      1.000000
  0.034032 -0.019649  0.000000      6.000000
  0.068065 -0.039297  0.000000      6.000000
  0.102097 -0.058946  0.000000      6.000000
  0.136130 -0.078595  0.000000      3.000000
  0.068065  0.000000  0.000000      6.000000
  0.102097 -0.019649  0.000000     12.000000
  0.136130 -0.039297  0.000000     12.000000
  0.136130  0.000000  0.000000      6.000000
  0.170162 -0.019649  0.000000      6.000000
  0.000000  0.000000  0.043111      1.000000
  0.034032 -0.019649  0.043111      6.000000
  0.068065 -0.039297  0.043111      6.000000
  0.102097 -0.058946  0.043111      6.000000
  0.136130 -0.078595  0.043111      3.000000
  0.068065  0.000000  0.043111      6.000000
  0.102097 -0.019649  0.043111     12.000000
  0.136130 -0.039297  0.043111     12.000000
  0.136130  0.000000  0.043111      6.000000
  0.170162 -0.019649  0.043111      6.000000

 SYSTEM =  unknown system
 POSCAR =  Eu2 Ga2 O6

 Startparameter for this run:
   NWRITE =      2    write-flag & timer
   PREC   = accura    normal or accurate (medium, high low for compatibility)
   ISTART =      0    job   : 0-new  1-cont  2-samecut
   ICHARG =      0    charge: 1-file 2-atom 10-const
   ISPIN  =      2    spin polarized calculation?
   LNONCOLLINEAR =      F non collinear calculations
   LSORBIT =      F    spin-orbit coupling
   INIWAV =      1    electr: 0-lowe 1-rand  2-diag
   LASPH  =      T    aspherical Exc in radial PAW
 Electronic Relaxation 1
   ENCUT  =  520.0 eV  38.22 Ry    6.18 a.u.   6.83  6.83 21.56*2*pi/ulx,y,z
   ENINI  =  520.0     initial cutoff
   ENAUG  =  605.4 eV  augmentation charge cutoff
   NELM   =   1000;   NELMIN=  2; NELMDL= -5     # of ELM steps
   EDIFF  = 0.5E-03   stopping-criterion for ELM
   LREAL  =      T    real-space projection
   NLSPLINE    = F    spline interpolate recip. space projectors
   LCOMPAT=      F    compatible to vasp.4.4
   GGA_COMPAT  = T    GGA compatible to vasp.4.4-vasp.4.6
[...]
  318                map_forward                           0.000176                    4   7
  319                  map_gather                            0.000037                  2   8
  320                  m_alltoallv_z                         0.000025                  2   8
  321                  map_scatter                           0.000087                  2   8
  322                map_backward                          0.000076                    2   7
  323                  map_gather                            0.000018                  1   8
  324                  m_alltoallv_z                         0.000011                  1   8
  325                  map_scatter                           0.000033                  1   8
  326          m_sumb_d                              0.000009                          2   4
  327          pothar                                0.000078                          1   4
  328            m_sumb_d                              0.000012                        1   5
  329        brmix                                 0.005131                            1   3
  330          m_sumb_d                              0.000032                          6   4
  331          brpre                                 0.000014                          2   4
  332          setg0                                 0.000502                          1   4
  333          broyd                                 0.004022                          1   4
  334            brget                                 0.000821                      326   5
  335            brsav                                 0.000367                      163   5
  336            m_sumb_d                              0.000821                       47   5
  337        m_bcast_d                             0.000018                            2   3
  338      potlok                                0.020328                              2   2
  339        fft3d_mpi                             0.013236                           36   3
  340          fftbrc_mpi                            0.011068                         36   4
  341            fftbas_plan_mpi                       0.011052                       36   5
  342              map_forward                           0.003223                     40   6
  343                map_gather                            0.001114                   24   7
  344                m_alltoallv_z                         0.000976                   24   7
  345                map_scatter                           0.000965                   24   7
  346              map_backward                          0.002621                     32   6
  347                map_gather                            0.000875                   16   7
  348                m_alltoallv_z                         0.000702                   16   7
  349                map_scatter                           0.000867                   16   7
  350              dfftw_execute                         0.003643                     30   6
  351        m_sumb_d                              0.000026                            5   3
  352        pothar                                0.000777                            2   3
  353          m_sumb_d                              0.000049                          2   4
  354        m_bcast_d                             0.001195                            4   3
  355      potlok_metagga                        0.000000                              1   2
  356      set_dd_magatom                        0.000004                              1   2
  357      set_dd_paw                            1.365266                              1   2
  358        m_sumb_d                              0.566730                            7   3
  359      augmentation_charge                   0.070202                              1   2
  360        fft3d_mpi                             0.020166                            2   3
  361          fftbrc_mpi                            0.018260                          2   4
  362            fftbas_plan_mpi                       0.018258                        2   5
  363              dfftw_execute                         0.011947                      6   6
  364              map_backward                          0.006076                      4   6
  365                map_gather                            0.001498                    2   7
  366                m_alltoallv_z                         0.003126                    2   7
  367                map_scatter                           0.001446                    2   7
  368      fftwav_mpi                            1.038889                           2040   2
  369        fftwav                                1.036431                         2040   3
  370          fft3d                                 0.989014                       2040   4
  371      densta                                2.553223                              1   2

 Flat profile

 m_sumb_d                               95.469755      450004
 set_dd_paw                             78.736010          98
 eddav                                  68.201671         100
 lapack                                 66.591971      145618
 raccmu_                                42.786844      145618
 redis_pw                               26.657728      758093
 m_alltoall_d                           13.895238     1980097
 init_acc                               12.083261           1
 densta                                  8.732396         101
 fft3d                                   7.265692      809203
 total_time                              7.264301           1
 phaser                                  7.160183        4260
 redis_proj                              6.325795      962804
 eccp                                    5.985158       68000
 setdij_                                 5.677238         124
 fftwav                                  5.039232      536532
 augmentation_charge                     4.928051          98
 orth1                                   4.641781      436974
 racc0mu_acc                             4.175607      145618
 w1_copy                                 3.940396      818013
 overl                                   3.938489      477382
 hamiltmu                                3.516840      145618
 rpromu_acc                              3.516461      112218
 soft_charge                             3.194910          97
 dfftw_execute                           3.102106        2796
 m_bcast_z                               3.025330      148338
 acc_init_cublas                         2.468142           1
 setup_precond                           2.462279       68000
 m_bcast_d                               2.355467      291437
 overl_mu                                2.222848      145618
 ggemm                                   1.907373      181618
 pw_charge                               1.277188       48310
 vhamil                                  1.253065      272671
 kinhamil                                1.246110      272671
 fftext_mpi                              1.162909      272671
 apply_precond                           1.130752      204671
 newband                                 1.116644      149618
 depsum                                  1.065362          97
 m_alltoallv_z                           1.010915        3889
 acc_init_cusolver                       0.801658           1
 fftwav_mpi                              0.735214      536532
 fft3d_mpi                               0.633182      276150
 set_charge                              0.486096          97
 rpro_isp                                0.478760         260
 map_gather                              0.454729        3889
 map_scatter                             0.440012        3889
 potlok                                  0.271494          98
 fftbas_plan_mpi                         0.188088        3479
 elmin                                   0.175280           1
 broyd                                   0.162645          96
 lincom                                  0.147079        4040
 acc_cufft_makeplan                      0.131762          19
 rspher_all                              0.113384          14
 w1_projall                              0.101146      109618
 sphpro_fast                             0.070552           2
 brmix                                   0.056960          96
 setg0                                   0.049583          98
 brget                                   0.046246       17795
 proall                                  0.045675           1
 truncate_high_frequency_w1              0.026992      340671
 map_backward                            0.019440        3662
 map_forward                             0.017121        3296
 orthch                                  0.013423           1
 brsav                                   0.012153        4916
 choleski                                0.010654          40
 force_and_stress                        0.010040           1
 pothar                                  0.007530          99
 strnlr                                  0.005310           1
 inisym                                  0.004476           1
 fft_gq                                  0.003845          97
 stufak                                  0.003437           1
 fftbrc_mpi                              0.002028        3479
 fornlr                                  0.001820           1
 brpre                                   0.001577         192
 strelo                                  0.001336           1
 forhar                                  0.001173           2
 strehar                                 0.000850           1
 forloc                                  0.000639           1
 strkin                                  0.000463           1
 set_dd_magatom                          0.000457          98
 vectorpot                               0.000403          97
 fewald                                  0.000389           1
 chggra                                  0.000223           1
 rsp                                     0.000173           1
 brgrid                                  0.000128           1
 fordep                                  0.000051           1
 posmap                                  0.000046           2
 crpa_reader                             0.000026           1
 rcp                                     0.000025           1
 acc_cufft_makeplans                     0.000011           3
 potlok_metagga                          0.000009          97
 rotate_active_occupied_orbital          0.000001           1
 redis_pw_over_bands                     0.000000           1
  summed up times     522.2672889232635

 Accumulative profile

 total_time                            522.267289           1
 elmin                                 488.062128           1
 eddav                                 327.824305         100
 set_dd_paw                            134.245099          98
 m_sumb_d                               95.469755      450004
 lapack                                 66.591971      145618
 hamiltmu                               58.376391      145618
 raccmu_                                49.185299      145618
 redis_pw                               33.515258      758093
 set_charge                             14.956306          97
 newband                                14.621882      149618
 m_alltoall_d                           13.895238     1980097
 redis_proj                             13.363503      962804
 init_acc                               12.083261           1
 fftwav_mpi                             11.109163      536532
 fftwav                                 10.373950      536532
 setdij_                                 8.738190         124
 densta                                  8.732396         101
 fft3d_mpi                               7.798595      276150
 fft3d                                   7.265692      809203
 phaser                                  7.160183        4260
 augmentation_charge                     6.948191          98
 soft_charge                             6.441890          97
 eccp                                    5.985158       68000
 fftbrc_mpi                              5.234439        3479
 fftbas_plan_mpi                         5.232410        3479
 force_and_stress                        5.023945           1
 orth1                                   4.641781      436974
 kinhamil                                4.421187      272671
 racc0mu_acc                             4.175607      145618
 w1_copy                                 3.940396      818013
 overl                                   3.938489      477382
 rpromu_acc                              3.516461      112218
 w1_projall                              3.189273      109618
 fftext_mpi                              3.175077      272671
 dfftw_execute                           3.102106        2796
 m_bcast_z                               3.025330      148338
 acc_init_cublas                         2.468142           1
 setup_precond                           2.462279       68000
 m_bcast_d                               2.355467      291437
 overl_mu                                2.222848      145618
 ggemm                                   1.907373      181618
 pw_charge                               1.277188       48310
 vhamil                                  1.253065      272671
 strnlr                                  1.243445           1
 rpro_isp                                1.169048         260
 apply_precond                           1.130752      204671
 depsum                                  1.077155          97
 m_alltoallv_z                           1.010915        3889
 map_forward                             0.996401        3296
 map_backward                            0.945815        3662
 potlok                                  0.803385          98
 acc_init_cusolver                       0.801658           1
 map_gather                              0.454729        3889
 map_scatter                             0.440012        3889
 fordep                                  0.422749           1
 fornlr                                  0.414089           1
 brmix                                   0.375238          96
 broyd                                   0.263156          96
 orthch                                  0.261274           1
 lincom                                  0.147079        4040
 acc_cufft_makeplans                     0.131773           3
 acc_cufft_makeplan                      0.131762          19
 proall                                  0.116331           1
 rspher_all                              0.113384          14
 fft_gq                                  0.107350          97
 sphpro_fast                             0.073003           2
 setg0                                   0.049583          98
 brget                                   0.046246       17795
 truncate_high_frequency_w1              0.026992      340671
 brsav                                   0.012153        4916
 choleski                                0.010654          40
 pothar                                  0.008468          99
 inisym                                  0.004522           1
 stufak                                  0.003437           1
 brpre                                   0.001577         192
 strelo                                  0.001346           1
 forhar                                  0.001190           2
 strehar                                 0.000853           1
 chggra                                  0.000738           1
 fewald                                  0.000657           1
 forloc                                  0.000653           1
 strkin                                  0.000470           1
 set_dd_magatom                          0.000457          98
 vectorpot                               0.000403          97
 rsp                                     0.000173           1
 brgrid                                  0.000128           1
 posmap                                  0.000046           2
 crpa_reader                             0.000026           1
 rcp                                     0.000025           1
 potlok_metagga                          0.000009          97
 rotate_active_occupied_orbital          0.000001           1
 redis_pw_over_bands                     0.000000           1

Profiling took   1.720183  0.840578  0.003201  0.003111 seconds
Profiling took   1.074272 seconds