 vasp.6.3.2 27Jun22 (build Jul  3 2023 11:46:21) complex
 executed on    LinuxNV_CrayMPICH date 2024.04.21  01:11:07

 INCAR:
   ADDGRID = True
   ALGO = Fast
   EDIFF = 5e-05
   ENCUT = 520.0
   IBRION = -1
   ISIF = 3
   ISMEAR = -5
   ISPIN = 2
   LAECHG = True
   LASPH = True
   LCHARG = True
   LORBIT = 11
   LREAL = Auto
   LVHAR = True
   LWAVE = False
   MAGMOM = 1*7.0 4*0.6
   NELM = 1000
   NSW = 0
   PREC = Accurate
   SIGMA = 0.05

 POTCAR:    PAW_PBE Eu 23Dec2003
 POTCAR:    PAW_PBE Ge_d 03Jul2007
 POTCAR:    PAW_PBE Rh_pv 25Jan2005
 POTCAR:    PAW_PBE Eu 23Dec2003
   VRHFIN =Eu : [core=Kr4d]

   TITEL  = PAW_PBE Eu 23Dec2003
   POMASS =  151.965; ZVAL   =   17.000    mass and valenz
   ENMAX  =  249.668; ENMIN  =  187.251 eV

   TITEL  = PAW_PBE Ge_d 03Jul2007
   POMASS =   72.610; ZVAL   =   14.000    mass and valenz
   ENMAX  =  310.294; ENMIN  =  232.720 eV

   TITEL  = PAW_PBE Rh_pv 25Jan2005
   POMASS =  102.906; ZVAL   =   15.000    mass and valenz
   ENMAX  =  247.408; ENMIN  =  185.556 eV

 Optimization of the real space projectors (new method)

 maximal supplied QI-value         = 13.42
 optimisation between [QCUT,QGAM] = [ 11.67, 23.35] = [ 38.16,152.62] Ry
 Optimized for a Real-space Cutoff    1.63 Angstroem

   l    n(q)    QCUT    max X(q) W(low)/X(q) W(high)/X(q)  e(spline)
   0     11    11.673    10.400    0.14E-04    0.18E-05    0.24E-07
   0     11    11.673    10.768    0.21E-04    0.32E-05    0.49E-07
   1     11    11.673     4.094    0.40E-05    0.13E-04    0.93E-07
   1     11    11.673     4.009    0.11E-04    0.46E-04    0.33E-06
   2     10    11.673    29.030    0.79E-04    0.60E-04    0.70E-06
   2     10    11.673    19.941    0.80E-04    0.60E-04    0.71E-06
   3     10    11.673    88.889    0.23E-03    0.29E-03    0.30E-06
   3     10    11.673    76.102    0.23E-03    0.30E-03    0.30E-06
 Optimization of the real space projectors (new method)

[...]

   l    n(q)    QCUT    max X(q) W(low)/X(q) W(high)/X(q)  e(spline)
   2     10    11.539     8.936    0.13E-03    0.18E-03    0.23E-06
   2     10    11.539     8.183    0.16E-03    0.22E-03    0.28E-06
   0     11    11.539    62.777    0.61E-04    0.20E-04    0.15E-06
   0     11    11.539    50.556    0.58E-04    0.19E-04    0.14E-06
   1     10    11.539    38.422    0.20E-04    0.75E-05    0.16E-06
   1     10    11.539    22.623    0.19E-04    0.69E-05    0.15E-06
 Optimization of the real space projectors (new method)

 maximal supplied QI-value         = 15.68
 optimisation between [QCUT,QGAM] = [ 11.61, 23.21] = [ 37.72,150.90] Ry
 Optimized for a Real-space Cutoff    1.45 Angstroem

   l    n(q)    QCUT    max X(q) W(low)/X(q) W(high)/X(q)  e(spline)
   1     10    11.607     3.143    0.27E-04    0.48E-04    0.10E-06
   1     10    11.607     5.034    0.71E-04    0.17E-03    0.32E-06
   2      9    11.607    64.180    0.22E-03    0.59E-04    0.28E-06
   2      9    11.607    61.342    0.22E-03    0.61E-04    0.29E-06
   0     10    11.607    55.593    0.52E-04    0.32E-04    0.17E-06
   0     10    11.607    26.178    0.47E-04    0.29E-04    0.15E-06
  PAW_PBE Eu 23Dec2003                  :
  PAW_PBE Ge_d 03Jul2007                :
  PAW_PBE Rh_pv 25Jan2005               :

 POSCAR: Eu1 Ge2 Rh2
  positions in direct lattice
 exchange correlation table for  LEXCH =        8
   RHO(1)=    0.500       N(1)  =     2000
   RHO(2)=  100.500       N(2)  =     4000

 VTST: version 4.2, (08/11/21)

 CHAIN: initializing optimizer

 OPT: Using VASP Dynamics algorithm
 CHAIN: Read ICHAIN             0

 POSCAR: Eu1 Ge2 Rh2
  positions in direct lattice

 ion  position               nearest neighbor table
   1  0.000  0.000  0.000-   4 3.40   5 3.40   4 3.40   5 3.40   4 3.40   5 3.40   4 3.40   5 3.40

   2  0.371  0.371  0.000-   4 2.47   5 2.47   5 2.47   4 2.47   3 2.75
   3  0.629  0.629  0.000-   5 2.47   4 2.47   4 2.47   5 2.47   2 2.75
   4  0.750  0.250  0.500-   2 2.47   3 2.47   2 2.47   3 2.47   5 2.97   5 2.97   5 2.97   5 2.97
                             1 3.40   1 3.40   1 3.40   1 3.40
   5  0.250  0.750  0.500-   2 2.47   3 2.47   2 2.47   3 2.47   4 2.97   4 2.97   4 2.97   4 2.97
                             1 3.40   1 3.40   1 3.40   1 3.40

  LATTYP: Found a body centered tetragonal cell.
 ALAT       =     4.2018340000
 C/A-ratio  =     2.5443865702

  Lattice vectors:

 A1 = (  -2.1009170000,   2.1009170000,   5.3455450000)
 A2 = (   2.1009170000,  -2.1009170000,   5.3455450000)
 A3 = (   2.1009170000,   2.1009170000,  -5.3455450000)

Analysis of symmetry for initial positions (statically):
 Subroutine PRICEL returns:
 Original cell was already a primitive cell.

 Routine SETGRP: Setting up the symmetry group for a
 body centered tetragonal supercell.

 Subroutine GETGRP returns: Found 16 space group operations
 (whereof 16 operations were pure point group operations)
 out of a pool of 16 trial point group operations.

The static configuration has the point symmetry D_4h.

Analysis of symmetry for dynamics (positions and initial velocities):
 Subroutine PRICEL returns:
 Original cell was already a primitive cell.

[...]

The dynamic configuration has the point symmetry D_4h.

Analysis of structural, dynamic, and magnetic symmetry:
 Subroutine PRICEL returns:
 Original cell was already a primitive cell.

 Routine SETGRP: Setting up the symmetry group for a
 body centered tetragonal supercell.

 Subroutine GETGRP returns: Found 16 space group operations
 (whereof 16 operations were pure point group operations)
 out of a pool of 16 trial point group operations.

The overall configuration has the point symmetry D_4h.

 Subroutine INISYM returns: Found 16 space group operations
 (whereof 16 operations are pure point group operations),
 and found     1 'primitive' translations

                                     Primitive cell

  volume of cell :      94.3778

  direct lattice vectors                    reciprocal lattice vectors
    -2.100917000  2.100917000  5.345545000    -0.000000000  0.237991315  0.093535832
     2.100917000 -2.100917000  5.345545000     0.237991315 -0.000000000  0.093535832
     2.100917000  2.100917000 -5.345545000     0.237991315  0.237991315 -0.000000000

  length of vectors
     6.115762898  6.115762898  6.115762898     0.255712374  0.255712374  0.336570546

  position of ions in fractional coordinates (direct lattice)
     0.000000000  0.000000000  0.000000000
     0.371221000  0.371221000  1.000000000
     0.628779000  0.628779000  1.000000000
     0.750000000  0.250000000  0.500000000
     0.250000000  0.750000000  0.500000000

  ion indices of the primitive-cell ions
   primitive index   ion index
                 1           1
                 2           2
                 3           3
                 4           4
                 5           5

 KPOINTS: Kpoints from vasprun.xml

Automatic generation of k-mesh.
 Grid dimensions read from file:
 generate k-points for:    6    6    6

 Generating k-lattice:

  Cartesian coordinates                     Fractional coordinates (reciprocal lattice)
    -0.000000000  0.039665219  0.015589305     0.166666667  0.000000000 -0.000000000
     0.039665219 -0.000000000  0.015589305     0.000000000  0.166666667 -0.000000000
     0.039665219  0.039665219 -0.000000000    -0.000000000 -0.000000000  0.166666667

  Length of vectors
     0.042618729  0.042618729  0.056095091

  Shift w.r.t. Gamma in fractional coordinates (k-lattice)
     0.500000000  0.500000000  0.500000000

 TETIRR: Found    278 inequivalent tetrahedra from     1296

 Subroutine IBZKPT returns following result:

 Found     28 irreducible k-points:

 Following reciprocal coordinates:
            Coordinates               Weight
  0.083333  0.083333  0.083333      8.000000
  0.250000  0.083333  0.083333     16.000000
  0.416667  0.083333  0.083333      8.000000
 -0.083333  0.083333  0.083333      4.000000
  0.250000  0.250000  0.083333      8.000000
  0.416667  0.250000  0.083333     16.000000
 -0.416667  0.250000  0.083333      8.000000
 -0.250000  0.250000  0.083333      8.000000
 -0.083333  0.250000  0.083333      8.000000
  0.416667  0.416667  0.083333      4.000000
 -0.416667  0.416667  0.083333      8.000000
 -0.250000  0.416667  0.083333     16.000000
 -0.083333  0.416667  0.083333      8.000000
 -0.416667 -0.416667  0.083333      8.000000
 -0.250000 -0.416667  0.083333     16.000000
 -0.083333 -0.416667  0.083333      8.000000
 -0.250000 -0.250000  0.083333      8.000000
 -0.083333 -0.250000  0.083333      8.000000
 -0.083333 -0.083333  0.083333      2.000000
  0.250000  0.250000  0.250000      2.000000
 -0.250000  0.250000  0.250000      4.000000
 -0.416667  0.416667  0.250000      8.000000
 -0.250000  0.416667  0.250000      8.000000
 -0.416667 -0.416667  0.250000      8.000000
 -0.250000 -0.416667  0.250000      8.000000
 -0.250000 -0.250000  0.250000      2.000000
 -0.416667  0.416667  0.416667      4.000000
 -0.416667 -0.416667  0.416667      2.000000

 Following cartesian coordinates:
            Coordinates               Weight
  0.039665  0.039665  0.015589      8.000000
  0.039665  0.079330  0.031179     16.000000
  0.039665  0.118996  0.046768      8.000000
  0.039665  0.000000  0.000000      4.000000
  0.079330  0.079330  0.046768      8.000000
  0.079330  0.118996  0.062357     16.000000
  0.079330 -0.079330 -0.015589      8.000000
  0.079330 -0.039665  0.000000      8.000000
  0.079330  0.000000  0.015589      8.000000
  0.118996  0.118996  0.077947      4.000000
  0.118996 -0.079330  0.000000      8.000000
  0.118996 -0.039665  0.015589     16.000000
  0.118996  0.000000  0.031179      8.000000
 -0.079330 -0.079330 -0.077947      8.000000
 -0.079330 -0.039665 -0.062357     16.000000
 -0.079330  0.000000 -0.046768      8.000000
 -0.039665 -0.039665 -0.046768      8.000000
 -0.039665  0.000000 -0.031179      8.000000
  0.000000  0.000000 -0.015589      2.000000
  0.118996  0.118996  0.046768      2.000000
  0.118996  0.000000  0.000000      4.000000
  0.158661 -0.039665  0.000000      8.000000
  0.158661  0.000000  0.015589      8.000000
 -0.039665 -0.039665 -0.077947      8.000000
 -0.039665  0.000000 -0.062357      8.000000
  0.000000  0.000000 -0.046768      2.000000
  0.198326  0.000000  0.000000      4.000000
  0.000000  0.000000 -0.077947      2.000000

 SYSTEM =  unknown system
 POSCAR =  Eu1 Ge2 Rh2

 Startparameter for this run:
   NWRITE =      2    write-flag & timer
   PREC   = accura    normal or accurate (medium, high low for compatibility)
   ISTART =      0    job   : 0-new  1-cont  2-samecut
   ICHARG =      2    charge: 1-file 2-atom 10-const
   ISPIN  =      2    spin polarized calculation?
   LNONCOLLINEAR =      F non collinear calculations
   LSORBIT =      F    spin-orbit coupling
   INIWAV =      1    electr: 0-lowe 1-rand  2-diag
   LASPH  =      T    aspherical Exc in radial PAW
 Electronic Relaxation 1
   ENCUT  =  520.0 eV  38.22 Ry    6.18 a.u.  11.37 11.37 11.37*2*pi/ulx,y,z
   ENINI  =  520.0     initial cutoff
   ENAUG  =  549.6 eV  augmentation charge cutoff
   NELM   =   1000;   NELMIN=  2; NELMDL= -5     # of ELM steps
   EDIFF  = 0.5E-04   stopping-criterion for ELM
[...]
  382            brsav                                 0.000185                       47   5
  383        m_bcast_d                             0.000020                            2   3
  384      potlok                                0.027432                              2   2
  385        fft3d_mpi                             0.018699                           36   3
  386          fftbrc_mpi                            0.016029                         36   4
  387            fftbas_plan_mpi                       0.016011                       36   5
  388              map_forward                           0.004582                     40   6
  389                map_gather                            0.001541                   24   7
  390                m_alltoallv_z                         0.001493                   24   7
  391                map_scatter                           0.001360                   24   7
  392              map_backward                          0.003879                     32   6
  393                map_gather                            0.001274                   16   7
  394                m_alltoallv_z                         0.001280                   16   7
  395                map_scatter                           0.001131                   16   7
  396              dfftw_execute                         0.005623                     30   6
  397        m_sumb_d                              0.000026                            5   3
  398        pothar                                0.001108                            2   3
  399          m_sumb_d                              0.000077                          2   4
  400        m_bcast_d                             0.001808                            4   3
  401      potlok_metagga                        0.000000                              1   2
  402      set_dd_magatom                        0.000004                              1   2
  403      set_dd_paw                            1.409805                              1   2
  404        m_sumb_d                              0.935362                            7   3
  405      augmentation_charge                   0.127963                              1   2
  406        fft3d_mpi                             0.032784                            2   3
  407          fftbrc_mpi                            0.028052                          2   4
  408            fftbas_plan_mpi                       0.028050                        2   5
  409              dfftw_execute                         0.018932                      6   6
  410              map_backward                          0.008864                      4   6
  411                map_gather                            0.002442                    2   7
  412                m_alltoallv_z                         0.004032                    2   7
  413                map_scatter                           0.002382                    2   7
  414      densta                                3.084409                              1   2

 Flat profile

 m_sumb_d                               80.200218       33948
 raccmu_                                38.020176       41284
 set_dd_paw                             30.622285          65
 eccp                                   16.459704      209283
 phaser                                 13.882968        4116
 init_acc                               11.906955           1
 densta                                 10.658859          68
 total_time                             10.139818           1
 w1_gemv                                 9.828694      423868
 i2                                      9.182004       34214
 eccp_nl                                 8.763752      160507
 setdij_                                 8.200573          91
 augmentation_charge                     6.090590          64
 eddrmm                                  5.463243          62
 eddiag                                  5.078263          62
 redis_pw                                4.981245       60423
 cnorma                                  4.200009      160507
 dfftw_execute                           3.687204        1932
 m_alltoall_d                            3.635884      594979
 overl1                                  3.482408      211934
 eddav                                   3.198538           5
 fft3d                                   3.161176      450313
 lapack                                  2.974146        7070
 fftwav                                  2.718267      274053
 acc_init_cublas                         2.441497           1
 soft_charge                             2.403423          63
 w1_copy                                 2.054449      393372
 w1_dscal                                2.011292      335610
 hamilt_local                            1.904889       45136
 rpromu_acc                              1.842071       42236
 apply_precond                           1.733430      381138
 setup_precond                           1.700696       48776
 w1_gaxpy                                1.691117      327975
 racc0mu_acc                             1.363949       41284
 newband                                 1.348475       45036
 w1_daxpy                                1.282481      233466
 w1_dot                                  1.226127       43774
 redis_proj                              1.020402       66396
 hamiltmu                                1.018842       41284
 m_alltoallv_z                           0.982961        2589
 pw_charge                               0.972851       35166
 acc_init_cusolver                       0.789687           1
 kinhamil                                0.759074      176260
 vhamil                                  0.751544      176260
 depsum                                  0.729294          63
 fftext_mpi                              0.702124      176260
 fft3d_mpi                               0.661101      178593
 zhegv                                   0.622826       72959
 overl_mu                                0.620952       41284
 map_scatter                             0.581429        2589
 rpro_isp                                0.552821         364
 set_charge                              0.517420          63
 orthch                                  0.516478          63
 map_gather                              0.489061        2589
 choleski                                0.459082        3528
 orth1                                   0.407469       35210
 fftwav_mpi                              0.369276      274053
 i3                                      0.305377       34214
 overl                                   0.255447       29418
 potlok                                  0.234178          65
 rspher_all                              0.224764          14
 m_bcast_z                               0.222870        9982
 fftbas_plan_mpi                         0.145402        2333
 lincom                                  0.138196        7280
 elmin                                   0.128337           1
 acc_cufft_makeplan                      0.124394          19
 m_bcast_d                               0.116819       14275
 broyd                                   0.108736          63
 ggemm                                   0.092089        9030
 brmix                                   0.059931          63
 sphpro_fast                             0.052830           2
 setg0                                   0.050718          65
 proall                                  0.047734           1
 i1                                      0.036149       34214
 brget                                   0.034234        9744
 w1_projall                              0.034178       39324
 map_backward                            0.013664        2454
 truncate_high_frequency_w1              0.013320      179900
 map_forward                             0.012505        2212
 force_and_stress                        0.009833           1
 brsav                                   0.008914        2538
 strnlr                                  0.007689           1
 pothar                                  0.005874          66
 inisym                                  0.004324           1
 fft_gq                                  0.003471          63
 stufak                                  0.003049           1
 fornlr                                  0.002613           1
 forhar                                  0.001942           2
 strelo                                  0.001692           1
 brpre                                   0.001528         126
 fftbrc_mpi                              0.001369        2333
 strehar                                 0.001255           1
 forloc                                  0.001027           1
 shift_bands_between_low_high            0.000452        3472
 fewald                                  0.000352           1
 strkin                                  0.000344           1
 set_dd_magatom                          0.000284          65
 vectorpot                               0.000267          64
 chggra                                  0.000224           1
 brgrid                                  0.000166           1
 rsp                                     0.000092           1
 fordep                                  0.000049           1
 crpa_reader                             0.000025           1
 posmap                                  0.000023           2
 rcp                                     0.000012           1
 acc_cufft_makeplans                     0.000010           3
 potlok_metagga                          0.000007          64
 rotate_active_occupied_orbital          0.000000           1
 redis_pw_over_bands                     0.000000           1
  summed up times     335.5743269920349

 Accumulative profile

 total_time                            335.574327           1
 elmin                                 296.659269           1
 eddrmm                                139.919301          62
 set_dd_paw                             91.287367          65
 m_sumb_d                               80.200218       33948
 hamiltmu                               43.619520       41284
 raccmu_                                40.005076       41284
 i2                                     30.864143       34214
 i3                                     28.804626       34214
 eddav                                  19.670445           5
 eccp                                   16.459704      209283
 set_charge                             14.082504          63
 phaser                                 13.882968        4116
 w1_gemv                                13.311102      423868
 cnorma                                 12.963761      160507
 eddiag                                 12.830976          62
 setdij_                                11.985182          91
 init_acc                               11.906955           1
 densta                                 10.658859          68
 eccp_nl                                 8.763752      160507
 newband                                 8.395248       45036
 augmentation_charge                     8.196676          64
 force_and_stress                        7.773950           1
 fft3d_mpi                               7.743881      178593
 redis_pw                                6.601340       60423
 fftbrc_mpi                              5.913595        2333
 fftbas_plan_mpi                         5.912226        2333
 orthch                                  5.221727          63
 fftwav_mpi                              5.079534      274053
 fftwav                                  4.710258      274053
 soft_charge                             4.684294          63
 dfftw_execute                           3.687204        1932
 m_alltoall_d                            3.635884      594979
 overl1                                  3.482408      211934
 fft3d                                   3.161176      450313
 redis_proj                              3.036192       66396
 lapack                                  2.974146        7070
 hamilt_local                            2.742445       45136
 kinhamil                                2.681614      176260
 acc_init_cublas                         2.441497           1
 w1_copy                                 2.054449      393372
 strnlr                                  2.038853           1
 w1_dscal                                2.011292      335610
 fftext_mpi                              1.922540      176260
 rpromu_acc                              1.842071       42236
 apply_precond                           1.733430      381138
 setup_precond                           1.700696       48776
 w1_gaxpy                                1.691117      327975
 rpro_isp                                1.396698         364
 racc0mu_acc                             1.363949       41284
 w1_projall                              1.314480       39324
 w1_daxpy                                1.282481      233466
 w1_dot                                  1.226127       43774
 map_forward                             1.140538        2212
 m_alltoallv_z                           0.982961        2589
 pw_charge                               0.972851       35166
 map_backward                            0.939082        2454
 acc_init_cusolver                       0.789687           1
 fordep                                  0.788779           1
 vhamil                                  0.751544      176260
 depsum                                  0.738175          63
 fornlr                                  0.679086           1
 potlok                                  0.660670          65
 zhegv                                   0.622826       72959
 overl_mu                                0.620952       41284
 map_scatter                             0.581429        2589
 i1                                      0.562262       34214
 map_gather                              0.489061        2589
 choleski                                0.459082        3528
 orth1                                   0.407469       35210
 brmix                                   0.294781          63
 overl                                   0.255447       29418
 rspher_all                              0.224764          14
 m_bcast_z                               0.222870        9982
 proall                                  0.186495           1
 broyd                                   0.178797          63
 lincom                                  0.138196        7280
 acc_cufft_makeplans                     0.124404           3
 acc_cufft_makeplan                      0.124394          19
 m_bcast_d                               0.116819       14275
 fft_gq                                  0.109700          63
 ggemm                                   0.092089        9030
 sphpro_fast                             0.054191           2
 setg0                                   0.050718          65
 brget                                   0.034234        9744
 truncate_high_frequency_w1              0.013320      179900
 brsav                                   0.008914        2538
 pothar                                  0.006451          66
 inisym                                  0.004347           1
 stufak                                  0.003049           1
 forhar                                  0.001949           2
 strelo                                  0.001713           1
 brpre                                   0.001528         126
 strehar                                 0.001268           1
 forloc                                  0.001042           1
 chggra                                  0.000766           1
 fewald                                  0.000550           1
 shift_bands_between_low_high            0.000452        3472
 strkin                                  0.000361           1
 set_dd_magatom                          0.000284          65
 vectorpot                               0.000267          64
 brgrid                                  0.000166           1
 rsp                                     0.000092           1
 crpa_reader                             0.000025           1
 posmap                                  0.000023           2
 rcp                                     0.000012           1
 potlok_metagga                          0.000007          64
 rotate_active_occupied_orbital          0.000000           1
 redis_pw_over_bands                     0.000000           1

Profiling took   0.656399  0.466935  0.003559  0.003471 seconds
Profiling took   0.532965 seconds