 vasp.6.3.2 27Jun22 (build Jul  3 2023 11:46:21) complex
 executed on    LinuxNV_CrayMPICH date 2024.04.21  07:11:09

 INCAR:
   ADDGRID = True
   ALGO = Normal
   EDIFF = 0.0003
   ENCUT = 520.0
   IBRION = -1
   ICHARG = 0
   ISIF = 3
   ISMEAR = -5
   ISPIN = 2
   ISTART = 1
   KPOINT_BSE = -1 0 0 0
   LAECHG = True
   LASPH = True
   LCHARG = True
   LELF = True
   LORBIT = 11
   LREAL = Auto
   LVHAR = True
   LWAVE = False
   MAGMOM = 1*0.6 1*7.0 4*0.6
   NELM = 1000
   NSW = 0
   PREC = accurate
   SIGMA = 0.05

 POTCAR:    PAW_PBE Ca_sv 06Sep2000
 POTCAR:    PAW_PBE Eu 23Dec2003
 POTCAR:    PAW_PBE Si 05Jan2001
 POTCAR:    PAW_PBE Ca_sv 06Sep2000
   VRHFIN =Ca: 3s3p4s

   TITEL  = PAW_PBE Ca_sv 06Sep2000
   POMASS =   40.078; ZVAL   =   10.000    mass and valenz
   ENMAX  =  266.622; ENMIN  =  199.967 eV

   TITEL  = PAW_PBE Eu 23Dec2003
   POMASS =  151.965; ZVAL   =   17.000    mass and valenz
   ENMAX  =  249.668; ENMIN  =  187.251 eV

   TITEL  = PAW_PBE Si 05Jan2001
   POMASS =   28.085; ZVAL   =    4.000    mass and valenz
   ENMAX  =  245.345; ENMIN  =  184.009 eV

 Optimization of the real space projectors (new method)

 maximal supplied QI-value         = 16.25
 optimisation between [QCUT,QGAM] = [ 11.54, 23.24] = [ 37.28,151.24] Ry
 Optimized for a Real-space Cutoff    1.58 Angstroem

   l    n(q)    QCUT    max X(q) W(low)/X(q) W(high)/X(q)  e(spline)
   0     11    11.539    11.817    0.25E-04    0.22E-05    0.26E-07
   0     11    11.539     8.461    0.39E-04    0.49E-05    0.55E-07
   1     11    11.539     3.957    0.21E-05    0.44E-05    0.32E-07
   1     11    11.539     4.314    0.56E-04    0.44E-04    0.19E-06
   2     10    11.539    14.565    0.25E-03    0.21E-04    0.75E-06
   2     10    11.539    14.552    0.23E-03    0.22E-04    0.72E-06
 Optimization of the real space projectors (new method)

[...]

   l    n(q)    QCUT    max X(q) W(low)/X(q) W(high)/X(q)  e(spline)
   0     11    11.673    10.400    0.14E-04    0.18E-05    0.24E-07
   0     11    11.673    10.768    0.21E-04    0.32E-05    0.49E-07
   1     11    11.673     4.094    0.40E-05    0.13E-04    0.93E-07
   1     11    11.673     4.009    0.11E-04    0.46E-04    0.33E-06
   2     10    11.673    29.030    0.79E-04    0.60E-04    0.70E-06
   2     10    11.673    19.941    0.80E-04    0.60E-04    0.71E-06
   3     10    11.673    88.889    0.23E-03    0.29E-03    0.30E-06
   3     10    11.673    76.102    0.23E-03    0.30E-03    0.30E-06
 Optimization of the real space projectors (new method)

 maximal supplied QI-value         = 19.84
 optimisation between [QCUT,QGAM] = [ 11.51, 23.22] = [ 37.09,150.92] Ry
 Optimized for a Real-space Cutoff    1.21 Angstroem

   l    n(q)    QCUT    max X(q) W(low)/X(q) W(high)/X(q)  e(spline)
   0      8    11.508   159.560    0.71E-04    0.15E-03    0.51E-07
   0      8    11.508   115.863    0.70E-04    0.15E-03    0.51E-07
   1      8    11.508    88.339    0.16E-03    0.38E-04    0.82E-07
   1      8    11.508    48.592    0.15E-03    0.36E-04    0.79E-07
  PAW_PBE Ca_sv 06Sep2000               :
  PAW_PBE Eu 23Dec2003                  :
  PAW_PBE Si 05Jan2001                  :

 POSCAR: Ca1 Eu1 Si4
  positions in direct lattice
 exchange correlation table for  LEXCH =        8
   RHO(1)=    0.500       N(1)  =     2000
   RHO(2)=  100.500       N(2)  =     4000

 VTST: version 4.2, (08/11/21)

 CHAIN: initializing optimizer

 OPT: Using VASP Dynamics algorithm
 CHAIN: Read ICHAIN             0

 POSCAR: Ca1 Eu1 Si4
  positions in direct lattice

 ion  position               nearest neighbor table
   1  0.250  0.750  0.500-   6 3.10   6 3.10   4 3.10   4 3.10
   2  0.000  0.000  0.000-   3 3.10   5 3.10   3 3.10   5 3.10   6 3.23   4 3.23   4 3.23   4 3.23
                             6 3.23   4 3.23   6 3.23   6 3.23
   3  0.665  0.165  0.500-   5 2.30   4 2.40   4 2.40   2 3.10   2 3.10
   4  0.585  0.585  0.000-   6 2.29   3 2.40   3 2.40   1 3.10   1 3.10   2 3.23   2 3.23   2 3.23
                             2 3.23
   5  0.835  0.335  0.500-   3 2.30   6 2.40   6 2.40   2 3.10   2 3.10
   6  0.415  0.415  0.000-   4 2.29   5 2.40   5 2.40   1 3.10   1 3.10   2 3.23   2 3.23   2 3.23
                             2 3.23

  LATTYP: Found a body centered tetragonal cell.
 ALAT       =     4.2675480000
 C/A-ratio  =     3.1801840307

  Lattice vectors:

 A1 = (  -2.1337740000,   2.1337740000,   6.7857940000)
 A2 = (   2.1337740000,  -2.1337740000,   6.7857940000)
 A3 = (   2.1337740000,   2.1337740000,  -6.7857940000)

Analysis of symmetry for initial positions (statically):
 Subroutine PRICEL returns:
 Original cell was already a primitive cell.

 Routine SETGRP: Setting up the symmetry group for a
 body centered tetragonal supercell.

 Subroutine GETGRP returns: Found  8 space group operations
 (whereof  8 operations were pure point group operations)
 out of a pool of 16 trial point group operations.

The static configuration has the point symmetry D_2d.

Analysis of symmetry for dynamics (positions and initial velocities):
 Subroutine PRICEL returns:
 Original cell was already a primitive cell.

[...]

The dynamic configuration has the point symmetry D_2d.

Analysis of structural, dynamic, and magnetic symmetry:
 Subroutine PRICEL returns:
 Original cell was already a primitive cell.

 Routine SETGRP: Setting up the symmetry group for a
 body centered tetragonal supercell.

 Subroutine GETGRP returns: Found  8 space group operations
 (whereof  8 operations were pure point group operations)
 out of a pool of 16 trial point group operations.

The overall configuration has the point symmetry D_2d.

 Subroutine INISYM returns: Found  8 space group operations
 (whereof  8 operations are pure point group operations),
 and found     1 'primitive' translations

                                     Primitive cell

  volume of cell :     123.5826

  direct lattice vectors                    reciprocal lattice vectors
    -2.133774000  2.133774000  6.785794000     0.000000000  0.234326597  0.073683345
     2.133774000 -2.133774000  6.785794000     0.234326597  0.000000000  0.073683345
     2.133774000  2.133774000 -6.785794000     0.234326597  0.234326597  0.000000000

  length of vectors
     7.426505448  7.426505448  7.426505448     0.245638330  0.245638330  0.331387851

  position of ions in fractional coordinates (direct lattice)
     0.250000000  0.750000000  0.500000000
     0.000000000  0.000000000  0.000000000
     0.665407000  0.165407000  0.500000000
     0.584536000  0.584536000  0.000000000
     0.834593000  0.334593000  0.500000000
     0.415464000  0.415464000  0.000000000

  ion indices of the primitive-cell ions
   primitive index   ion index
                 1           1
                 2           2
                 3           3
                 4           4
                 5           5
                 6           6

 KPOINTS: Kpoints from vasprun.xml

Automatic generation of k-mesh.
 Grid dimensions read from file:
 generate k-points for:    5    5    5

 Generating k-lattice:

  Cartesian coordinates                     Fractional coordinates (reciprocal lattice)
     0.000000000  0.046865319  0.014736669     0.200000000  0.000000000 -0.000000000
     0.046865319  0.000000000  0.014736669     0.000000000  0.200000000 -0.000000000
     0.046865319  0.046865319  0.000000000     0.000000000 -0.000000000  0.200000000

  Length of vectors
     0.049127666  0.049127666  0.066277570

  Shift w.r.t. Gamma in fractional coordinates (k-lattice)
     0.000000000  0.000000000  0.000000000

 TETIRR: Found    161 inequivalent tetrahedra from      750

 Subroutine IBZKPT returns following result:

 Found     18 irreducible k-points:

 Following reciprocal coordinates:
            Coordinates               Weight
  0.000000  0.000000  0.000000      1.000000
  0.200000  0.000000  0.000000      8.000000
  0.400000  0.000000  0.000000      8.000000
  0.200000  0.200000  0.000000      8.000000
  0.400000  0.200000  0.000000     16.000000
 -0.400000  0.200000  0.000000     16.000000
 -0.200000  0.200000  0.000000      4.000000
  0.400000  0.400000  0.000000      8.000000
 -0.400000  0.400000  0.000000      4.000000
  0.200000  0.200000  0.200000      8.000000
 -0.200000  0.200000  0.200000      4.000000
 -0.400000  0.400000  0.200000      8.000000
 -0.200000  0.400000  0.200000      8.000000
 -0.400000 -0.400000  0.200000      8.000000
 -0.200000 -0.400000  0.200000      8.000000
 -0.200000 -0.200000  0.200000      2.000000
 -0.400000  0.400000  0.400000      4.000000
 -0.400000 -0.400000  0.400000      2.000000

 Following cartesian coordinates:
            Coordinates               Weight
  0.000000  0.000000  0.000000      1.000000
  0.000000  0.046865  0.014737      8.000000
  0.000000  0.093731  0.029473      8.000000
  0.046865  0.046865  0.029473      8.000000
  0.046865  0.093731  0.044210     16.000000
  0.046865 -0.093731 -0.014737     16.000000
  0.046865 -0.046865  0.000000      4.000000
  0.093731  0.093731  0.058947      8.000000
  0.093731 -0.093731  0.000000      4.000000
  0.093731  0.093731  0.029473      8.000000
  0.093731  0.000000  0.000000      4.000000
  0.140596 -0.046865  0.000000      8.000000
  0.140596  0.000000  0.014737      8.000000
 -0.046865 -0.046865 -0.058947      8.000000
 -0.046865  0.000000 -0.044210      8.000000
  0.000000  0.000000 -0.029473      2.000000
  0.187461  0.000000  0.000000      4.000000
  0.000000  0.000000 -0.058947      2.000000

 SYSTEM =  unknown system
 POSCAR =  Ca1 Eu1 Si4

 Startparameter for this run:
   NWRITE =      2    write-flag & timer
   PREC   = accura    normal or accurate (medium, high low for compatibility)
   ISTART =      0    job   : 0-new  1-cont  2-samecut
   ICHARG =      2    charge: 1-file 2-atom 10-const
   ISPIN  =      2    spin polarized calculation?
   LNONCOLLINEAR =      F non collinear calculations
   LSORBIT =      F    spin-orbit coupling
   INIWAV =      1    electr: 0-lowe 1-rand  2-diag
   LASPH  =      T    aspherical Exc in radial PAW
 Electronic Relaxation 1
   ENCUT  =  520.0 eV  38.22 Ry    6.18 a.u.  13.81 13.81 13.81*2*pi/ulx,y,z
   ENINI  =  520.0     initial cutoff
   ENAUG  =  549.6 eV  augmentation charge cutoff
   NELM   =   1000;   NELMIN=  2; NELMDL=  0     # of ELM steps
   EDIFF  = 0.3E-03   stopping-criterion for ELM
   LREAL  =      T    real-space projection
   NLSPLINE    = F    spline interpolate recip. space projectors
   LCOMPAT=      F    compatible to vasp.4.4
   GGA_COMPAT  = T    GGA compatible to vasp.4.4-vasp.4.6
   LMAXPAW     = -100 max onsite density
   LMAXMIX     =    2 max onsite mixed and CHGCAR
   VOSKOWN=      0    Vosko Wilk Nusair interpolation
   ROPT   =   -0.00025  -0.00025  -0.00025
 Ionic relaxation
   EDIFFG = 0.3E-02   stopping-criterion for IOM
   NSW    =      0    number of steps for IOM
   NBLOCK =      1;   KBLOCK =      1    inner block; outer block
   IBRION =     -1    ionic relax: 0-MD 1-quasi-New 2-CG
   NFREE  =      0    steps in history (QN), initial steepest desc. (CG)
   ISIF   =      3    stress and relaxation
   IWAVPR =     10    prediction:  0-non 1-charg 2-wave 3-comb
[...]
  290                map_forward                           0.000205                    4   7
  291                  map_gather                            0.000047                  2   8
  292                  m_alltoallv_z                         0.000026                  2   8
  293                  map_scatter                           0.000101                  2   8
  294                map_backward                          0.000120                    2   7
  295                  map_gather                            0.000023                  1   8
  296                  m_alltoallv_z                         0.000012                  1   8
  297                  map_scatter                           0.000069                  1   8
  298          m_sumb_d                              0.000010                          2   4
  299          pothar                                0.000079                          1   4
  300            m_sumb_d                              0.000004                        1   5
  301        brmix                                 0.010301                            1   3
  302          m_sumb_d                              0.000083                          6   4
  303          brpre                                 0.000034                          2   4
  304          setg0                                 0.001357                          1   4
  305          broyd                                 0.007366                          1   4
  306            m_sumb_d                              0.000335                       50   5
  307            brget                                 0.001393                      224   5
  308            brsav                                 0.000290                       48   5
  309        m_bcast_d                             0.000018                            2   3
  310      potlok                                0.040047                              2   2
  311        fft3d_mpi                             0.027113                           36   3
  312          fftbrc_mpi                            0.022940                         36   4
  313            fftbas_plan_mpi                       0.022929                       36   5
  314              map_forward                           0.006513                     40   6
  315                map_gather                            0.002120                   24   7
  316                m_alltoallv_z                         0.002283                   24   7
  317                map_scatter                           0.001912                   24   7
  318              map_backward                          0.005454                     32   6
  319                map_gather                            0.001832                   16   7
  320                m_alltoallv_z                         0.001803                   16   7
  321                map_scatter                           0.001623                   16   7
  322              dfftw_execute                         0.009062                     30   6
  323        m_sumb_d                              0.000027                            5   3
  324        pothar                                0.001762                            2   3
  325          m_sumb_d                              0.000150                          2   4
  326        m_bcast_d                             0.002901                            4   3
  327      potlok_metagga                        0.000001                              1   2
  328      set_dd_magatom                        0.000005                              1   2
  329      set_dd_paw                            1.151540                              1   2
  330        m_sumb_d                              0.938010                            7   3
  331      augmentation_charge                   0.162846                              1   2
  332        fft3d_mpi                             0.055965                            2   3
  333          fftbrc_mpi                            0.049091                          2   4
  334            fftbas_plan_mpi                       0.049088                        2   5
  335              dfftw_execute                         0.028647                      6   6
  336              map_backward                          0.020241                      4   6
  337                map_gather                            0.006143                    2   7
  338                m_alltoallv_z                         0.008236                    2   7
  339                map_scatter                           0.005853                    2   7
  340      fftwav_mpi                            1.056224                            864   2
  341        fftwav                                1.055136                          864   3
  342          fft3d                                 0.985663                        864   4
  343      densta                                0.428011                              1   2

 Flat profile

 m_sumb_d                              109.875089      193159
 raccmu_                                68.192515       60300
 eddav                                  28.649401         103
 lapack                                 28.300246       60300
 set_dd_paw                             20.472553         101
 phaser                                 14.930091        3942
 setdij_                                13.059204         127
 redis_pw                               11.695829      339624
 total_time                             11.680898           1
 init_acc                               11.113662           1
 augmentation_charge                    10.715844         100
 dfftw_execute                           8.450870        2856
 m_alltoall_d                            6.230801      875304
 densta                                  4.944138         104
 fft3d                                   3.635692      357929
 redis_proj                              2.883011      430596
 eccp                                    2.871241       29664
 acc_init_cublas                         2.439253           1
 fftwav                                  2.298196      237329
 m_alltoallv_z                           2.124716        3997
 orth1                                   1.963641      180936
 soft_charge                             1.831230          99
 overl                                   1.794350      211572
 racc0mu_acc                             1.791029       60300
 w1_copy                                 1.781086      361800
 map_scatter                             1.758253        3997
 hamiltmu                                1.640631       60300
 fft3d_mpi                               1.578049      124177
 rpromu_acc                              1.534186       46404
 set_charge                              1.325570          99
 m_bcast_z                               1.322095       61452
 map_gather                              1.310568        3997
 setup_precond                           1.080929       29664
 m_bcast_d                               1.008864      120807
 overl_mu                                0.941740       60300
 ggemm                                   0.800174       75132
 acc_init_cusolver                       0.791460           1
 pw_charge                               0.628002       21185
 vhamil                                  0.562542      120600
 kinhamil                                0.547408      120600
 fftext_mpi                              0.522212      120600
 apply_precond                           0.506444       90936
 newband                                 0.501730       64008
 potlok                                  0.481390         101
 depsum                                  0.471578          99
 broyd                                   0.345357          99
 fftwav_mpi                              0.315201      237329
 rpro_isp                                0.262257         234
 brmix                                   0.228287          99
 rspher_all                              0.223348          14
 fftbas_plan_mpi                         0.198025        3577
 elmin                                   0.197822           1
 acc_cufft_makeplan                      0.130053          19
 setg0                                   0.123280         101
 brget                                   0.114189       18452
 lincom                                  0.112968        3744
 w1_projall                              0.045994       45468
 proall                                  0.043068           1
 brsav                                   0.030897        5057
 sphpro_fast                             0.025725           2
 map_backward                            0.021832        3762
 map_forward                             0.020586        3392
 truncate_high_frequency_w1              0.012199      150264
 fft_gq                                  0.010266          99
 force_and_stress                        0.010225           1
 pothar                                  0.009803         102
 orthch                                  0.008696           1
 choleski                                0.006907          36
 strnlr                                  0.005020           1
 stufak                                  0.004800           1
 inisym                                  0.004521           1
 brpre                                   0.003575         198
 forhar                                  0.002770           2
 strelo                                  0.002394           1
 fftbrc_mpi                              0.002100        3577
 strehar                                 0.001813           1
 fornlr                                  0.001752           1
 forloc                                  0.001440           1
 set_dd_magatom                          0.000433         101
 vectorpot                               0.000410         100
 fewald                                  0.000327           1
 strkin                                  0.000256           1
 chggra                                  0.000248           1
 brgrid                                  0.000230           1
 rsp                                     0.000119           1
 fordep                                  0.000039           1
 crpa_reader                             0.000029           1
 posmap                                  0.000019           2
 rcp                                     0.000015           1
 acc_cufft_makeplans                     0.000012           3
 potlok_metagga                          0.000008         100
 rotate_active_occupied_orbital          0.000000           1
 redis_pw_over_bands                     0.000000           1
  summed up times     395.5677239894867

 Accumulative profile

 total_time                            395.567724           1
 elmin                                 357.848185           1
 eddav                                 200.853813         103
 set_dd_paw                            113.924908         101
 m_sumb_d                              109.875089      193159
 hamiltmu                               75.092623       60300
 raccmu_                                70.925284       60300
 lapack                                 28.300246       60300
 set_charge                             21.939976          99
 setdij_                                21.777263         127
 augmentation_charge                    16.376704         100
 fft3d_mpi                              16.322839      124177
 phaser                                 14.930091        3942
 redis_pw                               14.698740      339624
 fftbrc_mpi                             13.886951        3577
 fftbas_plan_mpi                        13.884851        3577
 init_acc                               11.113662           1
 dfftw_execute                           8.450870        2856
 force_and_stress                        7.440508           1
 newband                                 6.648374       64008
 m_alltoall_d                            6.230801      875304
 redis_proj                              6.110900      430596
 fftwav_mpi                              5.391249      237329
 fftwav                                  5.076048      237329
 densta                                  4.944138         104
 soft_charge                             3.695437          99
 fft3d                                   3.635692      357929
 eccp                                    2.871241       29664
 map_backward                            2.711077        3762
 map_forward                             2.524878        3392
 acc_init_cublas                         2.439253           1
 m_alltoallv_z                           2.124716        3997
 kinhamil                                1.964166      120600
 orth1                                   1.963641      180936
 overl                                   1.794350      211572
 racc0mu_acc                             1.791029       60300
 w1_copy                                 1.781086      361800
 map_scatter                             1.758253        3997
 rpromu_acc                              1.534186       46404
 fftext_mpi                              1.416758      120600
 w1_projall                              1.386840       45468
 m_bcast_z                               1.322095       61452
 map_gather                              1.310568        3997
 strnlr                                  1.196718           1
 potlok                                  1.106617         101
 setup_precond                           1.080929       29664
 fordep                                  1.032572           1
 m_bcast_d                               1.008864      120807
 overl_mu                                0.941740       60300
 brmix                                   0.885626          99
 ggemm                                   0.800174       75132
 acc_init_cusolver                       0.791460           1
 pw_charge                               0.628002       21185
 rpro_isp                                0.570767         234
 vhamil                                  0.562542      120600
 broyd                                   0.522226          99
 apply_precond                           0.506444       90936
 depsum                                  0.498840          99
 fornlr                                  0.398993           1
 orthch                                  0.283828           1
 fft_gq                                  0.267470          99
 rspher_all                              0.223348          14
 proall                                  0.131887           1
 acc_cufft_makeplans                     0.130065           3
 acc_cufft_makeplan                      0.130053          19
 setg0                                   0.123280         101
 brget                                   0.114189       18452
 lincom                                  0.112968        3744
 brsav                                   0.030897        5057
 sphpro_fast                             0.026437           2
 truncate_high_frequency_w1              0.012199      150264
 pothar                                  0.010736         102
 choleski                                0.006907          36
 stufak                                  0.004800           1
 inisym                                  0.004540           1
 brpre                                   0.003575         198
 forhar                                  0.002785           2
 strelo                                  0.002404           1
 strehar                                 0.001815           1
 forloc                                  0.001454           1
 chggra                                  0.000857           1
 fewald                                  0.000539           1
 set_dd_magatom                          0.000433         101
 vectorpot                               0.000410         100
 strkin                                  0.000265           1
 brgrid                                  0.000230           1
 rsp                                     0.000119           1
 crpa_reader                             0.000029           1
 posmap                                  0.000019           2
 rcp                                     0.000015           1
 potlok_metagga                          0.000008         100
 rotate_active_occupied_orbital          0.000000           1
 redis_pw_over_bands                     0.000000           1

Profiling took   0.766631  0.374752  0.003237  0.003153 seconds
Profiling took   0.484148 seconds