 vasp.6.3.2 27Jun22 (build Jul  3 2023 11:46:21) complex
 executed on    LinuxNV_CrayMPICH date 2024.04.21  00:46:37

 INCAR:
   ADDGRID = True
   ALGO = Normal
   EDIFF = 5e-05
   ENCUT = 520.0
   IBRION = -1
   ISIF = 3
   ISMEAR = -5
   ISPIN = 2
   LAECHG = True
   LASPH = True
   LCHARG = True
   LORBIT = 11
   LREAL = Auto
   LVHAR = True
   LWAVE = False
   MAGMOM = 1*7.0 3*0.6
   NELM = 1000
   NSW = 0
   PREC = Accurate
   SIGMA = 0.05

 POTCAR:    PAW_PBE Gd 23Dec2003
 POTCAR:    PAW_PBE Y_sv 25May2007
 POTCAR:    PAW_PBE Ir 06Sep2000
 POTCAR:    PAW_PBE Gd 23Dec2003
   VRHFIN =Gd : [core=Xe4]

   TITEL  = PAW_PBE Gd 23Dec2003
   POMASS =  157.250; ZVAL   =   18.000    mass and valenz
   ENMAX  =  256.472; ENMIN  =  192.354 eV

   TITEL  = PAW_PBE Y_sv 25May2007
   POMASS =   88.906; ZVAL   =   11.000    mass and valenz
   ENMAX  =  202.626; ENMIN  =  151.970 eV

   TITEL  = PAW_PBE Ir 06Sep2000
   POMASS =  192.220; ZVAL   =    9.000    mass and valenz
   ENMAX  =  210.864; ENMIN  =  158.148 eV

 Optimization of the real space projectors (new method)

 maximal supplied QI-value         = 13.42
 optimisation between [QCUT,QGAM] = [ 11.67, 23.35] = [ 38.16,152.62] Ry
 Optimized for a Real-space Cutoff    1.63 Angstroem

   l    n(q)    QCUT    max X(q) W(low)/X(q) W(high)/X(q)  e(spline)
   0     11    11.673    10.501    0.14E-04    0.17E-05    0.21E-07
   0     11    11.673     9.148    0.21E-04    0.32E-05    0.45E-07
   1     11    11.673     4.035    0.33E-05    0.11E-04    0.84E-07
   1     11    11.673     4.388    0.11E-04    0.47E-04    0.34E-06
   2     10    11.673    20.656    0.12E-04    0.28E-04    0.54E-06
   2     10    11.673    12.651    0.11E-04    0.26E-04    0.51E-06
   3     10    11.673    61.921    0.19E-03    0.22E-03    0.23E-06
   3     10    11.673    48.328    0.20E-03    0.23E-03    0.23E-06
 Optimization of the real space projectors (new method)

[...]

   l    n(q)    QCUT    max X(q) W(low)/X(q) W(high)/X(q)  e(spline)
   0     12    11.673    14.902    0.22E-04    0.24E-05    0.52E-07
   0     12    11.673     9.294    0.34E-04    0.58E-05    0.89E-07
   1     11    11.673    69.520    0.10E-04    0.47E-04    0.49E-06
   1     11    11.673    72.085    0.10E-04    0.48E-04    0.50E-06
   2     11    11.673    62.934    0.94E-04    0.14E-04    0.82E-06
   2     11    11.673    49.749    0.91E-04    0.13E-04    0.79E-06
   3     10    11.673     8.311    0.92E-04    0.21E-04    0.59E-06
 Optimization of the real space projectors (new method)

 maximal supplied QI-value         = 14.36
 optimisation between [QCUT,QGAM] = [ 11.63, 23.27] = [ 37.90,151.59] Ry
 Optimized for a Real-space Cutoff    1.63 Angstroem

   l    n(q)    QCUT    max X(q) W(low)/X(q) W(high)/X(q)  e(spline)
   2     10    11.633   134.116    0.23E-03    0.25E-04    0.92E-06
   2     10    11.633   130.192    0.23E-03    0.25E-04    0.92E-06
   0     11    11.633    60.310    0.44E-04    0.29E-04    0.76E-06
   0     11    11.633    39.218    0.38E-04    0.27E-04    0.71E-06
   1     11    11.633    18.439    0.37E-04    0.62E-04    0.19E-06
   1     11    11.633    12.760    0.29E-04    0.50E-04    0.16E-06
  PAW_PBE Gd 23Dec2003                  :
  PAW_PBE Y_sv 25May2007                :
  PAW_PBE Ir 06Sep2000                  :

 POSCAR: Gd1 Y1 Ir2
  positions in direct lattice
 exchange correlation table for  LEXCH =        8
   RHO(1)=    0.500       N(1)  =     2000
   RHO(2)=  100.500       N(2)  =     4000

 VTST: version 4.2, (08/11/21)

 CHAIN: initializing optimizer

 OPT: Using VASP Dynamics algorithm
 CHAIN: Read ICHAIN             0

 POSCAR: Gd1 Y1 Ir2
  positions in direct lattice

 ion  position               nearest neighbor table
   1  0.250  0.250  0.250-   3 2.99   3 2.99   3 2.99   3 2.99   4 2.99   4 2.99   4 2.99   4 2.99
                             2 3.45   2 3.45   2 3.45   2 3.45   2 3.45   2 3.45
   2  0.750  0.750  0.750-   4 2.99   4 2.99   4 2.99   3 2.99   4 2.99   3 2.99   3 2.99   3 2.99
                             1 3.45   1 3.45   1 3.45   1 3.45   1 3.45   1 3.45
   3  0.000  0.000  0.000-   2 2.99   2 2.99   2 2.99   1 2.99   2 2.99   1 2.99   1 2.99   1 2.99

   4  0.500  0.500  0.500-   1 2.99   1 2.99   1 2.99   1 2.99   2 2.99   2 2.99   2 2.99   2 2.99

  LATTYP: Found a face centered cubic cell.
 ALAT       =     6.8988360000

  Lattice vectors:

 A1 = (   0.0000000000,   3.4494180000,   3.4494180000)
 A2 = (   3.4494180000,   0.0000000000,   3.4494180000)
 A3 = (   3.4494180000,   3.4494180000,   0.0000000000)

Analysis of symmetry for initial positions (statically):
 Subroutine PRICEL returns:
 Original cell was already a primitive cell.

 Routine SETGRP: Setting up the symmetry group for a
 face centered cubic supercell.

 Subroutine GETGRP returns: Found 48 space group operations
 (whereof 24 operations were pure point group operations)
 out of a pool of 48 trial point group operations.

The static configuration has the point symmetry T_d .
 The point group associated with its full space group is O_h .

Analysis of symmetry for dynamics (positions and initial velocities):
 Subroutine PRICEL returns:
 Original cell was already a primitive cell.

[...]

The dynamic configuration has the point symmetry T_d .
 The point group associated with its full space group is O_h .

Analysis of structural, dynamic, and magnetic symmetry:
 Subroutine PRICEL returns:
 Original cell was already a primitive cell.

 Routine SETGRP: Setting up the symmetry group for a
 face centered cubic supercell.

 Subroutine GETGRP returns: Found 48 space group operations
 (whereof 24 operations were pure point group operations)
 out of a pool of 48 trial point group operations.

The overall configuration has the point symmetry T_d .
 The point group associated with its full space group is O_h .

 Subroutine INISYM returns: Found 48 space group operations
 (whereof 24 operations are pure point group operations),
 and found     1 'primitive' translations

                                     Primitive cell

  volume of cell :      82.0857

  direct lattice vectors                    reciprocal lattice vectors
     0.000000000  3.449418000  3.449418000    -0.144951989  0.144951989  0.144951989
     3.449418000  0.000000000  3.449418000     0.144951989 -0.144951989  0.144951989
     3.449418000  3.449418000  0.000000000     0.144951989  0.144951989 -0.144951989

  length of vectors
     4.878213718  4.878213718  4.878213718     0.251064210  0.251064210  0.251064210

  position of ions in fractional coordinates (direct lattice)
     0.250000000  0.250000000  0.250000000
     0.750000000  0.750000000  0.750000000
     0.000000000  0.000000000  0.000000000
     0.500000000  0.500000000  0.500000000

  ion indices of the primitive-cell ions
   primitive index   ion index
                 1           1
                 2           2
                 3           3
                 4           4

 KPOINTS: Kpoints from vasprun.xml

Automatic generation of k-mesh.
 Grid dimensions read from file:
 generate k-points for:    6    6    6

 Generating k-lattice:

  Cartesian coordinates                     Fractional coordinates (reciprocal lattice)
    -0.024158665  0.024158665  0.024158665     0.166666667 -0.000000000 -0.000000000
     0.024158665 -0.024158665  0.024158665    -0.000000000  0.166666667  0.000000000
     0.024158665  0.024158665 -0.024158665     0.000000000  0.000000000  0.166666667

  Length of vectors
     0.041844035  0.041844035  0.041844035

  Shift w.r.t. Gamma in fractional coordinates (k-lattice)
     0.500000000  0.500000000  0.500000000

 TETIRR: Found    403 inequivalent tetrahedra from     5184

 Subroutine IBZKPT returns following result:

 Found     28 irreducible k-points:

 Following reciprocal coordinates:
            Coordinates               Weight
  0.083333  0.083333  0.083333      8.000000
  0.250000  0.083333  0.083333     24.000000
  0.416667  0.083333  0.083333     24.000000
 -0.416667  0.083333  0.083333     24.000000
 -0.250000  0.083333  0.083333     24.000000
 -0.083333  0.083333  0.083333     24.000000
  0.250000  0.250000  0.083333     24.000000
  0.416667  0.250000  0.083333     48.000000
 -0.416667  0.250000  0.083333     48.000000
 -0.250000  0.250000  0.083333     48.000000
 -0.083333  0.250000  0.083333     48.000000
  0.416667  0.416667  0.083333     24.000000
 -0.416667  0.416667  0.083333     48.000000
 -0.250000  0.416667  0.083333     48.000000
 -0.083333  0.416667  0.083333     48.000000
 -0.416667 -0.416667  0.083333     24.000000
 -0.250000 -0.416667  0.083333     48.000000
 -0.250000 -0.250000  0.083333     24.000000
  0.250000  0.250000  0.250000      8.000000
  0.416667  0.250000  0.250000     24.000000
 -0.416667  0.250000  0.250000     24.000000
 -0.250000  0.250000  0.250000     24.000000
  0.416667  0.416667  0.250000     24.000000
 -0.416667  0.416667  0.250000     48.000000
 -0.250000  0.416667  0.250000     48.000000
 -0.416667 -0.416667  0.250000     24.000000
  0.416667  0.416667  0.416667      8.000000
 -0.416667  0.416667  0.416667     24.000000

 Following cartesian coordinates:
            Coordinates               Weight
  0.012079  0.012079  0.012079      8.000000
 -0.012079  0.036238  0.036238     24.000000
 -0.036238  0.060397  0.060397     24.000000
  0.084555 -0.060397 -0.060397     24.000000
  0.060397 -0.036238 -0.036238     24.000000
  0.036238 -0.012079 -0.012079     24.000000
  0.012079  0.012079  0.060397     24.000000
 -0.012079  0.036238  0.084555     48.000000
  0.108714 -0.084555 -0.036238     48.000000
  0.084555 -0.060397 -0.012079     48.000000
  0.060397 -0.036238  0.012079     48.000000
  0.012079  0.012079  0.108714     24.000000
  0.132873 -0.108714 -0.012079     48.000000
  0.108714 -0.084555  0.012079     48.000000
  0.084555 -0.060397  0.036238     48.000000
  0.012079  0.012079 -0.132873     24.000000
 -0.012079  0.036238 -0.108714     48.000000
  0.012079  0.012079 -0.084555     24.000000
  0.036238  0.036238  0.036238      8.000000
  0.012079  0.060397  0.060397     24.000000
  0.132873 -0.060397 -0.060397     24.000000
  0.108714 -0.036238 -0.036238     24.000000
  0.036238  0.036238  0.084555     24.000000
  0.157031 -0.084555 -0.036238     48.000000
  0.132873 -0.060397 -0.012079     48.000000
  0.036238  0.036238 -0.157031     24.000000
  0.060397  0.060397  0.060397      8.000000
  0.181190 -0.060397 -0.060397     24.000000

 SYSTEM =  unknown system
 POSCAR =  Gd1 Y1 Ir2

 Startparameter for this run:
   NWRITE =      2    write-flag & timer
   PREC   = accura    normal or accurate (medium, high low for compatibility)
   ISTART =      0    job   : 0-new  1-cont  2-samecut
   ICHARG =      2    charge: 1-file 2-atom 10-const
   ISPIN  =      2    spin polarized calculation?
   LNONCOLLINEAR =      F non collinear calculations
   LSORBIT =      F    spin-orbit coupling
   INIWAV =      1    electr: 0-lowe 1-rand  2-diag
   LASPH  =      T    aspherical Exc in radial PAW
 Electronic Relaxation 1
   ENCUT  =  520.0 eV  38.22 Ry    6.18 a.u.   9.07  9.07  9.07*2*pi/ulx,y,z
   ENINI  =  520.0     initial cutoff
   ENAUG  =  537.2 eV  augmentation charge cutoff
[...]
  287          fft3d_mpi                             0.000403                          3   4
  288            fftbrc_mpi                            0.000313                        3   5
  289              fftbas_plan_mpi                       0.000311                      3   6
  290                map_forward                           0.000155                    4   7
  291                  map_gather                            0.000039                  2   8
  292                  m_alltoallv_z                         0.000022                  2   8
  293                  map_scatter                           0.000066                  2   8
  294                map_backward                          0.000071                    2   7
  295                  map_gather                            0.000018                  1   8
  296                  m_alltoallv_z                         0.000010                  1   8
  297                  map_scatter                           0.000029                  1   8
  298          m_sumb_d                              0.000009                          2   4
  299          pothar                                0.000075                          1   4
  300            m_sumb_d                              0.000009                        1   5
  301        brmix                                 0.001901                            1   3
  302          m_sumb_d                              0.000048                          6   4
  303          brpre                                 0.000015                          2   4
  304          setg0                                 0.000331                          1   4
  305          broyd                                 0.001104                          1   4
  306            m_sumb_d                              0.000111                       27   5
  307            brsav                                 0.000074                       26   5
  308            brget                                 0.000278                      109   5
  309        m_bcast_d                             0.000017                            2   3
  310      potlok                                0.014863                              2   2
  311        fft3d_mpi                             0.009891                           36   3
  312          fftbrc_mpi                            0.008458                         36   4
  313            fftbas_plan_mpi                       0.008440                       36   5
  314              map_forward                           0.002495                     40   6
  315                map_gather                            0.000859                   24   7
  316                m_alltoallv_z                         0.000699                   24   7
  317                map_scatter                           0.000768                   24   7
  318              map_backward                          0.002056                     32   6
  319                map_gather                            0.000720                   16   7
  320                m_alltoallv_z                         0.000503                   16   7
  321                map_scatter                           0.000665                   16   7
  322              dfftw_execute                         0.002387                     30   6
  323        m_sumb_d                              0.000022                            5   3
  324        pothar                                0.000537                            2   3
  325          m_sumb_d                              0.000045                          2   4
  326        m_bcast_d                             0.000843                            4   3
  327      potlok_metagga                        0.000000                              1   2
  328      set_dd_magatom                        0.000004                              1   2
  329      set_dd_paw                            0.942226                              1   2
  330        m_sumb_d                              0.482222                            7   3
  331      augmentation_charge                   0.074958                              1   2
  332        fft3d_mpi                             0.014414                            2   3
  333          fftbrc_mpi                            0.013033                          2   4
  334            fftbas_plan_mpi                       0.013032                        2   5
  335              dfftw_execute                         0.008528                      6   6
  336              map_backward                          0.004286                      4   6
  337                map_gather                            0.001009                    2   7
  338                m_alltoallv_z                         0.002379                    2   7
  339                map_scatter                           0.000891                    2   7
  340      densta                                2.552833                              1   2

 Flat profile

 m_sumb_d                               16.138264       69405
 init_acc                               10.975995           1
 set_dd_paw                             10.621532          23
 lapack                                 10.405607       22004
 eddav                                   9.913462          25
 total_time                              6.639477           1
 raccmu_                                 6.313624       22004
 densta                                  4.543467          26
 redis_pw                                3.976827      123736
 acc_init_cublas                         3.847624           1
 setdij_                                 2.859309          49
 phaser                                  2.592733        1764
 m_alltoall_d                            2.371464      321496
 augmentation_charge                     1.365984          22
 acc_init_cusolver                       1.195531           1
 redis_proj                              1.039738      156600
 fft3d                                   1.002681      133836
 eccp                                    0.950636       11200
 fftwav                                  0.887125       89828
 dfftw_execute                           0.834819         924
 orth1                                   0.740722       66068
 rpromu_acc                              0.713678       17860
 racc0mu_acc                             0.647758       22004
 overl                                   0.645576       76872
 w1_copy                                 0.644130      132024
 soft_charge                             0.583956          21
 m_bcast_z                               0.476501       23796
 hamiltmu                                0.437557       22004
 setup_precond                           0.407407       11200
 rpro_isp                                0.390459         364
 m_bcast_d                               0.369413       44059
 overl_mu                                0.338052       22004
 m_alltoallv_z                           0.328033         993
 acc_cufft_makeplan                      0.319793          19
 ggemm                                   0.291444       27604
 newband                                 0.208680       23404
 kinhamil                                0.201737       44008
 vhamil                                  0.200490       44008
 fftext_mpi                              0.189125       44008
 apply_precond                           0.179382       32808
 pw_charge                               0.172854        7188
 fft3d_mpi                               0.164839       44913
 depsum                                  0.154201          21
 map_scatter                             0.123140         993
 fftwav_mpi                              0.120566       89828
 rspher_all                              0.110370          14
 map_gather                              0.104887         993
 set_charge                              0.081940          21
 potlok                                  0.064611          23
 fftbas_plan_mpi                         0.058613         905
 lincom                                  0.046888        1456
 elmin                                   0.045566           1
 proall                                  0.040545           1
 sphpro_fast                             0.032198           2
 w1_projall                              0.016985       16404
 broyd                                   0.012516          21
 orthch                                  0.011072           1
 brmix                                   0.008901          21
 choleski                                0.008657          56
 force_and_stress                        0.008278           1
 setg0                                   0.007303          23
 strnlr                                  0.006962           1
 inisym                                  0.004720           1
 truncate_high_frequency_w1              0.004352       55208
 map_backward                            0.004301         942
 map_forward                             0.004242         868
 brget                                   0.003056        1233
 fornlr                                  0.002375           1
 pothar                                  0.002036          24
 stufak                                  0.001446           1
 forhar                                  0.000916           2
 strelo                                  0.000911           1
 brsav                                   0.000814         319
 strehar                                 0.000622           1
 fftbrc_mpi                              0.000512         905
 forloc                                  0.000511           1
 brpre                                   0.000366          42
 fft_gq                                  0.000363          21
 fewald                                  0.000326           1
 chggra                                  0.000217           1
 strkin                                  0.000212           1
 set_dd_magatom                          0.000101          23
 vectorpot                               0.000096          22
 brgrid                                  0.000090           1
 fordep                                  0.000051           1
 rsp                                     0.000049           1
 posmap                                  0.000035           2
 crpa_reader                             0.000029           1
 acc_cufft_makeplans                     0.000014           3
 rcp                                     0.000011           1
 potlok_metagga                          0.000005          22
 rotate_active_occupied_orbital          0.000000           1
 redis_pw_over_bands                     0.000000           1
  summed up times     108.2244608402252

 Accumulative profile

 total_time                            108.224461           1
 elmin                                  76.280114           1
 eddav                                  49.758327          25
 set_dd_paw                             21.650030          23
 m_sumb_d                               16.138264       69405
 init_acc                               10.975995           1
 lapack                                 10.405607       22004
 hamiltmu                                8.656104       22004
 raccmu_                                 7.299434       22004
 redis_pw                                5.085742      123736
 densta                                  4.543467          26
 force_and_stress                        4.495419           1
 acc_init_cublas                         3.847624           1
 setdij_                                 3.826573          49
 set_charge                              2.906268          21
 phaser                                  2.592733        1764
 newband                                 2.385367       23404
 m_alltoall_d                            2.371464      321496
 redis_proj                              2.302287      156600
 fft3d_mpi                               1.938243       44913
 augmentation_charge                     1.718645          22
 fftwav_mpi                              1.695513       89828
 fftwav                                  1.574947       89828
 fftbrc_mpi                              1.458546         905
 fftbas_plan_mpi                         1.458034         905
 acc_init_cusolver                       1.195531           1
 strnlr                                  1.035596           1
 soft_charge                             1.013365          21
 fft3d                                   1.002681      133836
 eccp                                    0.950636       11200
 dfftw_execute                           0.834819         924
 rpro_isp                                0.802148         364
 orth1                                   0.740722       66068
 kinhamil                                0.718624       44008
 rpromu_acc                              0.713678       17860
 racc0mu_acc                             0.647758       22004
 overl                                   0.645576       76872
 w1_copy                                 0.644130      132024
 fftext_mpi                              0.516887       44008
 w1_projall                              0.492445       16404
 m_bcast_z                               0.476501       23796
 fordep                                  0.470433           1
 orthch                                  0.426171           1
 setup_precond                           0.407407       11200
 m_bcast_d                               0.369413       44059
 map_forward                             0.360719         868
 fornlr                                  0.344516           1
 overl_mu                                0.338052       22004
 m_alltoallv_z                           0.328033         993
 acc_cufft_makeplans                     0.319807           3
 acc_cufft_makeplan                      0.319793          19
 ggemm                                   0.291444       27604
 potlok                                  0.284685          23
 map_backward                            0.203883         942
 vhamil                                  0.200490       44008
 apply_precond                           0.179382       32808
 pw_charge                               0.172854        7188
 depsum                                  0.155417          21
 map_scatter                             0.123140         993
 rspher_all                              0.110370          14
 proall                                  0.108960           1
 map_gather                              0.104887         993
 lincom                                  0.046888        1456
 brmix                                   0.035259          21
 sphpro_fast                             0.033162           2
 broyd                                   0.017960          21
 fft_gq                                  0.016534          21
 choleski                                0.008657          56
 setg0                                   0.007303          23
 inisym                                  0.004755           1
 truncate_high_frequency_w1              0.004352       55208
 brget                                   0.003056        1233
 pothar                                  0.002275          24
 stufak                                  0.001446           1
 forhar                                  0.000929           2
 strelo                                  0.000919           1
 brsav                                   0.000814         319
 strehar                                 0.000714           1
 chggra                                  0.000704           1
 forloc                                  0.000556           1
 fewald                                  0.000436           1
 brpre                                   0.000366          42
 strkin                                  0.000225           1
 set_dd_magatom                          0.000101          23
 vectorpot                               0.000096          22
 brgrid                                  0.000090           1
 rsp                                     0.000049           1
 posmap                                  0.000035           2
 crpa_reader                             0.000029           1
 rcp                                     0.000011           1
 potlok_metagga                          0.000005          22
 rotate_active_occupied_orbital          0.000000           1
 redis_pw_over_bands                     0.000000           1

Profiling took   0.282339  0.139107  0.003202  0.003135 seconds
Profiling took   0.175612 seconds