 vasp.6.3.2 27Jun22 (build Jul  3 2023 11:46:21) complex
 executed on    LinuxNV_CrayMPICH date 2024.04.22  03:39:11

 INCAR:
   ADDGRID = True
   ALGO = Normal
   EDIFF = 0.0023
   ENCUT = 520.0
   IBRION = -1
   ICHARG = 0
   ISIF = 3
   ISMEAR = 0
   ISPIN = 2
   KPOINT_BSE = -1 0 0 0
   LAECHG = True
   LASPH = True
   LCHARG = True
   LELF = True
   LORBIT = 11
   LREAL = Auto
   LVHAR = True
   LWAVE = False
   MAGMOM = 2*7.0 40*0.6 4*5.0
   NELM = 1000
   NSW = 0
   PREC = accurate
   SIGMA = 0.05

 POTCAR:    PAW_PBE Gd 23Dec2003
 POTCAR:    PAW_PBE Zn 06Sep2000
 POTCAR:    PAW_PBE Co 02Aug2007
 POTCAR:    PAW_PBE Gd 23Dec2003
   VRHFIN =Gd : [core=Xe4]

   TITEL  = PAW_PBE Gd 23Dec2003
   POMASS =  157.250; ZVAL   =   18.000    mass and valenz
   ENMAX  =  256.472; ENMIN  =  192.354 eV

   TITEL  = PAW_PBE Zn 06Sep2000
   POMASS =   65.390; ZVAL   =   12.000    mass and valenz
   ENMAX  =  276.723; ENMIN  =  207.542 eV

   TITEL  = PAW_PBE Co 02Aug2007
   POMASS =   58.933; ZVAL   =    9.000    mass and valenz
   ENMAX  =  267.968; ENMIN  =  200.976 eV

 Optimization of the real space projectors (new method)

 maximal supplied QI-value         = 13.42
 optimisation between [QCUT,QGAM] = [ 11.67, 23.35] = [ 38.16,152.62] Ry
 Optimized for a Real-space Cutoff    1.63 Angstroem

   l    n(q)    QCUT    max X(q) W(low)/X(q) W(high)/X(q)  e(spline)
   0     11    11.673    10.501    0.14E-04    0.17E-05    0.21E-07
   0     11    11.673     9.148    0.21E-04    0.32E-05    0.45E-07
   1     11    11.673     4.035    0.33E-05    0.11E-04    0.84E-07
   1     11    11.673     4.388    0.11E-04    0.47E-04    0.34E-06
   2     10    11.673    20.656    0.12E-04    0.28E-04    0.54E-06
   2     10    11.673    12.651    0.11E-04    0.26E-04    0.51E-06
   3     10    11.673    61.921    0.19E-03    0.22E-03    0.23E-06
   3     10    11.673    48.328    0.20E-03    0.23E-03    0.23E-06
 Optimization of the real space projectors (new method)

[...]

   l    n(q)    QCUT    max X(q) W(low)/X(q) W(high)/X(q)  e(spline)
   2      9    11.539    46.356    0.17E-03    0.92E-04    0.19E-06
   2      9    11.539    41.843    0.18E-03    0.96E-04    0.20E-06
   0     10    11.539    48.958    0.57E-04    0.27E-04    0.28E-06
   0     10    11.539    32.776    0.51E-04    0.25E-04    0.27E-06
   1     10    11.539    17.787    0.55E-04    0.96E-04    0.11E-06
   1     10    11.539    14.435    0.48E-04    0.86E-04    0.10E-06
 Optimization of the real space projectors (new method)

 maximal supplied QI-value         = 16.25
 optimisation between [QCUT,QGAM] = [ 11.54, 23.24] = [ 37.28,151.24] Ry
 Optimized for a Real-space Cutoff    1.45 Angstroem

   l    n(q)    QCUT    max X(q) W(low)/X(q) W(high)/X(q)  e(spline)
   2      9    11.539    65.824    0.19E-03    0.47E-04    0.16E-06
   2      9    11.539    61.429    0.20E-03    0.48E-04    0.16E-06
   0     10    11.539    56.174    0.76E-04    0.45E-04    0.23E-06
   0     10    11.539    31.263    0.69E-04    0.41E-04    0.21E-06
   1     10    11.539    19.828    0.78E-04    0.14E-03    0.70E-07
   1     10    11.539    15.139    0.65E-04    0.12E-03    0.64E-07
  PAW_PBE Gd 23Dec2003                  :
  PAW_PBE Zn 06Sep2000                  :
  PAW_PBE Co 02Aug2007                  :

 POSCAR: Gd2 Zn40 Co4
  positions in direct lattice
 exchange correlation table for  LEXCH =        8
   RHO(1)=    0.500       N(1)  =     2000
   RHO(2)=  100.500       N(2)  =     4000

 VTST: version 4.2, (08/11/21)

 CHAIN: initializing optimizer

 OPT: Using VASP Dynamics algorithm
 CHAIN: Read ICHAIN             0

 POSCAR: Gd2 Zn40 Co4
  positions in direct lattice

 ion  position               nearest neighbor table
   1  0.500  0.500  0.500-  40 3.04  41 3.04  42 3.04  39 3.04   8 3.11  13 3.11   4 3.11  12 3.11
                             5 3.11   9 3.11  10 3.11  14 3.11   6 3.11   3 3.11  11 3.11   7 3.11
   2  0.750  0.750  0.750-  40 3.04  41 3.04  42 3.04  39 3.04  20 3.11  25 3.11  16 3.11  24 3.11
                            17 3.11  21 3.11  22 3.11  26 3.11  18 3.11  15 3.11  23 3.11  19 3.11
   3  0.569  0.299  0.299-   6 2.63  32 2.64  11 2.68   7 2.68  43 2.71  35 2.76  33 2.76  20 2.82
                            25 2.82  41 3.01  40 3.01   1 3.11
   4  0.299  0.569  0.833-   5 2.63  31 2.64  13 2.68  10 2.68  44 2.71  36 2.76  33 2.76  23 2.82
                            21 2.82  39 3.01  42 3.01   1 3.11
   5  0.299  0.833  0.569-   4 2.63  31 2.64  14 2.68   8 2.68  45 2.71  34 2.76  35 2.76  19 2.82
                            24 2.82  39 3.01  42 3.01   1 3.11
   6  0.833  0.299  0.299-   3 2.63  32 2.64  12 2.68   9 2.68  46 2.71  36 2.76  34 2.76  26 2.82
                            22 2.82  41 3.01  40 3.01   1 3.11
   7  0.299  0.299  0.569-  10 2.63  28 2.64  11 2.68   3 2.68  45 2.71  37 2.76  35 2.76  17 2.82
                            24 2.82  40 3.01  39 3.01   1 3.11
   8  0.569  0.833  0.299-   9 2.63  27 2.64  14 2.68   5 2.68  43 2.71  38 2.76  35 2.76  15 2.82
                            25 2.82  41 3.01  42 3.01   1 3.11
   9  0.833  0.569  0.299-   8 2.63  27 2.64  12 2.68   6 2.68  44 2.71  36 2.76  37 2.76  23 2.82
                            16 2.82  41 3.01  42 3.01   1 3.11
  10  0.299  0.299  0.833-   7 2.63  28 2.64  13 2.68   4 2.68  46 2.71  38 2.76  36 2.76  18 2.82
                            26 2.82  40 3.01  39 3.01   1 3.11
  11  0.299  0.569  0.299-  14 2.63  30 2.64   3 2.68   7 2.68  44 2.71  37 2.76  33 2.76  21 2.82
                            16 2.82  41 3.01  39 3.01   1 3.11
  12  0.833  0.299  0.569-  13 2.63  29 2.64   6 2.68   9 2.68  45 2.71  34 2.76  37 2.76  19 2.82
                            17 2.82  40 3.01  42 3.01   1 3.11
  13  0.569  0.299  0.833-  12 2.63  29 2.64   4 2.68  10 2.68  43 2.71  38 2.76  33 2.76  15 2.82
                            20 2.82  40 3.01  42 3.01   1 3.11
  14  0.299  0.833  0.299-  11 2.63  30 2.64   5 2.68   8 2.68  46 2.71  38 2.76  34 2.76  18 2.82
                            22 2.82  41 3.01  39 3.01   1 3.11
  15  0.681  0.951  0.951-  18 2.63  38 2.64  23 2.68  19 2.68  43 2.71  27 2.76  29 2.76   8 2.82
                            13 2.82  41 3.01  40 3.01   2 3.11
  16  0.951  0.681  0.417-  17 2.63  37 2.64  25 2.68  22 2.68  44 2.71  30 2.76  27 2.76  11 2.82
                             9 2.82  39 3.01  42 3.01   2 3.11
  17  0.951  0.417  0.681-  16 2.63  37 2.64  26 2.68  20 2.68  45 2.71  28 2.76  29 2.76   7 2.82
                            12 2.82  39 3.01  42 3.01   2 3.11
  18  0.417  0.951  0.951-  15 2.63  38 2.64  24 2.68  21 2.68  46 2.71  28 2.76  30 2.76  14 2.82
                            10 2.82  41 3.01  40 3.01   2 3.11
  19  0.951  0.951  0.681-  22 2.63  34 2.64  23 2.68  15 2.68  45 2.71  29 2.76  31 2.76  12 2.82
                             5 2.82  40 3.01  39 3.01   2 3.11
  20  0.681  0.417  0.951-  21 2.63  33 2.64  26 2.68  17 2.68  43 2.71  32 2.76  29 2.76   3 2.82
                            13 2.82  41 3.01  42 3.01   2 3.11
  21  0.417  0.681  0.951-  20 2.63  33 2.64  24 2.68  18 2.68  44 2.71  30 2.76  31 2.76  11 2.82
                             4 2.82  41 3.01  42 3.01   2 3.11
  22  0.951  0.951  0.417-  19 2.63  34 2.64  25 2.68  16 2.68  46 2.71  30 2.76  32 2.76  14 2.82
                             6 2.82  40 3.01  39 3.01   2 3.11
  23  0.951  0.681  0.951-  26 2.63  36 2.64  15 2.68  19 2.68  44 2.71  27 2.76  31 2.76   9 2.82
                             4 2.82  41 3.01  39 3.01   2 3.11
  24  0.417  0.951  0.681-  25 2.63  35 2.64  18 2.68  21 2.68  45 2.71  28 2.76  31 2.76   7 2.82
                             5 2.82  40 3.01  42 3.01   2 3.11
  25  0.681  0.951  0.417-  24 2.63  35 2.64  16 2.68  22 2.68  43 2.71  32 2.76  27 2.76   3 2.82
                             8 2.82  40 3.01  42 3.01   2 3.11
  26  0.951  0.417  0.951-  23 2.63  36 2.64  17 2.68  20 2.68  46 2.71  28 2.76  32 2.76   6 2.82
                            10 2.82  41 3.01  39 3.01   2 3.11
  27  0.864  0.864  0.136-  43 2.49  44 2.49   8 2.64   9 2.64  31 2.70  32 2.70  29 2.70  30 2.70
                            15 2.76  23 2.76  16 2.76  25 2.76
  28  0.136  0.136  0.864-  45 2.49  46 2.49  10 2.64   7 2.64  31 2.70  32 2.70  29 2.70  30 2.70
                            17 2.76  24 2.76  18 2.76  26 2.76
  29  0.864  0.136  0.864-  43 2.49  45 2.49  13 2.64  12 2.64  31 2.70  32 2.70  27 2.70  28 2.70
                            15 2.76  19 2.76  17 2.76  20 2.76
  30  0.136  0.864  0.136-  44 2.49  46 2.49  14 2.64  11 2.64  31 2.70  32 2.70  27 2.70  28 2.70
                            16 2.76  21 2.76  18 2.76  22 2.76
  31  0.136  0.864  0.864-  44 2.49  45 2.49   4 2.64   5 2.64  29 2.70  30 2.70  27 2.70  28 2.70
                            19 2.76  23 2.76  21 2.76  24 2.76
  32  0.864  0.136  0.136-  43 2.49  46 2.49   6 2.64   3 2.64  29 2.70  30 2.70  27 2.70  28 2.70
                            20 2.76  25 2.76  22 2.76  26 2.76
  33  0.386  0.386  0.114-  43 2.49  44 2.49  20 2.64  21 2.64  37 2.70  38 2.70  35 2.70  36 2.70
                             3 2.76  11 2.76   4 2.76  13 2.76
  34  0.114  0.114  0.386-  45 2.49  46 2.49  22 2.64  19 2.64  37 2.70  38 2.70  35 2.70  36 2.70
                             5 2.76  12 2.76   6 2.76  14 2.76
  35  0.386  0.114  0.386-  43 2.49  45 2.49  25 2.64  24 2.64  37 2.70  38 2.70  33 2.70  34 2.70
                             3 2.76   7 2.76   5 2.76   8 2.76
  36  0.114  0.386  0.114-  44 2.49  46 2.49  26 2.64  23 2.64  37 2.70  38 2.70  33 2.70  34 2.70
                             4 2.76   9 2.76   6 2.76  10 2.76
  37  0.114  0.386  0.386-  44 2.49  45 2.49  16 2.64  17 2.64  35 2.70  36 2.70  33 2.70  34 2.70
                             7 2.76  11 2.76   9 2.76  12 2.76
  38  0.386  0.114  0.114-  43 2.49  46 2.49  18 2.64  15 2.64  35 2.70  36 2.70  33 2.70  34 2.70
                             8 2.76  13 2.76  10 2.76  14 2.76
  39  0.125  0.625  0.625-   4 3.01   5 3.01  16 3.01  17 3.01  10 3.01  14 3.01  22 3.01  26 3.01
                            19 3.01  11 3.01  23 3.01   7 3.01   1 3.04   2 3.04
  40  0.625  0.125  0.625-  12 3.01  13 3.01  24 3.01  25 3.01  18 3.01  22 3.01   6 3.01  10 3.01
                            19 3.01   7 3.01  15 3.01   3 3.01   1 3.04   2 3.04
  41  0.625  0.625  0.125-   8 3.01   9 3.01  20 3.01  21 3.01  18 3.01   6 3.01  14 3.01  26 3.01
                             3 3.01  15 3.01  23 3.01  11 3.01   1 3.04   2 3.04
  42  0.625  0.625  0.625-   4 3.01   5 3.01   8 3.01   9 3.01  12 3.01  13 3.01  16 3.01  17 3.01
                            20 3.01  21 3.01  24 3.01  25 3.01   1 3.04   2 3.04
  43  0.625  0.125  0.125-  27 2.49  29 2.49  32 2.49  33 2.49  35 2.49  38 2.49   3 2.71  15 2.71
                            13 2.71  25 2.71  20 2.71   8 2.71
  44  0.125  0.625  0.125-  27 2.49  30 2.49  31 2.49  33 2.49  36 2.49  37 2.49  11 2.71  23 2.71
                            21 2.71   9 2.71   4 2.71  16 2.71
  45  0.125  0.125  0.625-  28 2.49  29 2.49  31 2.49  34 2.49  35 2.49  37 2.49   7 2.71  19 2.71
                             5 2.71  24 2.71  12 2.71  17 2.71
[...]
  320                  map_gather                            0.000066                  2   8
  321                  m_alltoallv_z                         0.000029                  2   8
  322                  map_scatter                           0.000261                  2   8
  323                map_backward                          0.000147                    2   7
  324                  map_gather                            0.000034                  1   8
  325                  m_alltoallv_z                         0.000012                  1   8
  326                  map_scatter                           0.000078                  1   8
  327          m_sumb_d                              0.000009                          2   4
  328          pothar                                0.000126                          1   4
  329            m_sumb_d                              0.000034                        1   5
  330        brmix                                 0.025107                            1   3
  331          m_sumb_d                              0.000056                          6   4
  332          brpre                                 0.000075                          2   4
  333          setg0                                 0.003548                          1   4
  334          broyd                                 0.017034                          1   4
  335            m_sumb_d                              0.001091                       50   5
  336            brget                                 0.003487                      224   5
  337            brsav                                 0.000737                       48   5
  338        m_bcast_d                             0.000137                            2   3
  339      potlok                                0.113051                              2   2
  340        fft3d_mpi                             0.072621                           36   3
  341          fftbrc_mpi                            0.059864                         36   4
  342            fftbas_plan_mpi                       0.059844                       36   5
  343              map_forward                           0.016683                     40   6
  344                map_gather                            0.004442                   24   7
  345                m_alltoallv_z                         0.007096                   24   7
  346                map_scatter                           0.004887                   24   7
  347              map_backward                          0.014299                     32   6
  348                map_gather                            0.003190                   16   7
  349                m_alltoallv_z                         0.006672                   16   7
  350                map_scatter                           0.004177                   16   7
  351              dfftw_execute                         0.026813                     30   6
  352        m_sumb_d                              0.000028                            5   3
  353        pothar                                0.005076                            2   3
  354          m_sumb_d                              0.000099                          2   4
  355        m_bcast_d                             0.008528                            4   3
  356      potlok_metagga                        0.000001                              1   2
  357      set_dd_magatom                        0.000004                              1   2
  358      set_dd_paw                            6.125298                              1   2
  359        m_sumb_d                              0.999493                            7   3
  360      augmentation_charge                   0.493314                              1   2
  361        fft3d_mpi                             0.183011                            2   3
  362          fftbrc_mpi                            0.154083                          2   4
  363            fftbas_plan_mpi                       0.154079                        2   5
  364              dfftw_execute                         0.087408                      6   6
  365              map_backward                          0.066456                      4   6
  366                map_gather                            0.024965                    2   7
  367                m_alltoallv_z                         0.014340                    2   7
  368                map_scatter                           0.027138                    2   7
  369      fftwav_mpi                            7.364100                           2160   2
  370        fftwav                                7.361223                         2160   3
  371          fft3d                                 6.830251                       2160   4
  372      densta                                0.007557                              1   2
  373        m_sumb_d                              0.002482                           40   3

 Flat profile

 set_dd_paw                            337.426409          66
 m_sumb_d                               83.141937      249807
 raccmu_                                57.808469       80034
 eddav                                  52.137943          68
 total_time                             36.025140           1
 lapack                                 35.060253       80034
 setdij_                                26.297292          92
 augmentation_charge                    20.313158          66
 redis_pw                               19.647670      432348
 dfftw_execute                          17.549460        2028
 init_acc                               12.479853           1
 fft3d                                  12.125622      479314
 phaser                                  9.795450         596
 m_alltoall_d                            8.571698     1173036
 eccp                                    6.377993       48960
 fft3d_mpi                               4.978980      162459
 orth1                                   4.429860      240198
 map_scatter                             4.344608        2673
 fftwav                                  4.019907      319246
 hamiltmu                                3.862401       80034
 map_gather                              3.843360        2673
 acc_init_cublas                         3.786490           1
 redis_proj                              3.676286      543464
 m_alltoallv_z                           3.478042        2673
 rpromu_acc                              2.835053       57946
 set_charge                              2.823151          65
 racc0mu_acc                             2.366060       80034
 w1_copy                                 2.356238      480204
 overl                                   2.290284      271184
 m_bcast_z                               2.225465       82914
 soft_charge                             1.924249          65
 setup_precond                           1.811894       48960
 pw_charge                               1.802793       36550
 ggemm                                   1.705184      104514
 m_bcast_d                               1.331199      160205
 overl_mu                                1.263408       80034
 rspher_all                              1.055722          14
 acc_init_cusolver                       1.017289           1
 depsum                                  0.779839          65
 vhamil                                  0.751440      160068
 newband                                 0.741613       80578
 kinhamil                                0.738277      160068
 potlok                                  0.734571          66
 fftext_mpi                              0.696435      160068
 apply_precond                           0.616895      111108
 rpro_isp                                0.545681          52
 broyd                                   0.429994          64
 fftwav_mpi                              0.413210      319246
 brmix                                   0.337725          64
 sphpro_fast                             0.267475           2
 setg0                                   0.233977          66
 elmin                                   0.225547           1
 brget                                   0.156132        9968
 fftbas_plan_mpi                         0.148875        2391
 acc_cufft_makeplan                      0.113715          19
 proall                                  0.104769           1
 stufak                                  0.069502           1
 w1_projall                              0.054427       55554
 brsav                                   0.040046        2586
 densta                                  0.039723          69
 orthch                                  0.037131           1
 force_and_stress                        0.036819           1
 lincom                                  0.025462         552
 fft_gq                                  0.019547          65
 map_backward                            0.018925        2510
 map_forward                             0.017418        2272
 choleski                                0.017209           8
 truncate_high_frequency_w1              0.016716      209028
 pothar                                  0.011885          67
 forhar                                  0.007827           2
 inisym                                  0.006563           1
 strelo                                  0.005619           1
 brpre                                   0.005087         128
 strehar                                 0.004722           1
 forloc                                  0.003993           1
 strnlr                                  0.003954           1
 rsp                                     0.002848           1
 strkin                                  0.002000           1
 fftbrc_mpi                              0.001606        2391
 fornlr                                  0.001347           1
 brgrid                                  0.000591           1
 posmap                                  0.000590           2
 fewald                                  0.000345           1
 chggra                                  0.000320           1
 set_dd_magatom                          0.000313          66
 fordep                                  0.000296           1
 vectorpot                               0.000274          65
 rcp                                     0.000089           1
 crpa_reader                             0.000026           1
 acc_cufft_makeplans                     0.000014           3
 potlok_metagga                          0.000012          65
 rotate_active_occupied_orbital          0.000000           1
 redis_pw_over_bands                     0.000000           1
  summed up times     806.4756839275360

 Accumulative profile

 total_time                            806.475684           1
 elmin                                 708.245595           1
 set_dd_paw                            399.632113          66
 eddav                                 244.513092          68
 m_sumb_d                               83.141937      249807
 hamiltmu                               68.680607       80034
 raccmu_                                61.437938       80034
 setdij_                                46.309139          92
 set_charge                             44.563509          65
 fft3d_mpi                              35.527366      162459
 lapack                                 35.060253       80034
 augmentation_charge                    32.726997          66
 fftbrc_mpi                             29.402295        2391
 fftbas_plan_mpi                        29.400689        2391
 redis_pw                               24.084337      432348
 force_and_stress                       23.620743           1
 dfftw_execute                          17.549460        2028
 fftwav_mpi                             15.412647      319246
 fftwav                                 14.999437      319246
 newband                                12.852614       80578
 init_acc                               12.479853           1
 fft3d                                  12.125622      479314
 phaser                                  9.795450         596
 m_alltoall_d                            8.571698     1173036
 soft_charge                             8.092194          65
 redis_proj                              7.811316      543464
 eccp                                    6.377993       48960
 map_backward                            5.911659        2510
 map_forward                             5.790695        2272
 orth1                                   4.429860      240198
 map_scatter                             4.344608        2673
 map_gather                              3.843360        2673
 acc_init_cublas                         3.786490           1
 m_alltoallv_z                           3.478042        2673
 fordep                                  3.003112           1
 rpromu_acc                              2.835053       57946
 strnlr                                  2.833169           1
 kinhamil                                2.628829      160068
 racc0mu_acc                             2.366060       80034
 w1_copy                                 2.356238      480204
 overl                                   2.290284      271184
 m_bcast_z                               2.225465       82914
 rpro_isp                                2.089812          52
 fftext_mpi                              1.890552      160068
 setup_precond                           1.811894       48960
 pw_charge                               1.802793       36550
 ggemm                                   1.705184      104514
 w1_projall                              1.686978       55554
 potlok                                  1.394813          66
 m_bcast_d                               1.331199      160205
 brmix                                   1.288573          64
 overl_mu                                1.263408       80034
 rspher_all                              1.055722          14
 acc_init_cusolver                       1.017289           1
 fornlr                                  0.946984           1
 depsum                                  0.878827          65
 vhamil                                  0.751440      160068
 broyd                                   0.703898          64
 apply_precond                           0.616895      111108
 fft_gq                                  0.573196          65
 orthch                                  0.434316           1
 sphpro_fast                             0.279090           2
 proall                                  0.249384           1
 setg0                                   0.233977          66
 brget                                   0.156132        9968
 acc_cufft_makeplans                     0.113729           3
 acc_cufft_makeplan                      0.113715          19
 stufak                                  0.069502           1
 densta                                  0.056339          69
 brsav                                   0.040046        2586
 lincom                                  0.025462         552
 choleski                                0.017209           8
 truncate_high_frequency_w1              0.016716      209028
 pothar                                  0.012926          67
 forhar                                  0.007894           2
 inisym                                  0.007153           1
 strelo                                  0.005901           1
 brpre                                   0.005087         128
 forloc                                  0.004986           1
 strehar                                 0.004743           1
 fewald                                  0.003391           1
 rsp                                     0.002848           1
 strkin                                  0.002008           1
 chggra                                  0.001240           1
 brgrid                                  0.000591           1
 posmap                                  0.000590           2
 set_dd_magatom                          0.000313          66
 vectorpot                               0.000274          65
 rcp                                     0.000089           1
 crpa_reader                             0.000026           1
 potlok_metagga                          0.000012          65
 rotate_active_occupied_orbital          0.000000           1
 redis_pw_over_bands                     0.000000           1

Profiling took   1.007473  0.480497  0.003265  0.003147 seconds
Profiling took   0.637863 seconds