 vasp.6.3.2 27Jun22 (build Jul  3 2023 11:46:21) complex
 executed on    LinuxNV_CrayMPICH date 2024.04.21  22:25:38

 INCAR:
   ALGO = All
   EDIFF = 1e-05
   ENCUT = 520.0
   IBRION = -1
   ISIF = 3
   ISMEAR = -5
   ISPIN = 2
   LAECHG = True
   LASPH = True
   LCHARG = True
   LORBIT = 11
   LREAL = Auto
   LVHAR = True
   LWAVE = False
   MAGMOM = 1*7.0 12*5.0
   NELM = 1000
   NSW = 0
   PREC = Accurate
   SIGMA = 0.05

 POTCAR:    PAW_PBE Gd 23Dec2003
 POTCAR:    PAW_PBE Cr_pv 02Aug2007
 POTCAR:    PAW_PBE Fe_pv 02Aug2007
 POTCAR:    PAW_PBE Gd 23Dec2003
   VRHFIN =Gd : [core=Xe4]

   TITEL  = PAW_PBE Gd 23Dec2003
   POMASS =  157.250; ZVAL   =   18.000    mass and valenz
   ENMAX  =  256.472; ENMIN  =  192.354 eV

   TITEL  = PAW_PBE Cr_pv 02Aug2007
   POMASS =   51.996; ZVAL   =   12.000    mass and valenz
   ENMAX  =  265.681; ENMIN  =  199.261 eV

   TITEL  = PAW_PBE Fe_pv 02Aug2007
   POMASS =   55.847; ZVAL   =   14.000    mass and valenz
   ENMAX  =  293.238; ENMIN  =  219.928 eV

 Optimization of the real space projectors (new method)

 maximal supplied QI-value         = 13.42
 optimisation between [QCUT,QGAM] = [ 11.67, 23.35] = [ 38.16,152.62] Ry
 Optimized for a Real-space Cutoff    1.63 Angstroem

   l    n(q)    QCUT    max X(q) W(low)/X(q) W(high)/X(q)  e(spline)
   0     11    11.673    10.501    0.14E-04    0.17E-05    0.21E-07
   0     11    11.673     9.148    0.21E-04    0.32E-05    0.45E-07
   1     11    11.673     4.035    0.33E-05    0.11E-04    0.84E-07
   1     11    11.673     4.388    0.11E-04    0.47E-04    0.34E-06
   2     10    11.673    20.656    0.12E-04    0.28E-04    0.54E-06
   2     10    11.673    12.651    0.11E-04    0.26E-04    0.51E-06
   3     10    11.673    61.921    0.19E-03    0.22E-03    0.23E-06
   3     10    11.673    48.328    0.20E-03    0.23E-03    0.23E-06
 Optimization of the real space projectors (new method)

[...]

   l    n(q)    QCUT    max X(q) W(low)/X(q) W(high)/X(q)  e(spline)
   1      9    11.539     3.262    0.69E-04    0.25E-03    0.10E-06
   1      9    11.539     5.741    0.20E-03    0.59E-03    0.25E-06
   2      8    11.539    60.438    0.24E-03    0.41E-03    0.22E-06
   2      8    11.539    55.380    0.24E-03    0.42E-03    0.23E-06
   0      9    11.539    80.273    0.11E-03    0.13E-03    0.76E-07
   0      9    11.539    36.654    0.95E-04    0.12E-03    0.68E-07
 Optimization of the real space projectors (new method)

 maximal supplied QI-value         = 17.01
 optimisation between [QCUT,QGAM] = [ 11.57, 23.30] = [ 37.45,152.03] Ry
 Optimized for a Real-space Cutoff    1.45 Angstroem

   l    n(q)    QCUT    max X(q) W(low)/X(q) W(high)/X(q)  e(spline)
   1     10    11.565     4.267    0.91E-04    0.15E-03    0.13E-06
   1     10    11.565     5.750    0.14E-03    0.22E-03    0.20E-06
   2      9    11.565    53.656    0.13E-03    0.57E-04    0.16E-06
   2      9    11.565    49.521    0.13E-03    0.59E-04    0.16E-06
   0     10    11.565    31.246    0.61E-04    0.74E-05    0.89E-07
   0     10    11.565    12.201    0.44E-04    0.68E-05    0.74E-07
  PAW_PBE Gd 23Dec2003                  :
  PAW_PBE Cr_pv 02Aug2007               :
  PAW_PBE Fe_pv 02Aug2007               :

 POSCAR: Gd1 Cr2 Fe10
  positions in direct lattice
 exchange correlation table for  LEXCH =        8
   RHO(1)=    0.500       N(1)  =     2000
   RHO(2)=  100.500       N(2)  =     4000

 VTST: version 4.2, (08/11/21)

 CHAIN: initializing optimizer

 OPT: Using VASP Dynamics algorithm
 CHAIN: Read ICHAIN             0

 POSCAR: Gd1 Cr2 Fe10
  positions in direct lattice

 ion  position               nearest neighbor table
   1  1.000  0.000  1.000-   5 3.02   4 3.02  12 3.02  13 3.02   5 3.02   4 3.03   6 3.04   7 3.04
                             6 3.04   7 3.04   2 3.10   3 3.10
   2  0.000  0.367  0.367-   3 2.25   4 2.57   5 2.57   9 2.60   8 2.61  11 2.61  10 2.61   7 2.62
                             7 2.62  13 2.86  12 2.86  13 2.86  12 2.87   1 3.10
   3  0.000  0.633  0.633-   2 2.25   5 2.57   4 2.57   9 2.60   8 2.61  11 2.61  10 2.61   6 2.62
                             6 2.62  12 2.86  13 2.86  12 2.86  13 2.87   1 3.10
   4  0.726  0.774  0.226-  10 2.42   9 2.42  11 2.42   8 2.43   2 2.57   3 2.57  13 2.59  13 2.60
                             7 2.71   6 2.72   1 3.02   1 3.03
   5  0.274  0.226  0.774-  10 2.42   9 2.42   8 2.42  11 2.42   3 2.57   2 2.57  12 2.59  12 2.60
                             6 2.71   7 2.72   1 3.02   1 3.02
   6  0.500  0.771  0.771-  10 2.42   8 2.42   9 2.42  11 2.42  12 2.58  13 2.59   3 2.62   3 2.62
                             5 2.71   4 2.72   1 3.04   1 3.04
   7  0.500  0.229  0.229-  10 2.42   8 2.42  11 2.42   9 2.42  13 2.58  12 2.59   2 2.62   2 2.62
                             4 2.71   5 2.72   1 3.04   1 3.04
   8  0.500  0.000  0.500-   9 2.34   9 2.34   6 2.42   7 2.42   5 2.42   4 2.43  12 2.58  13 2.58
                             2 2.61   3 2.61
   9  0.000  0.000  0.500-   8 2.34   8 2.34   6 2.42   7 2.42   5 2.42   4 2.42  12 2.58  13 2.58
                             2 2.60   3 2.60
  10  0.500  0.500  1.000-  11 2.34  11 2.34   7 2.42   6 2.42   5 2.42   4 2.42  12 2.58  13 2.59
                             3 2.61   2 2.61
  11  1.000  0.500  1.000-  10 2.34  10 2.34   7 2.42   6 2.42   5 2.42   4 2.42  12 2.58  13 2.59
                             3 2.61   2 2.61
  12  0.642  0.358  0.642-  13 2.39   8 2.58   6 2.58   9 2.58  11 2.58  10 2.58   7 2.59   5 2.59
                             5 2.60   3 2.86   2 2.86   3 2.86   2 2.87   1 3.02
  13  0.358  0.642  0.358-  12 2.39   8 2.58   7 2.58   9 2.58  11 2.59  10 2.59   6 2.59   4 2.59
                             4 2.60   2 2.86   3 2.86   2 2.86   3 2.87   1 3.02

  LATTYP: Found a triclinic cell.
 ALAT       =     6.4188807036
 B/A-ratio  =     1.3164803550
 C/A-ratio  =     0.7303167130
 COS(alpha) =     0.0004317624
 COS(beta)  =     0.3637742510
 COS(gamma) =     0.6607052013

  Lattice vectors:

 A1 = (  -4.2330320000,  -4.2202310000,  -2.3394700000)
 A2 = (  -8.4503170000,  -0.0149010000,  -0.0018810000)
 A3 = (  -0.0009910000,   0.0059310000,  -4.6878120000)

Analysis of symmetry for initial positions (statically):
 Subroutine PRICEL returns:
 Original cell was already a primitive cell.

 Routine SETGRP: Setting up the symmetry group for a
 triclinic supercell.

 Subroutine GETGRP returns: Found  1 space group operations
 (whereof  1 operations were pure point group operations)
 out of a pool of  2 trial point group operations.

The static configuration has the point symmetry C_1 .

Analysis of symmetry for dynamics (positions and initial velocities):
 Subroutine PRICEL returns:
 Original cell was already a primitive cell.

[...]

The dynamic configuration has the point symmetry C_1 .

Analysis of structural, dynamic, and magnetic symmetry:
 Subroutine PRICEL returns:
 Original cell was already a primitive cell.

 Routine SETGRP: Setting up the symmetry group for a
 triclinic supercell.

 Subroutine GETGRP returns: Found  1 space group operations
 (whereof  1 operations were pure point group operations)
 out of a pool of  2 trial point group operations.

The overall configuration has the point symmetry C_1 .

 Subroutine INISYM returns: Found  1 space group operations
 (whereof  1 operations are pure point group operations),
 and found     1 'primitive' translations

                                     Primitive cell

  volume of cell :     166.9997

  direct lattice vectors                    reciprocal lattice vectors
     0.000991000 -0.005931000  4.687812000     0.000161211 -0.118331390  0.213169388
    -4.217285000  4.205330000  2.337589000    -0.118548302  0.118810667  0.000175380
    -4.233032000 -4.220231000 -2.339470000    -0.118129952 -0.118396390 -0.000124822

  length of vectors
     4.687815857  6.398016530  6.418880704     0.243810443  0.167838330  0.167249533

  position of ions in fractional coordinates (direct lattice)
     0.999944000  0.000059000  0.999947000
     0.000012000  0.366734000  0.366716000
     0.000007000  0.633220000  0.633278000
     0.726114000  0.773998000  0.226122000
     0.273923000  0.225956000  0.773906000
     0.499870000  0.771108000  0.771018000
     0.500120000  0.228915000  0.228982000
     0.499969000  0.000029000  0.500023000
     0.000025000  0.000030000  0.500024000
     0.499999000  0.499977000  0.999974000
     0.999995000  0.499978000  0.999973000
     0.642048000  0.358310000  0.641775000
     0.357973000  0.641687000  0.358262000

  ion indices of the primitive-cell ions
   primitive index   ion index
                 1           1
                 2           2
                 3           3
                 4           4
                 5           5
                 6           6
                 7           7
                 8           8
                 9           9
                10          10
                11          11
                12          12
                13          13

 KPOINTS: Kpoints from vasprun.xml

Automatic generation of k-mesh.
 Grid dimensions read from file:
 generate k-points for:    6    4    4

 Generating k-lattice:

  Cartesian coordinates                     Fractional coordinates (reciprocal lattice)
     0.000026869 -0.019721898  0.035528231     0.166666667  0.000000000 -0.000000000
    -0.029637075  0.029702667  0.000043845    -0.000000000  0.250000000 -0.000000000
    -0.029532488 -0.029599098 -0.000031206     0.000000000 -0.000000000  0.250000000

  Length of vectors
     0.040635074  0.041959583  0.041812383

  Shift w.r.t. Gamma in fractional coordinates (k-lattice)
     0.500000000  0.500000000  0.500000000

 TETIRR: Found    288 inequivalent tetrahedra from      576

 Subroutine IBZKPT returns following result:

 Found     48 irreducible k-points:

 Following reciprocal coordinates:
            Coordinates               Weight
  0.083333  0.125000  0.125000      2.000000
  0.250000  0.125000  0.125000      2.000000
  0.416667  0.125000  0.125000      2.000000
 -0.416667  0.125000  0.125000      2.000000
 -0.250000  0.125000  0.125000      2.000000
 -0.083333  0.125000  0.125000      2.000000
  0.083333  0.375000  0.125000      2.000000
  0.250000  0.375000  0.125000      2.000000
  0.416667  0.375000  0.125000      2.000000
 -0.416667  0.375000  0.125000      2.000000
 -0.250000  0.375000  0.125000      2.000000
 -0.083333  0.375000  0.125000      2.000000
  0.083333 -0.375000  0.125000      2.000000
  0.250000 -0.375000  0.125000      2.000000
  0.416667 -0.375000  0.125000      2.000000
 -0.416667 -0.375000  0.125000      2.000000
 -0.250000 -0.375000  0.125000      2.000000
 -0.083333 -0.375000  0.125000      2.000000
  0.083333 -0.125000  0.125000      2.000000
  0.250000 -0.125000  0.125000      2.000000
  0.416667 -0.125000  0.125000      2.000000
 -0.416667 -0.125000  0.125000      2.000000
 -0.250000 -0.125000  0.125000      2.000000
 -0.083333 -0.125000  0.125000      2.000000
  0.083333  0.125000  0.375000      2.000000
  0.250000  0.125000  0.375000      2.000000
  0.416667  0.125000  0.375000      2.000000
 -0.416667  0.125000  0.375000      2.000000
[...]
  236          rpro_isp                              4.245060                        432   4
  237            fftwav_mpi                            0.956908                    31104   5
  238              fftwav                                0.919143                  31104   6
  239                fft3d                                 0.204334                31104   7
  240            rpromu_acc                            1.728095                     7776   5
  241          m_sumb_d                              0.000013                          1   4
  242        fft3d_mpi                             0.003165                           22   3
  243          fftbrc_mpi                            0.002492                         22   4
  244            fftbas_plan_mpi                       0.002479                       22   5
  245              map_forward                           0.000880                     20   6
  246                map_gather                            0.000203                   10   7
  247                m_alltoallv_z                         0.000129                   10   7
  248                map_scatter                           0.000412                   10   7
  249              map_backward                          0.000998                     24   6
  250                map_gather                            0.000242                   12   7
  251                m_alltoallv_z                         0.000132                   12   7
  252                map_scatter                           0.000452                   12   7
  253        m_sumb_d                              0.000026                            5   3
  254        forhar                                0.000721                            1   3
  255          m_sumb_d                              0.000024                          1   4
  256        strehar                               0.000981                            1   3
  257          m_sumb_d                              0.000003                          1   4
  258        m_bcast_d                             0.000175                            2   3
  259      potlok                                0.022983                              2   2
  260        fft3d_mpi                             0.015046                           36   3
  261          fftbrc_mpi                            0.012640                         36   4
  262            fftbas_plan_mpi                       0.012625                       36   5
  263              map_forward                           0.003718                     40   6
  264                map_gather                            0.001239                   24   7
  265                m_alltoallv_z                         0.001220                   24   7
  266                map_scatter                           0.001077                   24   7
  267              map_backward                          0.003093                     32   6
  268                map_gather                            0.000977                   16   7
  269                m_alltoallv_z                         0.001029                   16   7
  270                map_scatter                           0.000919                   16   7
  271              dfftw_execute                         0.004171                     30   6
  272        m_sumb_d                              0.000023                            5   3
  273        pothar                                0.000872                            2   3
  274          m_sumb_d                              0.000026                          2   4
  275        m_bcast_d                             0.001358                            4   3
  276      potlok_metagga                        0.000000                              1   2
  277      set_dd_magatom                        0.000003                              1   2
  278      set_dd_paw                            2.402345                              1   2
  279        m_sumb_d                              0.926232                            7   3
  280      augmentation_charge                   0.009782                              1   2
  281        fft3d_mpi                             0.002523                            2   3
  282          fftbrc_mpi                            0.002141                          2   4
  283            fftbas_plan_mpi                       0.002141                        2   5
  284              dfftw_execute                         0.000942                      6   6
  285              map_backward                          0.000993                      4   6
  286                map_gather                            0.000388                    2   7
  287                m_alltoallv_z                         0.000352                    2   7
  288                map_scatter                           0.000250                    2   7

 Flat profile

 set_dd_paw                            241.994800         163
 m_sumb_d                              199.130165      255461
 edwav                                 189.074822         160
 eccp                                  121.202104     1123200
 rpro1_acc                              84.911695      276480
 densta                                 68.602275         172
 redis_pw                               62.797472     1306566
 m_alltoall_d                           60.738455     9869358
 racc0_acc                              57.192170      276480
 redis_proj                             27.929008     1201800
 fftwav                                 26.762780     1338580
 overl                                  25.798028      408324
 phaser                                 24.931123        8784
 soft_charge                            23.161713         161
 eddav                                  13.727749           5
 fft3d                                  13.578971     1954102
 fftext_mpi                             13.092734      615522
 lapack                                 12.472306       29553
 init_acc                               11.265070           1
 raccmu_                                11.131157       29553
 pw_charge                               8.954173      359824
 depsum                                  8.875946         161
 total_time                              8.505916           1
 eddiag                                  6.826004          81
 lincom                                  6.792269       46752
 choleski                                4.665901       15456
 hamilt_local                            4.514572      279936
 orth1                                   4.124404      304659
 vhamil                                  3.909480      339042
 kinhamil                                3.846816      339042
 rpromu_acc                              2.929541       32145
 acc_init_cublas                         2.432945           1
 orthch                                  2.355120         161
 elmin_all                               2.224245           1
 rpro_isp                                2.176056         624
 w1_dscal                                2.033808      276480
 fftwav_mpi                              1.641389     1338580
 m_bcast_z                               1.238723       43377
 setdij_                                 1.230221         189
 augmentation_charge                     1.119425         162
 racc0mu_acc                             0.863182       29553
 w1_copy                                 0.852983      177318
 acc_init_cusolver                       0.808867           1
 setup_precond                           0.624109       17280
 hamiltmu                                0.604640       29553
 potlok                                  0.472363         163
 m_bcast_d                               0.470045       59437
 overl_mu                                0.451679       29553
 fft3d_mpi                               0.438310      620428
 sphpro_fast                             0.430851           2
 ggemm                                   0.389524       38193
 m_alltoallv_z                           0.289961        5554
 newband                                 0.277189       30033
 map_scatter                             0.227374        5554
 apply_precond                           0.226225       41826
 dfftw_execute                           0.210821        2016
 fftbas_plan_mpi                         0.191138        4906
 rspher_all                              0.185391          14
 map_gather                              0.174170        5554
 acc_cufft_makeplan                      0.131952          19
 proall                                  0.095587           1
 map_backward                            0.029493        5224
 map_forward                             0.028416        4588
 set_charge                              0.026806         161
 force_and_stress                        0.025128           1
 w1_projall                              0.020560       20913
 redis_pw_all                            0.016736         160
 strnlr                                  0.015375           1
 pothar                                  0.012559         163
 fft_gq                                  0.006666         161
 truncate_high_frequency_w1              0.005897       76386
 fornlr                                  0.005316           1
 stufak                                  0.004294           1
 inisym                                  0.004264           1
 fftbrc_mpi                              0.002409        4906
 strkin                                  0.001823           1
 strelo                                  0.001485           1
 strehar                                 0.000978           1
 forloc                                  0.000718           1
 forhar                                  0.000697           1
 rsp                                     0.000371           1
 fewald                                  0.000337           1
 redis_pw_over_bands                     0.000146         161
 brgrid                                  0.000138           1
 fordep                                  0.000057           1
 crpa_reader                             0.000025           1
 rcp                                     0.000019           1
 potlok_metagga                          0.000018         162
 posmap                                  0.000014           2
 acc_cufft_makeplans                     0.000011           3
 shift_bands_between_low_high            0.000011          96
 set_dd_magatom                          0.000007           2
 vectorpot                               0.000005           1
 rotate_active_occupied_orbital          0.000000           1
  summed up times     1378.518694877625

 Accumulative profile

 total_time                           1378.518695           1
 elmin_all                            1324.810979           1
 edwav                                 718.725122         160
 set_dd_paw                            394.658705         163
 m_sumb_d                              199.130165      255461
 eccp                                  121.202104     1123200
 rpro1_acc                              84.911695      276480
 redis_pw                               80.993704     1306566
 redis_proj                             70.471231     1201800
 eddav                                  69.969712           5
 densta                                 68.602275         172
 m_alltoall_d                           60.738455     9869358
 racc0_acc                              57.192170      276480
 set_charge                             53.981889         161
 soft_charge                            43.486963         161
 orthch                                 38.730106         161
 fftwav_mpi                             37.500193     1338580
 fftwav                                 35.858804     1338580
 eddiag                                 34.955989          81
 overl                                  25.798028      408324
 phaser                                 24.931123        8784
 hamilt_local                           20.000057      279936
 fftext_mpi                             17.759620      615522
 hamiltmu                               14.271517       29553
 fft3d                                  13.578971     1954102
 kinhamil                               12.796863      339042
 lapack                                 12.472306       29553
 raccmu_                                12.446018       29553
 init_acc                               11.265070           1
 redis_pw_over_bands                    10.781892         161
 redis_pw_all                           10.781746         160
 force_and_stress                       10.073076           1
 depsum                                  8.958670         161
 pw_charge                               8.954173      359824
 lincom                                  6.792269       46752
 fft3d_mpi                               6.075040      620428
 rpro_isp                                5.850724         624
 strnlr                                  5.602577           1
 choleski                                4.665901       15456
 orth1                                   4.124404      304659
 vhamil                                  3.909480      339042
 newband                                 3.743610       30033
 rpromu_acc                              2.929541       32145
 acc_init_cublas                         2.432945           1
 w1_dscal                                2.033808      276480
 fornlr                                  1.867321           1
 augmentation_charge                     1.519232         162
 potlok                                  1.276847         163
 setdij_                                 1.265493         189
 m_bcast_z                               1.238723       43377
 fftbrc_mpi                              1.153783        4906
 fftbas_plan_mpi                         1.151375        4906
 racc0mu_acc                             0.863182       29553
 w1_copy                                 0.852983      177318
 acc_init_cusolver                       0.808867           1
 setup_precond                           0.624109       17280
 w1_projall                              0.618434       20913
 m_bcast_d                               0.470045       59437
 overl_mu                                0.451679       29553
 sphpro_fast                             0.447205           2
 proall                                  0.422234           1
 map_backward                            0.398256        5224
 ggemm                                   0.389524       38193
 map_forward                             0.351159        4588
 m_alltoallv_z                           0.289961        5554
 map_scatter                             0.227374        5554
 apply_precond                           0.226225       41826
 dfftw_execute                           0.210821        2016
 fft_gq                                  0.205914         161
 rspher_all                              0.185391          14
 map_gather                              0.174170        5554
 acc_cufft_makeplans                     0.131963           3
 acc_cufft_makeplan                      0.131952          19
 fordep                                  0.039468           1
 pothar                                  0.013881         163
 truncate_high_frequency_w1              0.005897       76386
 stufak                                  0.004294           1
 inisym                                  0.004278           1
 strkin                                  0.001851           1
 strelo                                  0.001523           1
 fewald                                  0.001168           1
 strehar                                 0.000981           1
 forloc                                  0.000744           1
 forhar                                  0.000721           1
 rsp                                     0.000371           1
 brgrid                                  0.000138           1
 crpa_reader                             0.000025           1
 rcp                                     0.000019           1
 potlok_metagga                          0.000018         162
 posmap                                  0.000014           2
 shift_bands_between_low_high            0.000011          96
 set_dd_magatom                          0.000007           2
 vectorpot                               0.000005           1
 rotate_active_occupied_orbital          0.000000           1

Profiling took   2.569203  1.744834  0.003351  0.003280 seconds
Profiling took   1.968508 seconds