 vasp.6.3.2 27Jun22 (build Jul  3 2023 11:46:21) complex
 executed on    LinuxNV_CrayMPICH date 2024.04.22  03:28:49

 INCAR:
   ADDGRID = True
   ALGO = All
   EDIFF = 0.0001
   ENCUT = 520.0
   IBRION = -1
   ISIF = 3
   ISMEAR = -5
   ISPIN = 2
   LAECHG = True
   LASPH = True
   LCHARG = True
   LORBIT = 11
   LREAL = Auto
   LVHAR = True
   LWAVE = False
   MAGMOM = 1*7.0 5*0.6
   NELM = 1000
   NSW = 0
   PREC = Accurate
   SIGMA = 0.05

 POTCAR:    PAW_PBE Gd 23Dec2003
 POTCAR:    PAW_PBE Cu_pv 06Sep2000
 POTCAR:    PAW_PBE Pd 04Jan2005
 POTCAR:    PAW_PBE Gd 23Dec2003
   VRHFIN =Gd : [core=Xe4]

   TITEL  = PAW_PBE Gd 23Dec2003
   POMASS =  157.250; ZVAL   =   18.000    mass and valenz
   ENMAX  =  256.472; ENMIN  =  192.354 eV

   TITEL  = PAW_PBE Cu_pv 06Sep2000
   POMASS =   63.546; ZVAL   =   17.000    mass and valenz
   ENMAX  =  368.648; ENMIN  =  276.486 eV

   TITEL  = PAW_PBE Pd 04Jan2005
   POMASS =  106.420; ZVAL   =   10.000    mass and valenz
   ENMAX  =  250.925; ENMIN  =  188.194 eV

 Optimization of the real space projectors (new method)

 maximal supplied QI-value         = 13.42
 optimisation between [QCUT,QGAM] = [ 11.67, 23.35] = [ 38.16,152.62] Ry
 Optimized for a Real-space Cutoff    1.63 Angstroem

   l    n(q)    QCUT    max X(q) W(low)/X(q) W(high)/X(q)  e(spline)
   0     11    11.673    10.501    0.14E-04    0.17E-05    0.21E-07
   0     11    11.673     9.148    0.21E-04    0.32E-05    0.45E-07
   1     11    11.673     4.035    0.33E-05    0.11E-04    0.84E-07
   1     11    11.673     4.388    0.11E-04    0.47E-04    0.34E-06
   2     10    11.673    20.656    0.12E-04    0.28E-04    0.54E-06
   2     10    11.673    12.651    0.11E-04    0.26E-04    0.51E-06
   3     10    11.673    61.921    0.19E-03    0.22E-03    0.23E-06
   3     10    11.673    48.328    0.20E-03    0.23E-03    0.23E-06
 Optimization of the real space projectors (new method)

[...]

   l    n(q)    QCUT    max X(q) W(low)/X(q) W(high)/X(q)  e(spline)
   1      9    11.527     3.172    0.21E-04    0.38E-04    0.11E-06
   1      9    11.527     4.083    0.67E-04    0.79E-04    0.20E-06
   2      9    11.527    65.342    0.13E-03    0.28E-03    0.26E-06
   2      9    11.527    61.381    0.13E-03    0.29E-03    0.26E-06
   0      9    11.527    65.742    0.32E-04    0.21E-04    0.72E-07
   0      9    11.527    30.431    0.28E-04    0.19E-04    0.65E-07
 Optimization of the real space projectors (new method)

 maximal supplied QI-value         = 14.36
 optimisation between [QCUT,QGAM] = [ 11.63, 23.27] = [ 37.90,151.59] Ry
 Optimized for a Real-space Cutoff    1.49 Angstroem

   l    n(q)    QCUT    max X(q) W(low)/X(q) W(high)/X(q)  e(spline)
   2      9    11.633    59.108    0.81E-04    0.17E-04    0.26E-06
   2      9    11.633    58.101    0.82E-04    0.18E-04    0.27E-06
   0     10    11.633   102.235    0.26E-04    0.16E-04    0.21E-06
   0     10    11.633    58.388    0.23E-04    0.15E-04    0.20E-06
   1     10    11.633    22.191    0.10E-03    0.20E-03    0.14E-06
   1     10    11.633    15.590    0.86E-04    0.17E-03    0.12E-06
  PAW_PBE Gd 23Dec2003                  :
  PAW_PBE Cu_pv 06Sep2000               :
  PAW_PBE Pd 04Jan2005                  :

 POSCAR: Gd1 Cu4 Pd1
  positions in direct lattice
 exchange correlation table for  LEXCH =        8
   RHO(1)=    0.500       N(1)  =     2000
   RHO(2)=  100.500       N(2)  =     4000

 VTST: version 4.2, (08/11/21)

 CHAIN: initializing optimizer

 OPT: Using VASP Dynamics algorithm
 CHAIN: Read ICHAIN             0

 POSCAR: Gd1 Cu4 Pd1
  positions in direct lattice

 ion  position               nearest neighbor table
   1  0.999  0.999  0.999-   6 2.95   6 2.95   6 2.95   2 2.99   3 2.99   3 2.99   2 2.99   4 2.99
                             4 2.99   4 3.02   3 3.02   2 3.02
   2  0.626  0.127  0.626-   4 2.50   3 2.50   4 2.52   3 2.52   6 2.56   6 2.60   1 2.99   1 2.99
                             1 3.02
   3  0.127  0.626  0.626-   4 2.50   2 2.50   4 2.52   2 2.52   6 2.56   6 2.60   1 2.99   1 2.99
                             1 3.02
   4  0.626  0.626  0.127-   2 2.50   3 2.50   3 2.52   2 2.52   6 2.56   6 2.60   1 2.99   1 2.99
                             1 3.02
   5  0.247  0.247  0.247-   6 2.95   6 2.95   6 2.95
   6  0.625  0.625  0.625-   4 2.56   2 2.56   3 2.56   4 2.60   3 2.60   2 2.60   1 2.95   1 2.95
                             1 2.95   5 2.95   5 2.95   5 2.95

  LATTYP: Found a trigonal (rhomboedric) cell.
 ALAT       =     5.1636928780
 COS(alpha) =     0.5275627236

  Lattice vectors:

 A1 = (   4.5127880000,  -2.5096750000,   0.0000000000)
 A2 = (   4.5127880000,   2.5096750000,   0.0000000000)
 A3 = (   3.1170950000,   0.0000000000,   4.1167270000)

Analysis of symmetry for initial positions (statically):
 Subroutine PRICEL returns:
 Original cell was already a primitive cell.

 Routine SETGRP: Setting up the symmetry group for a
 trigonal (rhombohedral) supercell.

 Subroutine GETGRP returns: Found  6 space group operations
 (whereof  6 operations were pure point group operations)
 out of a pool of 12 trial point group operations.

The static configuration has the point symmetry C_3v.

Analysis of symmetry for dynamics (positions and initial velocities):
 Subroutine PRICEL returns:
 Original cell was already a primitive cell.

[...]

The dynamic configuration has the point symmetry C_3v.

Analysis of structural, dynamic, and magnetic symmetry:
 Subroutine PRICEL returns:
 Original cell was already a primitive cell.

 Routine SETGRP: Setting up the symmetry group for a
 trigonal (rhombohedral) supercell.

 Subroutine GETGRP returns: Found  6 space group operations
 (whereof  6 operations were pure point group operations)
 out of a pool of 12 trial point group operations.

The overall configuration has the point symmetry C_3v.

 Subroutine INISYM returns: Found  6 space group operations
 (whereof  6 operations are pure point group operations),
 and found     1 'primitive' translations

                                     Primitive cell

  volume of cell :      93.2491

  direct lattice vectors                    reciprocal lattice vectors
     4.512788000 -2.509675000  0.000000000     0.110796253 -0.199228984 -0.083892482
     4.512788000  2.509675000  0.000000000     0.110796253  0.199228984 -0.083892482
     3.117095000  0.000000000  4.116727000    -0.000000000  0.000000000  0.242911420

  length of vectors
     5.163692878  5.163692878  5.163692713     0.242911396  0.242911396  0.242911420

  position of ions in fractional coordinates (direct lattice)
     0.999320000  0.999320000  0.999320000
     0.625659000  0.127480000  0.625659000
     0.127480000  0.625659000  0.625659000
     0.625659000  0.625659000  0.127480000
     0.247284000  0.247284000  0.247284000
     0.624597000  0.624597000  0.624597000

  ion indices of the primitive-cell ions
   primitive index   ion index
                 1           1
                 2           2
                 3           3
                 4           4
                 5           5
                 6           6

 KPOINTS: Kpoints from vasprun.xml

Automatic generation of k-mesh.
 Grid dimensions read from file:
 generate k-points for:    6    6    6

 Generating k-lattice:

  Cartesian coordinates                     Fractional coordinates (reciprocal lattice)
     0.018466042 -0.033204831 -0.013982080     0.166666667  0.000000000 -0.000000000
     0.018466042  0.033204831 -0.013982080     0.000000000  0.166666667 -0.000000000
    -0.000000000  0.000000000  0.040485237     0.000000000  0.000000000  0.166666667

  Length of vectors
     0.040485233  0.040485233  0.040485237

  Shift w.r.t. Gamma in fractional coordinates (k-lattice)
     0.500000000  0.500000000  0.500000000

 TETIRR: Found    114 inequivalent tetrahedra from     1296

 Subroutine IBZKPT returns following result:

 Found     28 irreducible k-points:

 Following reciprocal coordinates:
            Coordinates               Weight
  0.083333  0.083333  0.083333      2.000000
  0.250000  0.083333  0.083333      6.000000
  0.416667  0.083333  0.083333      6.000000
 -0.416667  0.083333  0.083333      6.000000
 -0.250000  0.083333  0.083333      6.000000
 -0.083333  0.083333  0.083333      6.000000
  0.250000  0.250000  0.083333      6.000000
  0.416667  0.250000  0.083333     12.000000
 -0.416667  0.250000  0.083333     12.000000
 -0.250000  0.250000  0.083333     12.000000
 -0.083333  0.250000  0.083333     12.000000
  0.416667  0.416667  0.083333      6.000000
 -0.416667  0.416667  0.083333     12.000000
 -0.250000  0.416667  0.083333     12.000000
 -0.083333  0.416667  0.083333     12.000000
 -0.416667 -0.416667  0.083333      6.000000
 -0.250000 -0.416667  0.083333     12.000000
 -0.250000 -0.250000  0.083333      6.000000
  0.250000  0.250000  0.250000      2.000000
  0.416667  0.250000  0.250000      6.000000
 -0.416667  0.250000  0.250000      6.000000
 -0.250000  0.250000  0.250000      6.000000
  0.416667  0.416667  0.250000      6.000000
 -0.416667  0.416667  0.250000     12.000000
 -0.250000  0.416667  0.250000     12.000000
 -0.416667 -0.416667  0.250000      6.000000
  0.416667  0.416667  0.416667      2.000000
 -0.416667  0.416667  0.416667      6.000000

 Following cartesian coordinates:
            Coordinates               Weight
  0.018466  0.000000  0.006261      2.000000
  0.036932 -0.033205 -0.007722      6.000000
  0.055398 -0.066410 -0.021704      6.000000
 -0.036932  0.099614  0.048207      6.000000
 -0.018466  0.066410  0.034225      6.000000
  0.000000  0.033205  0.020243      6.000000
  0.055398  0.000000 -0.021704      6.000000
  0.073864 -0.033205 -0.035686     12.000000
 -0.018466  0.132819  0.034225     12.000000
  0.000000  0.099614  0.020243     12.000000
  0.018466  0.066410  0.006261     12.000000
  0.092330  0.000000 -0.049668      6.000000
  0.000000  0.166024  0.020243     12.000000
  0.018466  0.132819  0.006261     12.000000
  0.036932  0.099614 -0.007722     12.000000
 -0.092330  0.000000  0.090153      6.000000
 -0.073864 -0.033205  0.076171     12.000000
 -0.055398  0.000000  0.062189      6.000000
  0.055398  0.000000  0.018782      2.000000
  0.073864 -0.033205  0.004800      6.000000
 -0.018466  0.132819  0.074710      6.000000
  0.000000  0.099614  0.060728      6.000000
  0.092330  0.000000 -0.009183      6.000000
  0.000000  0.166024  0.060728     12.000000
  0.018466  0.132819  0.046746     12.000000
 -0.092330  0.000000  0.130638      6.000000
  0.092330  0.000000  0.031303      2.000000
  0.000000  0.166024  0.101213      6.000000

 SYSTEM =  unknown system
 POSCAR =  Gd1 Cu4 Pd1

 Startparameter for this run:
   NWRITE =      2    write-flag & timer
   PREC   = accura    normal or accurate (medium, high low for compatibility)
   ISTART =      0    job   : 0-new  1-cont  2-samecut
   ICHARG =      2    charge: 1-file 2-atom 10-const
   ISPIN  =      2    spin polarized calculation?
   LNONCOLLINEAR =      F non collinear calculations
   LSORBIT =      F    spin-orbit coupling
   INIWAV =      1    electr: 0-lowe 1-rand  2-diag
   LASPH  =      T    aspherical Exc in radial PAW
 Electronic Relaxation 1
[...]
  285          rpro_isp                              1.083921                        252   4
  286            fftwav_mpi                            0.251770                     8064   5
  287              fftwav                                0.242047                   8064   6
  288                fft3d                                 0.054930                 8064   7
  289            rpromu_acc                            0.367979                     2016   5
  290          m_sumb_d                              0.000012                          1   4
  291        fft3d_mpi                             0.003177                           22   3
  292          fftbrc_mpi                            0.002489                         22   4
  293            fftbas_plan_mpi                       0.002480                       22   5
  294              map_forward                           0.000905                     20   6
  295                map_gather                            0.000195                   10   7
  296                m_alltoallv_z                         0.000123                   10   7
  297                map_scatter                           0.000439                   10   7
  298              map_backward                          0.000968                     24   6
  299                map_gather                            0.000235                   12   7
  300                m_alltoallv_z                         0.000124                   12   7
  301                map_scatter                           0.000437                   12   7
  302        m_sumb_d                              0.000033                            5   3
  303        forhar                                0.000657                            1   3
  304          m_sumb_d                              0.000011                          1   4
  305        strehar                               0.000861                            1   3
  306          m_sumb_d                              0.000005                          1   4
  307        m_bcast_d                             0.000023                            2   3
  308      potlok                                0.020177                              2   2
  309        fft3d_mpi                             0.013014                           36   3
  310          fftbrc_mpi                            0.011145                         36   4
  311            fftbas_plan_mpi                       0.011127                       36   5
  312              map_forward                           0.003093                     40   6
  313                map_gather                            0.001063                   24   7
  314                m_alltoallv_z                         0.000927                   24   7
  315                map_scatter                           0.000925                   24   7
  316              map_backward                          0.002676                     32   6
  317                map_gather                            0.000859                   16   7
  318                m_alltoallv_z                         0.000781                   16   7
  319                map_scatter                           0.000869                   16   7
  320              dfftw_execute                         0.003629                     30   6
  321        m_sumb_d                              0.000026                            5   3
  322        pothar                                0.000779                            2   3
  323          m_sumb_d                              0.000086                          2   4
  324        m_bcast_d                             0.001179                            4   3
  325      potlok_metagga                        0.000000                              1   2
  326      set_dd_magatom                        0.000004                              1   2
  327      set_dd_paw                            1.417739                              1   2
  328        m_sumb_d                              0.948560                            7   3
  329      augmentation_charge                   0.067699                              1   2
  330        fft3d_mpi                             0.016866                            2   3
  331          fftbrc_mpi                            0.014480                          2   4
  332            fftbas_plan_mpi                       0.014479                        2   5
  333              dfftw_execute                         0.008987                      6   6
  334              map_backward                          0.005345                      4   6
  335                map_gather                            0.001365                    2   7
  336                m_alltoallv_z                         0.002712                    2   7
  337                map_scatter                           0.001260                    2   7

 Flat profile

 m_sumb_d                              105.313294       58574
 set_dd_paw                             48.591223         104
 edwav                                  32.957561         101
 eccp                                   19.621829      182784
 rpro1_acc                              16.261378       43904
 init_acc                               11.864110           1
 racc0_acc                              10.304099       43904
 m_alltoall_d                           10.287503     1644734
 redis_pw                                9.465037      234774
 densta                                  8.259476         113
 total_time                              7.218600           1
 phaser                                  6.354972        3388
 setdij_                                 6.289031         130
 augmentation_charge                     5.301279         103
 redis_proj                              4.920946      250032
 fftwav                                  4.804501      246572
 overl                                   4.661577       83100
 soft_charge                             4.462433         102
 eddav                                   3.729247           5
 lapack                                  3.598022        8105
 dfftw_execute                           2.894233        2868
 raccmu_                                 2.722641        8105
 fft3d                                   2.499370      351486
 acc_init_cublas                         2.438173           1
 fftext_mpi                              2.221370      104914
 pw_charge                               1.890243       71688
 depsum                                  1.493073         102
 eddiag                                  1.412030          53
 lincom                                  1.382055       17360
 m_alltoallv_z                           1.083825        4068
 orthch                                  0.851017         102
 choleski                                0.797183        5712
 acc_init_cusolver                       0.792726           1
 hamilt_local                            0.784892       44800
 orth1                                   0.751202       57803
 rpromu_acc                              0.664604        8777
 fft3d_mpi                               0.663748      108570
 kinhamil                                0.651084       61010
 vhamil                                  0.647703       61010
 rpro_isp                                0.643936         364
 map_scatter                             0.441958        4068
 map_gather                              0.438471        4068
 set_charge                              0.420015         102
 w1_dscal                                0.326881       43904
 fftwav_mpi                              0.308260      246572
 elmin_all                               0.307915           1
 potlok                                  0.279974         104
 m_bcast_z                               0.251034       11689
 w1_copy                                 0.234600       48630
 racc0mu_acc                             0.232766        8105
 hamiltmu                                0.184438        8105
 fftbas_plan_mpi                         0.184090        3656
 setup_precond                           0.160851        4480
 m_bcast_d                               0.136908       16423
 rspher_all                              0.130272          14
 overl_mu                                0.122141        8105
 acc_cufft_makeplan                      0.118181          19
 ggemm                                   0.110712       10345
 newband                                 0.100309        8385
 sphpro_fast                             0.068775           2
 apply_precond                           0.064575       11730
 proall                                  0.046651           1
 map_backward                            0.019614        3856
 map_forward                             0.018841        3456
 force_and_stress                        0.008959           1
 pothar                                  0.008076         104
 strnlr                                  0.007329           1
 w1_projall                              0.006097        5865
 redis_pw_all                            0.005745         101
 inisym                                  0.004370           1
 fft_gq                                  0.003154         102
 fornlr                                  0.002508           1
 stufak                                  0.002438           1
 fftbrc_mpi                              0.002020        3656
 truncate_high_frequency_w1              0.001559       20690
 strelo                                  0.001151           1
 strehar                                 0.000856           1
 forloc                                  0.000676           1
 forhar                                  0.000646           1
 strkin                                  0.000370           1
 fewald                                  0.000332           1
 brgrid                                  0.000124           1
 redis_pw_over_bands                     0.000098         102
 rsp                                     0.000096           1
 fordep                                  0.000053           1
 crpa_reader                             0.000027           1
 posmap                                  0.000017           2
 rcp                                     0.000015           1
 potlok_metagga                          0.000011         103
 shift_bands_between_low_high            0.000011          56
 set_dd_magatom                          0.000009           2
 acc_cufft_makeplans                     0.000008           3
 vectorpot                               0.000006           1
 rotate_active_occupied_orbital          0.000001           1
  summed up times     356.3162209987640

 Accumulative profile

 total_time                            356.316221           1
 elmin_all                             322.681818           1
 set_dd_paw                            145.581224         104
 edwav                                 122.557063         101
 m_sumb_d                              105.313294       58574
 eccp                                   19.621829      182784
 eddav                                  18.524892           5
 set_charge                             17.911220         102
 rpro1_acc                              16.261378       43904
 redis_pw                               12.555484      234774
 redis_proj                             12.118002      250032
 init_acc                               11.864110           1
 racc0_acc                              10.304099       43904
 m_alltoall_d                           10.287503     1644734
 setdij_                                 9.415938         130
 soft_charge                             8.816337         102
 densta                                  8.259476         113
 augmentation_charge                     7.161207         103
 fftwav_mpi                              6.834388      246572
 orthch                                  6.793936         102
 fftwav                                  6.526128      246572
 fft3d_mpi                               6.524543      108570
 phaser                                  6.354972        3388
 eddiag                                  6.223709          53
 force_and_stress                        5.522000           1
 fftbrc_mpi                              5.083052        3656
 fftbas_plan_mpi                         5.081033        3656
 overl                                   4.661577       83100
 lapack                                  3.598022        8105
 hamiltmu                                3.595963        8105
 hamilt_local                            3.311000       44800
 raccmu_                                 3.077549        8105
 fftext_mpi                              3.030532      104914
 dfftw_execute                           2.894233        2868
 fft3d                                   2.499370      351486
 acc_init_cublas                         2.438173           1
 kinhamil                                2.212380       61010
 pw_charge                               1.890243       71688
 strnlr                                  1.656645           1
 depsum                                  1.507629         102
 redis_pw_over_bands                     1.502396         102
 redis_pw_all                            1.502298         101
 rpro_isp                                1.491050         364
 lincom                                  1.382055       17360
 m_alltoallv_z                           1.083825        4068
 map_forward                             1.034190        3456
 newband                                 0.975854        8385
 map_backward                            0.968519        3856
 potlok                                  0.881385         104
 choleski                                0.797183        5712
 acc_init_cusolver                       0.792726           1
 orth1                                   0.751202       57803
 rpromu_acc                              0.664604        8777
 vhamil                                  0.647703       61010
 fornlr                                  0.551526           1
 map_scatter                             0.441958        4068
 map_gather                              0.438471        4068
 fordep                                  0.435221           1
 w1_dscal                                0.326881       43904
 m_bcast_z                               0.251034       11689
 w1_copy                                 0.234600       48630
 racc0mu_acc                             0.232766        8105
 w1_projall                              0.173408        5865
 setup_precond                           0.160851        4480
 proall                                  0.144535           1
 m_bcast_d                               0.136908       16423
 rspher_all                              0.130272          14
 overl_mu                                0.122141        8105
 acc_cufft_makeplans                     0.118188           3
 acc_cufft_makeplan                      0.118181          19
 ggemm                                   0.110712       10345
 fft_gq                                  0.107077         102
 sphpro_fast                             0.070875           2
 apply_precond                           0.064575       11730
 pothar                                  0.009011         104
 inisym                                  0.004387           1
 stufak                                  0.002438           1
 truncate_high_frequency_w1              0.001559       20690
 strelo                                  0.001173           1
 strehar                                 0.000861           1
 fewald                                  0.000699           1
 forloc                                  0.000683           1
 forhar                                  0.000657           1
 strkin                                  0.000393           1
 brgrid                                  0.000124           1
 rsp                                     0.000096           1
 crpa_reader                             0.000027           1
 posmap                                  0.000017           2
 rcp                                     0.000015           1
 potlok_metagga                          0.000011         103
 shift_bands_between_low_high            0.000011          56
 set_dd_magatom                          0.000009           2
 vectorpot                               0.000006           1
 rotate_active_occupied_orbital          0.000001           1

Profiling took   0.449318  0.308937  0.003394  0.003311 seconds
Profiling took   0.342811 seconds