 vasp.6.3.2 27Jun22 (build Jul  3 2023 11:46:21) complex
 executed on    LinuxNV_CrayMPICH date 2024.04.22  03:39:06

 INCAR:
   ADDGRID = True
   ALGO = Normal
   EDIFF = 0.0023
   ENCUT = 520.0
   IBRION = -1
   ICHARG = 0
   ISIF = 3
   ISMEAR = -5
   ISPIN = 2
   ISTART = 1
   KPOINT_BSE = -1 0 0 0
   LAECHG = True
   LASPH = True
   LCHARG = True
   LDAU = True
   LDAUJ = 0.0 0.0 0.0 0.0
   LDAUL = 0 0 2 0
   LDAUPRINT = 1
   LDAUTYPE = 2
   LDAUU = 0.0 0.0 5.3 0.0
   LELF = True
   LMAXMIX = 6
   LORBIT = 11
   LREAL = Auto
   LVHAR = True
   LWAVE = False
   MAGMOM = 5*0.6 5*7.0 10*5.0 26*0.6
   NELM = 1000
   NSW = 0
   PREC = accurate
   SIGMA = 0.05

 POTCAR:    PAW_PBE Ba_sv 06Sep2000
 POTCAR:    PAW_PBE Eu 23Dec2003
 POTCAR:    PAW_PBE Fe_pv 02Aug2007
 POTCAR:    PAW_PBE O 08Apr2002
 POTCAR:    PAW_PBE Ba_sv 06Sep2000
   VRHFIN =Ba: 5s5p6s

   TITEL  = PAW_PBE Ba_sv 06Sep2000
   POMASS =  137.327; ZVAL   =   10.000    mass and valenz
   ENMAX  =  187.181; ENMIN  =  140.386 eV

   TITEL  = PAW_PBE Eu 23Dec2003
   POMASS =  151.965; ZVAL   =   17.000    mass and valenz
   ENMAX  =  249.668; ENMIN  =  187.251 eV

   TITEL  = PAW_PBE Fe_pv 02Aug2007
   POMASS =   55.847; ZVAL   =   14.000    mass and valenz
   ENMAX  =  293.238; ENMIN  =  219.928 eV

   TITEL  = PAW_PBE O 08Apr2002
   POMASS =   16.000; ZVAL   =    6.000    mass and valenz
   ENMAX  =  400.000; ENMIN  =  300.000 eV

 Optimization of the real space projectors (new method)

 maximal supplied QI-value         = 13.42
 optimisation between [QCUT,QGAM] = [ 11.67, 23.35] = [ 38.16,152.62] Ry
 Optimized for a Real-space Cutoff    1.68 Angstroem

   l    n(q)    QCUT    max X(q) W(low)/X(q) W(high)/X(q)  e(spline)
   0     12    11.673    13.244    0.27E-04    0.53E-05    0.55E-07
   0     12    11.673    14.240    0.39E-04    0.74E-05    0.11E-06
   1     11    11.673     4.828    0.65E-05    0.14E-04    0.51E-07
   1     11    11.673     3.934    0.16E-04    0.58E-04    0.38E-06
   2     11    11.673    87.714    0.23E-03    0.16E-03    0.84E-06
   2     11    11.673    59.874    0.22E-03    0.15E-03    0.81E-06
 Optimization of the real space projectors (new method)

[...]

   l    n(q)    QCUT    max X(q) W(low)/X(q) W(high)/X(q)  e(spline)
   1     10    11.565     4.267    0.91E-04    0.15E-03    0.13E-06
   1     10    11.565     5.750    0.14E-03    0.22E-03    0.20E-06
   2      9    11.565    53.656    0.13E-03    0.57E-04    0.16E-06
   2      9    11.565    49.521    0.13E-03    0.59E-04    0.16E-06
   0     10    11.565    31.246    0.61E-04    0.74E-05    0.89E-07
   0     10    11.565    12.201    0.44E-04    0.68E-05    0.74E-07
 Optimization of the real space projectors (new method)

 maximal supplied QI-value         = 24.76
 optimisation between [QCUT,QGAM] = [ 11.64, 23.27] = [ 37.91,151.63] Ry
 Optimized for a Real-space Cutoff    1.14 Angstroem

   l    n(q)    QCUT    max X(q) W(low)/X(q) W(high)/X(q)  e(spline)
   0      8    11.635    20.381    0.10E-03    0.33E-03    0.24E-06
   0      8    11.635    15.268    0.11E-03    0.35E-03    0.26E-06
   1      7    11.635     5.964    0.24E-03    0.31E-03    0.30E-06
   1      7    11.635     5.382    0.22E-03    0.25E-03    0.26E-06
  PAW_PBE Ba_sv 06Sep2000               :
  PAW_PBE Eu 23Dec2003                  :
  PAW_PBE Fe_pv 02Aug2007               :
  PAW_PBE O 08Apr2002                   :

 POSCAR: Ba5 Eu5 Fe10 O26
  positions in direct lattice
 exchange correlation table for  LEXCH =        8
   RHO(1)=    0.500       N(1)  =     2000
   RHO(2)=  100.500       N(2)  =     4000

 VTST: version 4.2, (08/11/21)

 CHAIN: initializing optimizer

 OPT: Using VASP Dynamics algorithm
 CHAIN: Read ICHAIN             0

 POSCAR: Ba5 Eu5 Fe10 O26
  positions in direct lattice

 ion  position               nearest neighbor table
   1  0.000  0.500  0.500-  41 2.81  45 2.81  44 2.87  42 2.87  22 2.99  30 2.99  34 2.99  40 2.99
                            38 3.09  31 3.09  26 3.10  21 3.10  11 3.41  19 3.41  16 3.46  14 3.46
   2  1.000  0.901  0.698-  41 2.83  45 2.84  42 2.85  43 2.85  35 2.97  39 2.97  27 2.99  22 3.00
                            26 3.09  23 3.10  32 3.11  36 3.11  19 3.43  16 3.43  13 3.44  11 3.44
   3  0.997  0.298  0.898-  41 2.80  44 2.82  43 2.83  42 2.83  40 2.96  27 2.97  37 3.08  31 3.09
                            28 3.09  23 3.10  33 3.11  24 3.12  11 3.42  18 3.42  17 3.44  13 3.44
   4  0.003  0.702  0.102-  45 2.80  42 2.82  43 2.83  44 2.83  34 2.96  25 2.97  32 3.08  38 3.09
                            24 3.09  29 3.10  36 3.11  28 3.12  19 3.42  12 3.42  13 3.44  17 3.44
   5  0.000  0.099  0.302-  45 2.83  41 2.84  44 2.85  43 2.85  39 2.97  35 2.97  25 2.99  30 3.00
                            21 3.09  29 3.10  37 3.11  33 3.11  11 3.43  14 3.43  17 3.44  19 3.44
   6  0.500  0.288  0.405-  40 2.57  30 2.57  25 2.57  35 2.57  26 2.60  21 2.60  33 2.61  38 2.62
                            46 2.72   5 3.92   1 3.92
   7  0.500  0.712  0.595-  34 2.57  22 2.57  27 2.57  39 2.57  21 2.60  26 2.60  36 2.61  31 2.62
                            46 2.72   2 3.92   1 3.92
   8  0.500  0.095  0.788-  22 2.57  27 2.57  35 2.57  40 2.57  37 2.59  32 2.59  28 2.61  23 2.61
                            46 2.72   3 3.89   2 3.92
   9  0.500  0.500  0.000-  24 2.53  28 2.53  33 2.53  36 2.53  31 2.53  38 2.53  23 2.53  29 2.53
                             4 3.94   3 3.94
  10  0.500  0.905  0.212-  30 2.57  25 2.57  39 2.57  34 2.57  32 2.59  37 2.59  24 2.61  29 2.61
                            46 2.72   4 3.89   5 3.92
  11  0.247  0.302  0.650-  41 1.95  35 1.96  31 2.02  21 2.04  23 2.06   1 3.41   3 3.42   5 3.43
                             2 3.44
  12  0.250  0.700  0.854-  42 1.96  22 1.96  24 2.01  32 2.03  31 2.06   4 3.42   3 3.45   2 3.46
                             1 3.47
  13  0.250  0.101  0.047-  43 1.96  25 1.96  23 2.01  32 2.03  33 2.05   2 3.44   4 3.44   3 3.44
                             5 3.48
  14  0.250  0.497  0.249-  44 1.96  34 1.96  33 2.01  21 2.04  24 2.05   5 3.43   4 3.45   3 3.46
                             1 3.46
  15  0.260  0.904  0.452-  46 1.88  45 2.02  22 2.09  25 2.10  34 2.10  35 2.10   4 3.46   5 3.48
                             2 3.48   1 3.48
  16  0.750  0.503  0.751-  42 1.96  40 1.96  36 2.01  26 2.04  28 2.05   2 3.43   3 3.45   4 3.46
                             1 3.46
  17  0.750  0.899  0.953-  43 1.96  27 1.96  29 2.01  37 2.03  36 2.05   5 3.44   3 3.44   4 3.44
                             2 3.48
  18  0.750  0.300  0.146-  44 1.96  30 1.96  28 2.01  37 2.03  38 2.06   3 3.42   4 3.45   5 3.46
                             1 3.47
  19  0.753  0.698  0.350-  45 1.95  39 1.96  38 2.02  26 2.04  29 2.06   1 3.41   4 3.42   2 3.43
                             5 3.44
  20  0.740  0.096  0.548-  46 1.88  41 2.02  30 2.09  27 2.10  40 2.10  39 2.10   3 3.46   2 3.48
                             5 3.48   1 3.48
  21  0.302  0.421  0.460-  14 2.04  11 2.04   7 2.60   6 2.60   5 3.09   1 3.10
  22  0.283  0.809  0.665-  12 1.96  15 2.09   8 2.57   7 2.57   1 2.99   2 3.00
  23  0.301  0.221  0.861-  13 2.01  11 2.06   9 2.53   8 2.61   3 3.10   2 3.10
  24  0.302  0.620  0.060-  12 2.01  14 2.05   9 2.53  10 2.61   4 3.09   3 3.12
  25  0.284  0.018  0.248-  13 1.96  15 2.10  10 2.57   6 2.57   4 2.97   5 2.99
  26  0.698  0.579  0.540-  16 2.04  19 2.04   6 2.60   7 2.60   2 3.09   1 3.10
  27  0.716  0.982  0.752-  17 1.96  20 2.10   8 2.57   7 2.57   3 2.97   2 2.99
  28  0.698  0.380  0.940-  18 2.01  16 2.05   9 2.53   8 2.61   3 3.09   4 3.12
  29  0.699  0.779  0.139-  17 2.01  19 2.06   9 2.53  10 2.61   4 3.10   5 3.10
  30  0.717  0.191  0.335-  18 1.96  20 2.09  10 2.57   6 2.57   1 2.99   5 3.00
  31  0.300  0.519  0.761-  11 2.02  12 2.06   9 2.53   7 2.62   3 3.09   1 3.09
  32  0.302  0.921  0.961-  12 2.03  13 2.03  10 2.59   8 2.59   4 3.08   2 3.11
  33  0.301  0.321  0.159-  14 2.01  13 2.05   9 2.53   6 2.61   3 3.11   5 3.11
  34  0.283  0.705  0.352-  14 1.96  15 2.10   7 2.57  10 2.57   4 2.96   1 2.99
  35  0.283  0.122  0.561-  11 1.96  15 2.10   8 2.57   6 2.57   2 2.97   5 2.97
  36  0.699  0.679  0.841-  16 2.01  17 2.05   9 2.53   7 2.61   4 3.11   2 3.11
  37  0.698  0.079  0.039-  18 2.03  17 2.03   8 2.59  10 2.59   3 3.08   5 3.11
  38  0.700  0.481  0.239-  19 2.02  18 2.06   9 2.53   6 2.62   4 3.09   1 3.09
  39  0.717  0.878  0.439-  19 1.96  20 2.10  10 2.57   7 2.57   5 2.97   2 2.97
  40  0.717  0.295  0.648-  16 1.96  20 2.10   6 2.57   8 2.57   3 2.96   1 2.99
  41  0.998  0.202  0.601-  11 1.95  20 2.02   3 2.80   1 2.81   2 2.83   5 2.84
  42  0.000  0.601  0.804-  16 1.96  12 1.96   4 2.82   3 2.83   2 2.85   1 2.87
  43  0.000  0.000  0.000-  13 1.96  17 1.96   3 2.83   4 2.83   2 2.85   5 2.85
  44  1.000  0.399  0.196-  14 1.96  18 1.96   3 2.82   4 2.83   5 2.85   1 2.87
  45  0.002  0.798  0.399-  19 1.95  15 2.02   4 2.80   1 2.81   5 2.83   2 2.84
  46  0.500  0.000  0.500-  15 1.88  20 1.88   6 2.72   7 2.72   8 2.72  10 2.72

  LATTYP: Found a triclinic cell.
 ALAT       =    14.8913037118
 B/A-ratio  =     0.6012044181
 C/A-ratio  =     0.6014944360
 COS(alpha) =     0.0015869125
 COS(beta)  =     0.1220193796
 COS(gamma) =     0.8419547266

  Lattice vectors:

 A1 = (  12.4462130000,   8.1757390000,   0.0000000000)
 A2 = (   3.6480740000,   8.1757390000,   0.0000000000)
 A3 = (   1.8353800000,  -0.8033950000,   8.7300880000)

Analysis of symmetry for initial positions (statically):
 Subroutine PRICEL returns:
 Original cell was already a primitive cell.

 Routine SETGRP: Setting up the symmetry group for a
 triclinic supercell.

 Subroutine GETGRP returns: Found  2 space group operations
 (whereof  2 operations were pure point group operations)
 out of a pool of  2 trial point group operations.

The static configuration has the point symmetry S_2 .

Analysis of symmetry for dynamics (positions and initial velocities):
 Subroutine PRICEL returns:
 Original cell was already a primitive cell.

[...]

The dynamic configuration has the point symmetry S_2 .

Analysis of structural, dynamic, and magnetic symmetry:
 Subroutine PRICEL returns:
 Original cell was already a primitive cell.

 Routine SETGRP: Setting up the symmetry group for a
 triclinic supercell.

 Subroutine GETGRP returns: Found  2 space group operations
 (whereof  2 operations were pure point group operations)
 out of a pool of  2 trial point group operations.

The overall configuration has the point symmetry S_2 .

 Subroutine INISYM returns: Found  2 space group operations
 (whereof  2 operations are pure point group operations),
 and found     1 'primitive' translations

                                     Primitive cell

  volume of cell :     627.9665

  direct lattice vectors                    reciprocal lattice vectors
     8.798139000  0.000000000  0.000000000     0.113660400 -0.050716094 -0.028562723
    -3.648074000 -8.175739000  0.000000000     0.000000000 -0.122313102 -0.011255984
    -1.835380000  0.803395000 -8.730088000     0.000000000 -0.000000000 -0.114546383

  length of vectors
[...]
  290                map_forward                           0.000347                    4   7
  291                  map_gather                            0.000060                  2   8
  292                  m_alltoallv_z                         0.000030                  2   8
  293                  map_scatter                           0.000219                  2   8
  294                map_backward                          0.000128                    2   7
  295                  map_gather                            0.000031                  1   8
  296                  m_alltoallv_z                         0.000013                  1   8
  297                  map_scatter                           0.000059                  1   8
  298          m_sumb_d                              0.000010                          2   4
  299          pothar                                0.000105                          1   4
  300            m_sumb_d                              0.000019                        1   5
  301        brmix                                 0.021881                            1   3
  302          m_sumb_d                              0.000057                          6   4
  303          brpre                                 0.000056                          2   4
  304          setg0                                 0.003064                          1   4
  305          broyd                                 0.015783                          1   4
  306            m_sumb_d                              0.000285                       50   5
  307            brget                                 0.003060                      224   5
  308            brsav                                 0.000630                       48   5
  309        m_bcast_d                             0.000125                            2   3
  310      potlok                                0.082588                              2   2
  311        fft3d_mpi                             0.049809                           36   3
  312          fftbrc_mpi                            0.042208                         36   4
  313            fftbas_plan_mpi                       0.042181                       36   5
  314              map_forward                           0.011925                     40   6
  315                map_gather                            0.003167                   24   7
  316                m_alltoallv_z                         0.005219                   24   7
  317                map_scatter                           0.003280                   24   7
  318              map_backward                          0.008882                     32   6
  319                map_gather                            0.002659                   16   7
  320                m_alltoallv_z                         0.003105                   16   7
  321                map_scatter                           0.002833                   16   7
  322              dfftw_execute                         0.019535                     30   6
  323        m_sumb_d                              0.000026                            5   3
  324        pothar                                0.003362                            2   3
  325          m_sumb_d                              0.000079                          2   4
  326        m_bcast_d                             0.005638                            4   3
  327      potlok_metagga                        0.000000                              1   2
  328      set_dd_magatom                        0.000004                              1   2
  329      set_dd_paw                            4.888408                              1   2
  330        m_sumb_d                              0.691136                            7   3
  331      augmentation_charge                   0.327869                              1   2
  332        fft3d_mpi                             0.136927                            2   3
  333          fftbrc_mpi                            0.115804                          2   4
  334            fftbas_plan_mpi                       0.115800                        2   5
  335              dfftw_execute                         0.071750                      6   6
  336              map_backward                          0.043749                      4   6
  337                map_gather                            0.016603                    2   7
  338                m_alltoallv_z                         0.011717                    2   7
  339                map_scatter                           0.015418                    2   7
  340      fftwav_mpi                           14.726614                           6552   2
  341        fftwav                               14.718307                         6552   3
  342          fft3d                                13.604289                       6552   4
  343      densta                               17.228142                              1   2

 Flat profile

 set_dd_paw                            214.416284          51
 eddav                                 118.144758          53
 raccmu_                               113.108626      204211
 lapack                                 94.354904      204211
 m_sumb_d                               80.440819      619205
 redis_pw                               50.205504     1112538
 total_time                             28.129396           1
 densta                                 26.124305          54
 fft3d                                  22.494280     1219101
 m_alltoall_d                           21.542482     2985626
 phaser                                 14.914330        1666
 eccp                                   13.791826      115752
 setdij_                                13.631043          77
 init_acc                               12.760488           1
 dfftw_execute                          11.015612        1656
 orth1                                  10.759722      612913
 redis_proj                              9.356375     1405236
 augmentation_charge                     9.275983          50
 fftwav                                  9.098611      810679
 hamiltmu                                7.605659      204211
 rpromu_acc                              6.809567      153615
 racc0mu_acc                             6.022584      204211
 w1_copy                                 5.935097     1225266
 overl                                   5.768263      701120
 m_bcast_z                               5.621393      212947
 soft_charge                             4.222342          49
 setup_precond                           4.217070      115752
 ggemm                                   4.188466      262087
 m_bcast_d                               3.421239      408529
 overl_mu                                3.206362      204211
 fft3d_mpi                               2.928540      410299
 pw_charge                               2.893397       74643
 acc_init_cublas                         2.431377           1
 map_scatter                             2.105852        2097
 m_alltoallv_z                           2.075296        2097
 map_gather                              1.975797        2097
 vhamil                                  1.880661      408422
 kinhamil                                1.838007      408422
 depsum                                  1.783765          49
 fftext_mpi                              1.721018      408422
 newband                                 1.719159      205695
 apply_precond                           1.572504      292670
 rpro_isp                                1.516728         182
 set_charge                              1.152035          49
 fftwav_mpi                              1.080396      810679
 acc_init_cusolver                       0.793888           1
 sphpro_fast                             0.758240           2
 rspher_all                              0.562932          14
 potlok                                  0.448589          51
 broyd                                   0.299181          49
 elmin                                   0.265833           1
 brmix                                   0.200913          49
 proall                                  0.151572           1
 w1_projall                              0.143437      146335
 acc_cufft_makeplan                      0.137586          19
 setg0                                   0.121213          51
 fftbas_plan_mpi                         0.120713        1877
 orthch                                  0.099816           1
 brget                                   0.086628        6332
 lincom                                  0.063798        1512
 force_and_stress                        0.057237           1
 stufak                                  0.047730           1
 truncate_high_frequency_w1              0.041392      524174
 choleski                                0.022317          28
 brsav                                   0.020628        1527
 map_backward                            0.015652        1962
 map_forward                             0.013113        1792
 strnlr                                  0.010431           1
 fft_gq                                  0.009423          49
 pothar                                  0.008080          52
 forhar                                  0.004836           2
 strkin                                  0.004537           1
 inisym                                  0.004524           1
 strelo                                  0.004208           1
 fornlr                                  0.003590           1
 strehar                                 0.003260           1
 brpre                                   0.003006          98
 rsp                                     0.002839           1
 forloc                                  0.002409           1
 fftbrc_mpi                              0.001317        1877
 brgrid                                  0.000423           1
 chggra                                  0.000402           1
 fewald                                  0.000356           1
 vectorpot                               0.000299          50
 set_dd_magatom                          0.000238          51
 fordep                                  0.000235           1
 rcp                                     0.000079           1
 posmap                                  0.000029           2
 crpa_reader                             0.000028           1
 acc_cufft_makeplans                     0.000012           3
 potlok_metagga                          0.000009          50
 rotate_active_occupied_orbital          0.000001           1
 redis_pw_over_bands                     0.000000           1
  summed up times     963.7949039936066

 Accumulative profile

 total_time                            963.794904           1
 elmin                                 855.788987           1
 eddav                                 562.114183          53
 set_dd_paw                            247.717874          51
 hamiltmu                              138.378495      204211
 raccmu_                               122.337573      204211
 lapack                                 94.354904      204211
 m_sumb_d                               80.440819      619205
 redis_pw                               61.361718     1112538
 fftwav_mpi                             29.801820      810679
 set_charge                             29.185272          49
 newband                                28.785753      205695
 fftwav                                 28.721424      810679
 densta                                 26.124305          54
 setdij_                                25.620047          77
 fft3d_mpi                              23.123358      410299
 fft3d                                  22.494280     1219101
 m_alltoall_d                           21.542482     2985626
 force_and_stress                       21.044327           1
 redis_proj                             19.742643     1405236
 fftbrc_mpi                             17.323352        1877
 fftbas_plan_mpi                        17.322035        1877
 augmentation_charge                    16.250988          50
 phaser                                 14.914330        1666
 eccp                                   13.791826      115752
 init_acc                               12.760488           1
 dfftw_execute                          11.015612        1656
 orth1                                  10.759722      612913
 soft_charge                            10.120852          49
 rpromu_acc                              6.809567      153615
 kinhamil                                6.554602      408422
 racc0mu_acc                             6.022584      204211
 w1_copy                                 5.935097     1225266
 overl                                   5.768263      701120
 m_bcast_z                               5.621393      212947
 strnlr                                  5.172611           1
 rpro_isp                                5.020296         182
 fftext_mpi                              4.716595      408422
 w1_projall                              4.403133      146335
 setup_precond                           4.217070      115752
 ggemm                                   4.188466      262087
 m_bcast_d                               3.421239      408529
 overl_mu                                3.206362      204211
 map_forward                             3.163853        1792
 map_backward                            3.021857        1962
 pw_charge                               2.893397       74643
 acc_init_cublas                         2.431377           1
 map_scatter                             2.105852        2097
 m_alltoallv_z                           2.075296        2097
 fordep                                  1.975896           1
 map_gather                              1.975797        2097
 vhamil                                  1.880661      408422
 depsum                                  1.807898          49
 fornlr                                  1.725170           1
 apply_precond                           1.572504      292670
 potlok                                  0.930508          51
 acc_init_cusolver                       0.793888           1
 sphpro_fast                             0.791299           2
 brmix                                   0.744970          49
 orthch                                  0.594111           1
 rspher_all                              0.562932          14
 proall                                  0.472665           1
 broyd                                   0.415005          49
 fft_gq                                  0.244023          49
 acc_cufft_makeplans                     0.137598           3
 acc_cufft_makeplan                      0.137586          19
 setg0                                   0.121213          51
 brget                                   0.086628        6332
 lincom                                  0.063798        1512
 stufak                                  0.047730           1
 truncate_high_frequency_w1              0.041392      524174
 choleski                                0.022317          28
 brsav                                   0.020628        1527
 pothar                                  0.008675          52
 forloc                                  0.005022           1
 forhar                                  0.004884           2
 inisym                                  0.004553           1
 strkin                                  0.004553           1
 strelo                                  0.004218           1
 fewald                                  0.003406           1
 strehar                                 0.003276           1
 brpre                                   0.003006          98
 rsp                                     0.002839           1
 chggra                                  0.001228           1
 brgrid                                  0.000423           1
 vectorpot                               0.000299          50
 set_dd_magatom                          0.000238          51
 rcp                                     0.000079           1
 posmap                                  0.000029           2
 crpa_reader                             0.000028           1
 potlok_metagga                          0.000009          50
 rotate_active_occupied_orbital          0.000001           1
 redis_pw_over_bands                     0.000000           1

Profiling took   2.486996  1.252314  0.003088  0.002982 seconds
Profiling took   1.591507 seconds