 vasp.6.3.2 27Jun22 (build Jul  3 2023 11:46:21) complex
 executed on    LinuxNV_CrayMPICH date 2024.04.22  03:19:18

 INCAR:
   ALGO = Fast
   EDIFF = 0.0014
   EFIELD_PEAD = 0.0 0.0 0.0
   ENCUT = 520.0
   IBRION = 2
   ICHARG = 1
   ISIF = 3
   ISMEAR = 0
   ISPIN = 2
   ISTART = 1
   LCALCEPS = False
   LCALCPOL = False
   LEFG = False
   LORBIT = 11
   LPEAD = False
   LREAL = Auto
   LWAVE = False
   MAGMOM = 4*7.0 24*0.6
   NELM = 1000
   NSW = 99
   PREC = accurate
   SIGMA = 0.2

 POTCAR:    PAW_PBE Eu 23Dec2003
 POTCAR:    PAW_PBE Yb_2 06Sep2000
 POTCAR:    PAW_PBE Se 06Sep2000
 POTCAR:    PAW_PBE Eu 23Dec2003
   VRHFIN =Eu : [core=Kr4d]

   TITEL  = PAW_PBE Eu 23Dec2003
   POMASS =  151.965; ZVAL   =   17.000    mass and valenz
   ENMAX  =  249.668; ENMIN  =  187.251 eV

   TITEL  = PAW_PBE Yb_2 06Sep2000
   POMASS =  173.040; ZVAL   =    8.000    mass and valenz
   ENMAX  =  112.578; ENMIN  =   84.433 eV

   TITEL  = PAW_PBE Se 06Sep2000
   POMASS =   78.960; ZVAL   =    6.000    mass and valenz
   ENMAX  =  211.555; ENMIN  =  158.666 eV

 Optimization of the real space projectors (new method)

 maximal supplied QI-value         = 13.42
 optimisation between [QCUT,QGAM] = [ 11.67, 23.35] = [ 38.16,152.62] Ry
 Optimized for a Real-space Cutoff    1.63 Angstroem

   l    n(q)    QCUT    max X(q) W(low)/X(q) W(high)/X(q)  e(spline)
   0     11    11.673    10.400    0.14E-04    0.18E-05    0.24E-07
   0     11    11.673    10.768    0.21E-04    0.32E-05    0.49E-07
   1     11    11.673     4.094    0.40E-05    0.13E-04    0.93E-07
   1     11    11.673     4.009    0.11E-04    0.46E-04    0.33E-06
   2     10    11.673    29.030    0.79E-04    0.60E-04    0.70E-06
   2     10    11.673    19.941    0.80E-04    0.60E-04    0.71E-06
   3     10    11.673    88.889    0.23E-03    0.29E-03    0.30E-06
   3     10    11.673    76.102    0.23E-03    0.30E-03    0.30E-06
 Optimization of the real space projectors (new method)

[...]

   l    n(q)    QCUT    max X(q) W(low)/X(q) W(high)/X(q)  e(spline)
   0     13    11.610    37.655    0.45E-04    0.19E-04    0.34E-06
   0     13    11.610    17.791    0.29E-04    0.15E-04    0.27E-06
   1     13    11.610    36.143    0.15E-04    0.51E-06    0.99E-06
   1     13    11.610    36.445    0.16E-04    0.54E-06    0.10E-05
   2     12    11.610    14.662    0.21E-03    0.42E-03    0.57E-05
   2     12    11.610    15.811    0.17E-03    0.35E-03    0.47E-05
 Optimization of the real space projectors (new method)

 maximal supplied QI-value         = 17.95
 optimisation between [QCUT,QGAM] = [ 11.67, 23.34] = [ 38.13,152.52] Ry
 Optimized for a Real-space Cutoff    1.25 Angstroem

   l    n(q)    QCUT    max X(q) W(low)/X(q) W(high)/X(q)  e(spline)
   0      9    11.669   133.320    0.17E-03    0.44E-04    0.69E-07
   0      9    11.669   111.601    0.18E-03    0.46E-04    0.72E-07
   1      8    11.669    47.222    0.22E-03    0.37E-03    0.10E-06
   1      8    11.669    33.775    0.22E-03    0.36E-03    0.10E-06
   2      8    11.669     3.720    0.19E-03    0.46E-04    0.50E-07
  PAW_PBE Eu 23Dec2003                  :
  PAW_PBE Yb_2 06Sep2000                :
  PAW_PBE Se 06Sep2000                  :

 POSCAR: Yb8 Eu4 Se16
  positions in direct lattice
 exchange correlation table for  LEXCH =        8
   RHO(1)=    0.500       N(1)  =     2000
   RHO(2)=  100.500       N(2)  =     4000

 VTST: version 4.2, (08/11/21)

 CHAIN: initializing optimizer

 OPT: Using VASP Conjugate-Gradient optimizer
 CHAIN: Read ICHAIN             0

 POSCAR: Yb8 Eu4 Se16
  positions in direct lattice

 ion  position               nearest neighbor table
   1  0.250  0.260  0.830-  19 3.09  19 3.09  28 3.10  28 3.10  20 3.15  20 3.15
   2  0.750  0.240  0.330-  16 3.09  16 3.09  21 3.10  21 3.10  23 3.15  23 3.15
   3  0.250  0.760  0.670-  13 3.09  13 3.09  14 3.10  14 3.10  15 3.15  15 3.15
   4  0.750  0.740  0.170-  24 3.09  24 3.09  27 3.10  27 3.10  26 3.15  26 3.15
   5  0.250  0.413  0.097-  16 2.85  22 2.91  22 2.91  26 2.92  20 3.01  20 3.01
   6  0.250  0.433  0.608-  25 2.88  19 2.94  19 2.94  21 2.99  14 2.99  14 2.99
   7  0.750  0.067  0.108-  18 2.88  16 2.94  16 2.94  28 2.99  27 2.99  27 2.99
   8  0.750  0.567  0.392-  22 2.88  24 2.94  24 2.94  14 2.99  21 2.99  21 2.99
   9  0.750  0.587  0.903-  13 2.85  25 2.91  25 2.91  20 2.92  26 3.01  26 3.01
  10  0.750  0.087  0.597-  19 2.85  17 2.91  17 2.91  15 2.92  23 3.01  23 3.01
  11  0.250  0.933  0.892-  17 2.88  13 2.94  13 2.94  27 2.99  28 2.99  28 2.99
  12  0.250  0.913  0.403-  24 2.85  18 2.91  18 2.91  23 2.92  15 3.01  15 3.01
  13  0.750  0.794  0.815-   9 2.85  11 2.94  11 2.94   3 3.09   3 3.09
  14  0.750  0.605  0.586-   8 2.99   6 2.99   6 2.99   3 3.10   3 3.10
  15  0.750  0.858  0.537-  10 2.92  12 3.01  12 3.01   3 3.15   3 3.15
  16  0.250  0.206  0.185-   5 2.85   7 2.94   7 2.94   2 3.09   2 3.09
  17  0.250  0.024  0.718-  11 2.88  10 2.91  10 2.91
  18  0.750  0.976  0.282-   7 2.88  12 2.91  12 2.91
  19  0.750  0.294  0.685-  10 2.85   6 2.94   6 2.94   1 3.09   1 3.09
  20  0.750  0.358  0.963-   9 2.92   5 3.01   5 3.01   1 3.15   1 3.15
  21  0.250  0.395  0.414-   6 2.99   8 2.99   8 2.99   2 3.10   2 3.10
  22  0.750  0.476  0.218-   8 2.88   5 2.91   5 2.91
  23  0.250  0.142  0.463-  12 2.92  10 3.01  10 3.01   2 3.15   2 3.15
  24  0.250  0.706  0.315-  12 2.85   8 2.94   8 2.94   4 3.09   4 3.09
  25  0.250  0.524  0.782-   6 2.88   9 2.91   9 2.91
  26  0.250  0.642  0.037-   5 2.92   9 3.01   9 3.01   4 3.15   4 3.15
  27  0.250  0.895  0.086-  11 2.99   7 2.99   7 2.99   4 3.10   4 3.10
  28  0.750  0.105  0.914-   7 2.99  11 2.99  11 2.99   1 3.10   1 3.10

  LATTYP: Found a simple orthorhombic cell.
 ALAT       =     4.2202669400
 B/A-ratio  =     2.8679785170
 C/A-ratio  =     3.6109475317

  Lattice vectors:

 A1 = (   4.2202669400,   0.0000000000,   0.0000000000)
 A2 = (   0.0000000000,  12.1036349200,   0.0000000000)
 A3 = (   0.0000000000,   0.0000000000,  15.2391624900)

Analysis of symmetry for initial positions (statically):
 Subroutine PRICEL returns:
 Original cell was already a primitive cell.

 Routine SETGRP: Setting up the symmetry group for a
 simple orthorhombic supercell.

 Subroutine GETGRP returns: Found  8 space group operations
 (whereof  2 operations were pure point group operations)
 out of a pool of  8 trial point group operations.

The static configuration has the point symmetry S_2 .
 The point group associated with its full space group is D_2h.

Analysis of symmetry for dynamics (positions and initial velocities):
 Subroutine PRICEL returns:
 Original cell was already a primitive cell.

[...]

The dynamic configuration has the point symmetry S_2 .
 The point group associated with its full space group is D_2h.

Analysis of structural, dynamic, and magnetic symmetry:
 Subroutine PRICEL returns:
 Original cell was already a primitive cell.

 Routine SETGRP: Setting up the symmetry group for a
 simple orthorhombic supercell.

 Subroutine GETGRP returns: Found  8 space group operations
 (whereof  2 operations were pure point group operations)
 out of a pool of  8 trial point group operations.

The overall configuration has the point symmetry S_2 .
 The point group associated with its full space group is D_2h.

 Subroutine INISYM returns: Found  8 space group operations
 (whereof  2 operations are pure point group operations),
 and found     1 'primitive' translations

                                     Primitive cell

  volume of cell :     778.4251

  direct lattice vectors                    reciprocal lattice vectors
     4.220266940  0.000000000  0.000000000     0.236951836  0.000000000  0.000000000
     0.000000000 12.103634920  0.000000000     0.000000000  0.082619809  0.000000000
     0.000000000  0.000000000 15.239162490     0.000000000  0.000000000  0.065620404

  length of vectors
     4.220266940 12.103634920 15.239162490     0.236951836  0.082619809  0.065620404

  position of ions in fractional coordinates (direct lattice)
     0.250000000  0.260321110  0.830488750
     0.750000000  0.239678890  0.330488750
     0.250000000  0.760321110  0.669511250
     0.750000000  0.739678890  0.169511250
     0.250000000  0.412536110  0.096577140
     0.250000000  0.432646830  0.608004310
     0.750000000  0.067353170  0.108004310
     0.750000000  0.567353170  0.391995690
     0.750000000  0.587463890  0.903422860
     0.750000000  0.087463890  0.596577140
     0.250000000  0.932646830  0.891995690
     0.250000000  0.912536110  0.403422860
     0.750000000  0.794441450  0.814720720
     0.750000000  0.605368470  0.585741470
     0.750000000  0.858000040  0.537417050
     0.250000000  0.205558550  0.185279280
     0.250000000  0.024332010  0.717856970
     0.750000000  0.975667990  0.282143030
     0.750000000  0.294441450  0.685279280
     0.750000000  0.358000040  0.962582950
     0.250000000  0.394631530  0.414258530
     0.750000000  0.475667990  0.217856970
     0.250000000  0.141999960  0.462582950
     0.250000000  0.705558550  0.314720720
     0.250000000  0.524332010  0.782143030
     0.250000000  0.641999960  0.037417050
     0.250000000  0.894631530  0.085741470
     0.750000000  0.105368470  0.914258530

  ion indices of the primitive-cell ions
   primitive index   ion index
                 1           1
                 2           2
                 3           3
                 4           4
                 5           5
                 6           6
                 7           7
                 8           8
                 9           9
                10          10
                11          11
                12          12
                13          13
                14          14
                15          15
                16          16
                17          17
                18          18
                19          19
                20          20
                21          21
                22          22
                23          23
                24          24
                25          25
                26          26
                27          27
                28          28

 KPOINTS: Kpoints from vasprun.xml

Automatic generation of k-mesh.
 Grid dimensions read from file:
 generate k-points for:    7    2    2

 Generating k-lattice:

  Cartesian coordinates                     Fractional coordinates (reciprocal lattice)
     0.033850262  0.000000000  0.000000000     0.142857143  0.000000000  0.000000000
     0.000000000  0.041309904  0.000000000     0.000000000  0.500000000  0.000000000
     0.000000000  0.000000000  0.032810202     0.000000000  0.000000000  0.500000000

  Length of vectors
     0.033850262  0.041309904  0.032810202

  Shift w.r.t. Gamma in fractional coordinates (k-lattice)
     0.000000000  0.500000000  0.500000000

 Subroutine IBZKPT returns following result:

 Found      4 irreducible k-points:

 Following reciprocal coordinates:
            Coordinates               Weight
  0.000000  0.250000  0.250000      4.000000
  0.142857  0.250000  0.250000      8.000000
  0.285714  0.250000  0.250000      8.000000
[...]
  325          m_sumb_d                              0.000691                         66   4
  326          brpre                                 0.000825                         22   4
  327          setg0                                 0.030185                         11   4
  328          broyd                                 0.024323                         11   4
  329            m_sumb_d                              0.001689                      200   5
  330            brsav                                 0.002994                      182   5
  331            brget                                 0.007926                      714   5
  332        m_bcast_d                             0.000355                           22   3
  333      potlok                                0.106739                             11   2
  334        fft3d_mpi                             0.064805                          286   3
  335          fftbrc_mpi                            0.051423                        286   4
  336            fftbas_plan_mpi                       0.051283                      286   5
  337              map_forward                           0.022531                    308   6
  338                map_gather                            0.004631                  176   7
  339                m_alltoallv_z                         0.002278                  176   7
  340                map_scatter                           0.013014                  176   7
  341              map_backward                          0.019863                    264   6
  342                map_gather                            0.004170                  132   7
  343                m_alltoallv_z                         0.001746                  132   7
  344                map_scatter                           0.010929                  132   7
  345        m_sumb_d                              0.000325                           55   3
  346        pothar                                0.001165                           11   3
  347          m_sumb_d                              0.000118                         11   4
  348        m_bcast_d                             0.000281                           22   3
  349      potlok_metagga                        0.000002                             11   2
  350      set_dd_magatom                        0.000042                             11   2
  351      set_dd_paw                            0.269503                             11   2
  352        m_sumb_d                              0.006160                           77   3
  353      wavpre_noio                           0.555715                             10   2
  354        stufak                                0.325606                           10   3
  355      densta                                0.006317                              1   2
  356        m_sumb_d                              0.001558                           42   3

 Flat profile

 raccmu_                                17.818807       32267
 eccp                                   16.323293      172895
 total_time                             11.902764           1
 init_acc                               11.579918           1
 phaser                                 10.841562        1676
 setdij_                                 9.182858         432
 i2                                      8.492377       23098
 eccp_nl                                 7.159005      128735
 redis_pw                                6.760440       63422
 m_sumb_d                                6.556371       43699
 w1_gemv                                 5.953344      247298
 eddrmm                                  5.461617         123
 eddav                                   5.023659          15
 rspher_all                              4.501439         144
 rpromu_acc                              4.318640       41307
 lapack                                  4.272280        9169
 set_dd_paw                              3.765514         156
 m_alltoall_d                            3.760023      583726
 cnorma                                  3.526261      128735
 eddiag                                  3.520891         123
 fftwav                                  3.381009      277685
 augmentation_charge                     3.299919         134
 fft3d                                   2.954875      424852
 set_charge                              2.901237         134
 hamilt_local                            2.752997       39360
 rpro_isp                                2.574039         572
 acc_init_cublas                         2.460712           1
 soft_charge                             2.117914         134
 overl1                                  2.014368      123649
 w1_copy                                 1.662753      323421
 setup_precond                           1.564641       44160
 hamiltmu                                1.458116       32267
 w1_dscal                                1.439831      239749
 pw_charge                               1.294654       31907
 newband                                 1.219054       33371
 potlok                                  1.143634         145
 w1_dot                                  1.128192       39313
 racc0mu_acc                             1.098642       32267
 apply_precond                           1.027915      223642
 redis_proj                              1.012546       70160
 w1_daxpy                                0.993928      178844
 w1_gaxpy                                0.848851      170791
 fft3d_mpi                               0.846719      151765
 acc_init_cusolver                       0.785000           1
 depsum                                  0.709008         134
 orth1                                   0.706724       37787
 dfftw_execute                           0.691347        1659
 elmin                                   0.673066          11
 kinhamil                                0.632279      147167
 vhamil                                  0.618419      147167
 fftext_mpi                              0.581763      147167
 m_alltoallv_z                           0.578684        5156
 map_scatter                             0.506848        5156
 overl_mu                                0.500622       32267
 m_bcast_z                               0.445286       10449
 zhegv                                   0.396140       50109
 brmix                                   0.386494         134
 orthch                                  0.384493         134
 proall                                  0.376300          11
 fftwav_mpi                              0.368222      277685
 map_gather                              0.365752        5156
 setg0                                   0.359045         156
 stufak                                  0.357463          11
 choleski                                0.347619        1072
 overl                                   0.285466       33932
 force_and_stress                        0.239061          11
 i3                                      0.232455       23098
 wavpre_noio                             0.230109          10
 fftbas_plan_mpi                         0.174847        4598
 acc_cufft_makeplan                      0.160803          19
 sphpro_fast                             0.156655          12
 m_bcast_d                               0.152113       18673
 ggemm                                   0.148948       11569
 broyd                                   0.083614         134
 lincom                                  0.066740        2176
 brget                                   0.062018        5615
 densta                                  0.059787         139
 forhar                                  0.057651          22
 strelo                                  0.047167          11
 map_backward                            0.044900        4838
 map_forward                             0.037876        4358
 strehar                                 0.035540          11
 forloc                                  0.029197          11
 w1_projall                              0.028667       29867
 i1                                      0.028052       23098
 fft_gq                                  0.027180         134
 strnlr                                  0.023982          11
 brsav                                   0.018703        1585
 pothar                                  0.014818         156
 strkin                                  0.012353          11
 truncate_high_frequency_w1              0.011453      151967
 rsp                                     0.010920          11
 brpre                                   0.008182         268
 fornlr                                  0.007752          11
 inisym                                  0.004561           1
 chggra                                  0.003166          11
 fftbrc_mpi                              0.002371        4598
 fordep                                  0.000927          11
 vectorpot                               0.000725         135
 set_dd_magatom                          0.000642         156
 brgrid                                  0.000444           1
 fewald                                  0.000401          11
 rcp                                     0.000294          11
 shift_bands_between_low_high            0.000138         984
 posmap                                  0.000070           2
 crpa_reader                             0.000029           1
 potlok_metagga                          0.000013         145
 acc_cufft_makeplans                     0.000010           3
 rotate_active_occupied_orbital          0.000006          11
 redis_pw_over_bands                     0.000000          11
  summed up times     205.1989850997925

 Accumulative profile

 total_time                            205.198985           1
 elmin                                 151.441904          11
 eddrmm                                 84.880004         123
 i3                                     25.161665       23098
 eddav                                  24.916221          15
 force_and_stress                       23.084838          11
 hamiltmu                               23.010272       32267
 i2                                     21.835807       23098
 raccmu_                                19.418071       32267
 eccp                                   16.323293      172895
 set_charge                             15.894716         134
 eddiag                                 12.262931         123
 init_acc                               11.579918           1
 strnlr                                 11.219215          11
 phaser                                 10.841562        1676
 cnorma                                 10.685266      128735
 setdij_                                 9.385290         432
 newband                                 8.748218       33371
 redis_pw                                8.520248       63422
 w1_gemv                                 7.967712      247298
 rpro_isp                                7.348211         572
 eccp_nl                                 7.159005      128735
 m_sumb_d                                6.556371       43699
 soft_charge                             5.996882         134
 fftwav_mpi                              5.731493      277685
 orthch                                  5.492414         134
 fftwav                                  5.363271      277685
 augmentation_charge                     4.658559         134
 rspher_all                              4.501439         144
 rpromu_acc                              4.318640       41307
 lapack                                  4.272280        9169
 fft3d_mpi                               4.221957      151765
 set_dd_paw                              3.841602         156
 m_alltoall_d                            3.760023      583726
 fornlr                                  3.749726          11
 hamilt_local                            3.466058       39360
 redis_proj                              3.012762       70160
 fft3d                                   2.954875      424852
 acc_init_cublas                         2.460712           1
 fftbrc_mpi                              2.402625        4598
 fftbas_plan_mpi                         2.400254        4598
 kinhamil                                2.228727      147167
 potlok                                  2.167520         145
 overl1                                  2.014368      123649
 w1_copy                                 1.662753      323421
 fftext_mpi                              1.596448      147167
 setup_precond                           1.564641       44160
 w1_dscal                                1.439831      239749
 fordep                                  1.421546          11
 depsum                                  1.327520         134
 pw_charge                               1.294654       31907
 w1_dot                                  1.128192       39313
 racc0mu_acc                             1.098642       32267
 map_backward                            1.030586        4838
 w1_projall                              1.029465       29867
 apply_precond                           1.027915      223642
 w1_daxpy                                0.993928      178844
 brmix                                   0.943887         134
 w1_gaxpy                                0.848851      170791
 proall                                  0.829650          11
 acc_init_cusolver                       0.785000           1
 fft_gq                                  0.721760         134
 orth1                                   0.706724       37787
 dfftw_execute                           0.691347        1659
 vhamil                                  0.618419      147167
 m_alltoallv_z                           0.578684        5156
 wavpre_noio                             0.555715          10
 map_scatter                             0.506848        5156
 map_forward                             0.503474        4358
 overl_mu                                0.500622       32267
 m_bcast_z                               0.445286       10449
 i1                                      0.424500       23098
 zhegv                                   0.396140       50109
 map_gather                              0.365752        5156
 setg0                                   0.359045         156
 stufak                                  0.357463          11
 choleski                                0.347619        1072
 overl                                   0.285466       33932
 broyd                                   0.180005         134
 acc_cufft_makeplans                     0.160813           3
 acc_cufft_makeplan                      0.160803          19
 sphpro_fast                             0.160652          12
 m_bcast_d                               0.152113       18673
 ggemm                                   0.148948       11569
 densta                                  0.089539         139
 lincom                                  0.066740        2176
 brget                                   0.062018        5615
 forhar                                  0.059687          22
 strelo                                  0.051459          11
 strehar                                 0.035966          11
 forloc                                  0.030139          11
 brsav                                   0.018703        1585
 pothar                                  0.016448         156
 fewald                                  0.013133          11
 strkin                                  0.012470          11
 chggra                                  0.011998          11
 truncate_high_frequency_w1              0.011453      151967
 rsp                                     0.010920          11
 brpre                                   0.008182         268
 inisym                                  0.004631           1
 vectorpot                               0.000725         135
 set_dd_magatom                          0.000642         156
 brgrid                                  0.000444           1
 rcp                                     0.000294          11
 shift_bands_between_low_high            0.000138         984
 posmap                                  0.000070           2
 crpa_reader                             0.000029           1
 potlok_metagga                          0.000013         145
 rotate_active_occupied_orbital          0.000006          11
 redis_pw_over_bands                     0.000000          11

Profiling took   0.526314  0.376864  0.003391  0.003313 seconds
Profiling took   0.429267 seconds