 vasp.6.3.2 27Jun22 (build Jul  3 2023 11:46:21) complex
 executed on    LinuxNV_CrayMPICH date 2024.04.22  02:04:53

 INCAR:
   ADDGRID = True
   ALGO = Normal
   AMIX_MAG = 0.8
   BMIX = 0.001
   BMIX_MAG = 0.001
   EDIFF = 0.00105
   ENCUT = 520.0
   IBRION = -1
   ICHARG = 0
   ISIF = 3
   ISMEAR = -5
   ISPIN = 2
   ISTART = 1
   KPOINT_BSE = -1 0 0 0
   LAECHG = True
   LASPH = True
   LCHARG = True
   LELF = True
   LORBIT = 11
   LREAL = Auto
   LVHAR = True
   LWAVE = False
   MAGMOM = 2*7.0 12*5.0 7*0.6
   NELM = 1000
   NELMDL = -6
   NSW = 0
   PREC = accurate
   SIGMA = 0.05

 POTCAR:    PAW_PBE Gd 23Dec2003
 POTCAR:    PAW_PBE Fe_pv 02Aug2007
 POTCAR:    PAW_PBE P 06Sep2000
 POTCAR:    PAW_PBE Gd 23Dec2003
   VRHFIN =Gd : [core=Xe4]

   TITEL  = PAW_PBE Gd 23Dec2003
   POMASS =  157.250; ZVAL   =   18.000    mass and valenz
   ENMAX  =  256.472; ENMIN  =  192.354 eV

   TITEL  = PAW_PBE Fe_pv 02Aug2007
   POMASS =   55.847; ZVAL   =   14.000    mass and valenz
   ENMAX  =  293.238; ENMIN  =  219.928 eV

   TITEL  = PAW_PBE P 06Sep2000
   POMASS =   30.974; ZVAL   =    5.000    mass and valenz
   ENMAX  =  255.040; ENMIN  =  191.280 eV

 Optimization of the real space projectors (new method)

 maximal supplied QI-value         = 13.42
 optimisation between [QCUT,QGAM] = [ 11.67, 23.35] = [ 38.16,152.62] Ry
 Optimized for a Real-space Cutoff    1.63 Angstroem

   l    n(q)    QCUT    max X(q) W(low)/X(q) W(high)/X(q)  e(spline)
   0     11    11.673    10.501    0.14E-04    0.17E-05    0.21E-07
   0     11    11.673     9.148    0.21E-04    0.32E-05    0.45E-07
   1     11    11.673     4.035    0.33E-05    0.11E-04    0.84E-07
   1     11    11.673     4.388    0.11E-04    0.47E-04    0.34E-06
   2     10    11.673    20.656    0.12E-04    0.28E-04    0.54E-06
   2     10    11.673    12.651    0.11E-04    0.26E-04    0.51E-06
   3     10    11.673    61.921    0.19E-03    0.22E-03    0.23E-06
   3     10    11.673    48.328    0.20E-03    0.23E-03    0.23E-06
 Optimization of the real space projectors (new method)

[...]

   l    n(q)    QCUT    max X(q) W(low)/X(q) W(high)/X(q)  e(spline)
   1     10    11.565     4.267    0.91E-04    0.15E-03    0.13E-06
   1     10    11.565     5.750    0.14E-03    0.22E-03    0.20E-06
   2      9    11.565    53.656    0.13E-03    0.57E-04    0.16E-06
   2      9    11.565    49.521    0.13E-03    0.59E-04    0.16E-06
   0     10    11.565    31.246    0.61E-04    0.74E-05    0.89E-07
   0     10    11.565    12.201    0.44E-04    0.68E-05    0.74E-07
 Optimization of the real space projectors (new method)

 maximal supplied QI-value         = 19.84
 optimisation between [QCUT,QGAM] = [ 11.51, 23.22] = [ 37.09,150.92] Ry
 Optimized for a Real-space Cutoff    1.21 Angstroem

   l    n(q)    QCUT    max X(q) W(low)/X(q) W(high)/X(q)  e(spline)
   0      8    11.508   160.924    0.96E-04    0.17E-03    0.52E-07
   0      8    11.508   130.086    0.95E-04    0.17E-03    0.51E-07
   1      8    11.508    74.434    0.16E-03    0.74E-04    0.91E-07
   1      8    11.508    49.120    0.16E-03    0.71E-04    0.89E-07
  PAW_PBE Gd 23Dec2003                  :
  PAW_PBE Fe_pv 02Aug2007               :
  PAW_PBE P 06Sep2000                   :

 POSCAR: Gd2 Fe12 P7
  positions in direct lattice
 exchange correlation table for  LEXCH =        8
   RHO(1)=    0.500       N(1)  =     2000
   RHO(2)=  100.500       N(2)  =     4000

 VTST: version 4.2, (08/11/21)

 CHAIN: initializing optimizer

 OPT: Using VASP Dynamics algorithm
 CHAIN: Read ICHAIN             0

 POSCAR: Gd2 Fe12 P7
  positions in direct lattice

 ion  position               nearest neighbor table
   1  0.333  0.667  0.000-  20 2.88  20 2.88  18 2.88  18 2.88  19 2.88  19 2.88  10 2.99  10 2.99
                             9 2.99   9 2.99  11 2.99  11 2.99   7 3.07   6 3.07   8 3.07   5 3.16
   2  0.000  0.000  0.500-  15 2.84  15 2.84  16 2.84  16 2.84  17 2.84  17 2.84   5 2.97   5 2.97
                             3 2.97   3 2.97   4 2.97   4 2.97  10 3.10   9 3.10  11 3.10
   3  0.722  0.961  0.000-  15 2.26  17 2.27  19 2.28  19 2.28   7 2.45  11 2.65  11 2.65  12 2.78
                            12 2.78   2 2.97   2 2.97   1 3.16
   4  0.239  0.278  0.000-  16 2.26  15 2.27  20 2.28  20 2.28   8 2.45   9 2.65   9 2.65  13 2.78
                            13 2.78   2 2.97   2 2.97   1 3.16
   5  0.039  0.761  0.000-  17 2.26  16 2.27  18 2.28  18 2.28   6 2.45  10 2.65  10 2.65  14 2.78
                            14 2.78   2 2.97   2 2.97   1 3.16
   6  0.940  0.453  0.000-  21 2.14  15 2.20  18 2.28  18 2.28   5 2.45   9 2.58   9 2.58  12 2.66
                            12 2.66  14 2.69  14 2.69   1 3.07
   7  0.513  0.060  0.000-  21 2.14  16 2.20  19 2.28  19 2.28   3 2.45  10 2.58  10 2.58  13 2.66
                            13 2.66  12 2.69  12 2.69   1 3.07
   8  0.547  0.487  0.000-  21 2.14  17 2.20  20 2.28  20 2.28   4 2.45  11 2.58  11 2.58  14 2.66
                            14 2.66  13 2.69  13 2.69   1 3.07
   9  0.098  0.383  0.500-  15 2.27  15 2.27  20 2.28  18 2.32   6 2.58   6 2.58  12 2.60   4 2.65
                             4 2.65   1 2.99   1 2.99   2 3.10
  10  0.284  0.902  0.500-  16 2.27  16 2.27  18 2.28  19 2.32   7 2.58   7 2.58  13 2.60   5 2.65
                             5 2.65   1 2.99   1 2.99   2 3.10
  11  0.617  0.716  0.500-  17 2.27  17 2.27  19 2.28  20 2.32   8 2.58   8 2.58  14 2.60   3 2.65
                             3 2.65   1 2.99   1 2.99   2 3.10
  12  0.764  0.212  0.500-  19 2.26  21 2.50  21 2.50  15 2.53  15 2.53   9 2.60   6 2.66   6 2.66
                             7 2.69   7 2.69   3 2.78   3 2.78
  13  0.448  0.236  0.500-  20 2.26  21 2.50  21 2.50  16 2.53  16 2.53  10 2.60   7 2.66   7 2.66
                             8 2.69   8 2.69   4 2.78   4 2.78
  14  0.788  0.552  0.500-  18 2.26  21 2.50  21 2.50  17 2.53  17 2.53  11 2.60   8 2.66   8 2.66
                             6 2.69   6 2.69   5 2.78   5 2.78
  15  0.963  0.221  0.000-   6 2.20   3 2.26   9 2.27   9 2.27   4 2.27  12 2.53  12 2.53   2 2.84
                             2 2.84
  16  0.258  0.037  0.000-   7 2.20   4 2.26  10 2.27  10 2.27   5 2.27  13 2.53  13 2.53   2 2.84
                             2 2.84
  17  0.779  0.742  0.000-   8 2.20   5 2.26  11 2.27  11 2.27   3 2.27  14 2.53  14 2.53   2 2.84
                             2 2.84
  18  0.067  0.624  0.500-  14 2.26  10 2.28   6 2.28   6 2.28   5 2.28   5 2.28   9 2.32   1 2.88
                             1 2.88
  19  0.557  0.933  0.500-  12 2.26  11 2.28   7 2.28   7 2.28   3 2.28   3 2.28  10 2.32   1 2.88
                             1 2.88
  20  0.376  0.443  0.500-  13 2.26   9 2.28   8 2.28   8 2.28   4 2.28   4 2.28  11 2.32   1 2.88
                             1 2.88
  21  0.667  0.333  0.000-   8 2.14   6 2.14   7 2.14  12 2.50  12 2.50  14 2.50  14 2.50  13 2.50
                            13 2.50

  LATTYP: Found a hexagonal cell.
 ALAT       =     8.9946993943
 C/A-ratio  =     0.4052553443

  Lattice vectors:

 A1 = (   4.4973500000,  -7.7896380000,   0.0000000000)
 A2 = (   4.4973500000,   7.7896380000,   0.0000000000)
 A3 = (   0.0000000000,   0.0000000000,   3.6451500000)

Analysis of symmetry for initial positions (statically):
 Subroutine PRICEL returns:
 Original cell was already a primitive cell.

 Routine SETGRP: Setting up the symmetry group for a
 hexagonal supercell.

 Subroutine GETGRP returns: Found  6 space group operations
 (whereof  6 operations were pure point group operations)
 out of a pool of 24 trial point group operations.

The static configuration has the point symmetry C_3h.

Analysis of symmetry for dynamics (positions and initial velocities):
 Subroutine PRICEL returns:
 Original cell was already a primitive cell.

[...]

The dynamic configuration has the point symmetry C_3h.

Analysis of structural, dynamic, and magnetic symmetry:
 Subroutine PRICEL returns:
 Original cell was already a primitive cell.

 Routine SETGRP: Setting up the symmetry group for a
 hexagonal supercell.

 Subroutine GETGRP returns: Found  6 space group operations
 (whereof  6 operations were pure point group operations)
 out of a pool of 24 trial point group operations.

The overall configuration has the point symmetry C_3h.

 Subroutine INISYM returns: Found  6 space group operations
 (whereof  6 operations are pure point group operations),
 and found     1 'primitive' translations

                                     Primitive cell

  volume of cell :     255.3991

  direct lattice vectors                    reciprocal lattice vectors
     4.497350000 -7.789638000  0.000000000     0.111176582 -0.064187835  0.000000000
     4.497350000  7.789638000  0.000000000     0.111176582  0.064187835 -0.000000000
     0.000000000  0.000000000  3.645150000    -0.000000000  0.000000000  0.274337133

  length of vectors
     8.994699394  8.994699394  3.645150000     0.128375662  0.128375662  0.274337133

  position of ions in fractional coordinates (direct lattice)
     0.333333000  0.666667000  0.000000000
     0.000000000  0.000000000  0.500000000
     0.721973000  0.961136000  0.000000000
     0.239163000  0.278027000  0.000000000
     0.038864000  0.760837000  0.000000000
     0.940332000  0.453414000  0.000000000
     0.513083000  0.059668000  0.000000000
     0.546586000  0.486917000  0.000000000
     0.098490000  0.382681000  0.500000000
     0.284191000  0.901510000  0.500000000
     0.617319000  0.715809000  0.500000000
     0.764468000  0.212379000  0.500000000
     0.447910000  0.235532000  0.500000000
     0.787621000  0.552090000  0.500000000
     0.963290000  0.221409000  0.000000000
     0.258119000  0.036710000  0.000000000
     0.778591000  0.741881000  0.000000000
     0.066869000  0.623627000  0.500000000
     0.556757000  0.933131000  0.500000000
     0.376373000  0.443243000  0.500000000
     0.666667000  0.333333000  0.000000000

  ion indices of the primitive-cell ions
   primitive index   ion index
                 1           1
                 2           2
                 3           3
                 4           4
                 5           5
                 6           6
                 7           7
                 8           8
                 9           9
                10          10
                11          11
                12          12
                13          13
                14          14
                15          15
                16          16
                17          17
                18          18
                19          19
                20          20
                21          21

 KPOINTS: Kpoints from vasprun.xml

Automatic generation of k-mesh.
 Grid dimensions read from file:
 generate k-points for:    3    3    8

 Generating k-lattice:

  Cartesian coordinates                     Fractional coordinates (reciprocal lattice)
     0.037058861 -0.021395945  0.000000000     0.333333333  0.000000000  0.000000000
     0.037058861  0.021395945 -0.000000000     0.000000000  0.333333333  0.000000000
    -0.000000000  0.000000000  0.034292142     0.000000000  0.000000000  0.125000000

[...]
  290                map_forward                           0.000205                    4   7
  291                  map_gather                            0.000045                  2   8
  292                  m_alltoallv_z                         0.000025                  2   8
  293                  map_scatter                           0.000102                  2   8
  294                map_backward                          0.000092                    2   7
  295                  map_gather                            0.000023                  1   8
  296                  m_alltoallv_z                         0.000011                  1   8
  297                  map_scatter                           0.000045                  1   8
  298          m_sumb_d                              0.000011                          2   4
  299          pothar                                0.000077                          1   4
  300            m_sumb_d                              0.000005                        1   5
  301        brmix                                 0.008066                            1   3
  302          m_sumb_d                              0.000038                          6   4
  303          brpre                                 0.000026                          2   4
  304          setg0                                 0.000995                          1   4
  305          broyd                                 0.005905                          1   4
  306            m_sumb_d                              0.000169                       48   5
  307            brget                                 0.001199                      214   5
  308            brsav                                 0.000254                       46   5
  309        m_bcast_d                             0.000024                            2   3
  310      potlok                                0.035248                              2   2
  311        fft3d_mpi                             0.023060                           36   3
  312          fftbrc_mpi                            0.019722                         36   4
  313            fftbas_plan_mpi                       0.019705                       36   5
  314              map_forward                           0.005653                     40   6
  315                map_gather                            0.001790                   24   7
  316                m_alltoallv_z                         0.002014                   24   7
  317                map_scatter                           0.001639                   24   7
  318              map_backward                          0.004512                     32   6
  319                map_gather                            0.001535                   16   7
  320                m_alltoallv_z                         0.001445                   16   7
  321                map_scatter                           0.001356                   16   7
  322              dfftw_execute                         0.007891                     30   6
  323        m_sumb_d                              0.000025                            5   3
  324        pothar                                0.001374                            2   3
  325          m_sumb_d                              0.000098                          2   4
  326        m_bcast_d                             0.002289                            4   3
  327      potlok_metagga                        0.000000                              1   2
  328      set_dd_magatom                        0.000005                              1   2
  329      set_dd_paw                            2.837984                              1   2
  330        m_sumb_d                              0.925665                            7   3
  331      augmentation_charge                   0.139977                              1   2
  332        fft3d_mpi                             0.044639                            2   3
  333          fftbrc_mpi                            0.039514                          2   4
  334            fftbas_plan_mpi                       0.039510                        2   5
  335              dfftw_execute                         0.026495                      6   6
  336              map_backward                          0.012772                      4   6
  337                map_gather                            0.003209                    2   7
  338                m_alltoallv_z                         0.005205                    2   7
  339                map_scatter                           0.004350                    2   7
  340      fftwav_mpi                            3.794784                           4140   2
  341        fftwav                                3.789781                         4140   3
  342          fft3d                                 3.498393                       4140   4
  343      densta                                4.154126                              1   2

 Flat profile

 set_dd_paw                             84.539573          44
 m_sumb_d                               80.887658      356391
 eddav                                  59.321242          47
 raccmu_                                56.708894      117201
 lapack                                 53.181770      117201
 redis_pw                               27.203608      641226
 total_time                             12.393957           1
 m_alltoall_d                           11.980212     1712574
 init_acc                               11.393369           1
 fft3d                                   8.686840      698802
 densta                                  7.755193          48
 phaser                                  7.044634        1605
 eccp                                    6.547989       64860
 setdij_                                 6.242428          70
 redis_proj                              5.448412      810798
 orth1                                   4.777671      351783
 fftwav                                  4.750640      464400
 augmentation_charge                     4.037236          43
 acc_init_cublas                         3.729154           1
 rpromu_acc                              3.618386       89451
 racc0mu_acc                             3.505520      117201
 w1_copy                                 3.415319      703206
 overl                                   3.403654      403974
 dfftw_execute                           3.386889        1488
 hamiltmu                                3.216893      117201
 m_bcast_z                               2.853293      122721
 soft_charge                             2.387057          42
 setup_precond                           2.374377       64860
 ggemm                                   1.967244      149631
 m_bcast_d                               1.935346      234495
 overl_mu                                1.833428      117201
 pw_charge                               1.206180       38376
 vhamil                                  1.085696      234402
 kinhamil                                1.070822      234402
 acc_init_cusolver                       1.051080           1
 fftext_mpi                              1.012765      234402
 newband                                 0.985542      118611
 depsum                                  0.948845          42
 m_alltoallv_z                           0.941554        1831
 apply_precond                           0.928085      169542
 rpro_isp                                0.897733         195
 map_scatter                             0.651518        1831
 fft3d_mpi                               0.615660      236041
 fftwav_mpi                              0.600550      464400
 map_gather                              0.424316        1831
 set_charge                              0.392830          42
 acc_cufft_makeplan                      0.294262          19
 rspher_all                              0.275315          14
 sphpro_fast                             0.245109           2
 potlok                                  0.191215          44
 elmin                                   0.119325           1
 fftbas_plan_mpi                         0.093961        1639
 w1_projall                              0.088620       84771
 proall                                  0.075939           1
 broyd                                   0.071446          42
 brmix                                   0.061341          42
 lincom                                  0.059235        1440
 setg0                                   0.041934          44
 orthch                                  0.030259           1
 brget                                   0.026060        4677
 choleski                                0.025199          30
 truncate_high_frequency_w1              0.023434      299262
 force_and_stress                        0.019548           1
 map_forward                             0.009713        1568
 stufak                                  0.009479           1
 map_backward                            0.008406        1710
 strnlr                                  0.006065           1
 brsav                                   0.005949        1079
 inisym                                  0.004854           1
 pothar                                  0.004676          45
 fft_gq                                  0.003783          42
 fornlr                                  0.002088           1
 strelo                                  0.001987           1
 forhar                                  0.001590           2
 strehar                                 0.001531           1
 brpre                                   0.001246          84
 strkin                                  0.001206           1
 fftbrc_mpi                              0.000960        1639
 forloc                                  0.000848           1
 rsp                                     0.000479           1
 fewald                                  0.000333           1
 chggra                                  0.000235           1
 brgrid                                  0.000203           1
 set_dd_magatom                          0.000200          44
 vectorpot                               0.000180          43
 fordep                                  0.000103           1
 rcp                                     0.000035           1
 posmap                                  0.000032           2
 crpa_reader                             0.000027           1
 acc_cufft_makeplans                     0.000009           3
 potlok_metagga                          0.000003          43
 rotate_active_occupied_orbital          0.000000           1
 redis_pw_over_bands                     0.000000           1
  summed up times     505.1494781970978

 Accumulative profile

 total_time                            505.149478           1
 elmin                                 453.105623           1
 eddav                                 310.833474          47
 set_dd_paw                            125.682288          44
 m_sumb_d                               80.887658      356391
 hamiltmu                               70.175991      117201
 raccmu_                                62.047842      117201
 lapack                                 53.181770      117201
 redis_pw                               33.127839      641226
 newband                                14.937687      118611
 fftwav_mpi                             12.366429      464400
 set_charge                             12.240888          42
 m_alltoall_d                           11.980212     1712574
 fftwav                                 11.765878      464400
 redis_proj                             11.504393      810798
 init_acc                               11.393369           1
 force_and_stress                       10.316496           1
 setdij_                                 9.792813          70
 fft3d                                   8.686840      698802
 fft3d_mpi                               7.804578      236041
 densta                                  7.755193          48
 phaser                                  7.044634        1605
 eccp                                    6.547989       64860
 augmentation_charge                     5.987086          43
 fftbrc_mpi                              5.517316        1639
 fftbas_plan_mpi                         5.516356        1639
 soft_charge                             4.976309          42
 orth1                                   4.777671      351783
 kinhamil                                3.825561      234402
 acc_init_cublas                         3.729154           1
 rpromu_acc                              3.618386       89451
 racc0mu_acc                             3.505520      117201
 w1_copy                                 3.415319      703206
 overl                                   3.403654      403974
 dfftw_execute                           3.386889        1488
 m_bcast_z                               2.853293      122721
 fftext_mpi                              2.754740      234402
 strnlr                                  2.644403           1
 w1_projall                              2.611719       84771
 rpro_isp                                2.545814         195
 setup_precond                           2.374377       64860
 ggemm                                   1.967244      149631
 m_bcast_d                               1.935346      234495
 overl_mu                                1.833428      117201
 pw_charge                               1.206180       38376
 map_forward                             1.117675        1568
 vhamil                                  1.085696      234402
 acc_init_cusolver                       1.051080           1
 depsum                                  0.958980          42
 m_alltoallv_z                           0.941554        1831
 apply_precond                           0.928085      169542
 map_backward                            0.917831        1710
 fornlr                                  0.883410           1
 fordep                                  0.839213           1
 map_scatter                             0.651518        1831
 potlok                                  0.530644          44
 map_gather                              0.424316        1831
 orthch                                  0.414812           1
 acc_cufft_makeplans                     0.294271           3
 acc_cufft_makeplan                      0.294262          19
 rspher_all                              0.275315          14
 sphpro_fast                             0.254578           2
 proall                                  0.226986           1
 brmix                                   0.216029          42
 broyd                                   0.108518          42
 fft_gq                                  0.087760          42
 lincom                                  0.059235        1440
 setg0                                   0.041934          44
 brget                                   0.026060        4677
 choleski                                0.025199          30
 truncate_high_frequency_w1              0.023434      299262
 stufak                                  0.009479           1
 brsav                                   0.005949        1079
 pothar                                  0.005088          45
 inisym                                  0.004886           1
 strelo                                  0.001997           1
 forhar                                  0.001641           2
 strehar                                 0.001597           1
 brpre                                   0.001246          84
 strkin                                  0.001219           1
 forloc                                  0.000995           1
 fewald                                  0.000943           1
 chggra                                  0.000806           1
 rsp                                     0.000479           1
 brgrid                                  0.000203           1
 set_dd_magatom                          0.000200          44
 vectorpot                               0.000180          43
 rcp                                     0.000035           1
 posmap                                  0.000032           2
 crpa_reader                             0.000027           1
 potlok_metagga                          0.000003          43
 rotate_active_occupied_orbital          0.000000           1
 redis_pw_over_bands                     0.000000           1

Profiling took   1.491849  0.720721  0.003208  0.003115 seconds
Profiling took   0.930663 seconds