 vasp.6.3.2 27Jun22 (build Jul  3 2023 11:46:21) complex
 executed on    LinuxNV_CrayMPICH date 2024.04.22  03:02:02

 INCAR:
   ADDGRID = True
   ALGO = Normal
   EDIFF = 0.00145
   ENCUT = 520.0
   IBRION = -1
   ICHARG = 0
   ISIF = 3
   ISMEAR = 0
   ISPIN = 2
   ISTART = 1
   KPOINT_BSE = -1 0 0 0
   LAECHG = True
   LASPH = True
   LCHARG = True
   LELF = True
   LORBIT = 11
   LREAL = Auto
   LVHAR = True
   LWAVE = False
   MAGMOM = 6*7.0 23*5.0
   NELM = 1000
   NSW = 0
   PREC = accurate
   SIGMA = 0.05

 POTCAR:    PAW_PBE Gd 23Dec2003
 POTCAR:    PAW_PBE Mn_pv 02Aug2007
 POTCAR:    PAW_PBE Gd 23Dec2003
   VRHFIN =Gd : [core=Xe4]

   TITEL  = PAW_PBE Gd 23Dec2003
   POMASS =  157.250; ZVAL   =   18.000    mass and valenz
   ENMAX  =  256.472; ENMIN  =  192.354 eV

   TITEL  = PAW_PBE Mn_pv 02Aug2007
   POMASS =   54.938; ZVAL   =   13.000    mass and valenz
   ENMAX  =  269.864; ENMIN  =  202.398 eV

 Optimization of the real space projectors (new method)

 maximal supplied QI-value         = 13.42
 optimisation between [QCUT,QGAM] = [ 11.67, 23.35] = [ 38.16,152.62] Ry
 Optimized for a Real-space Cutoff    1.63 Angstroem

   l    n(q)    QCUT    max X(q) W(low)/X(q) W(high)/X(q)  e(spline)
   0     11    11.673    10.501    0.14E-04    0.17E-05    0.21E-07
   0     11    11.673     9.148    0.21E-04    0.32E-05    0.45E-07
   1     11    11.673     4.035    0.33E-05    0.11E-04    0.84E-07
   1     11    11.673     4.388    0.11E-04    0.47E-04    0.34E-06
   2     10    11.673    20.656    0.12E-04    0.28E-04    0.54E-06
   2     10    11.673    12.651    0.11E-04    0.26E-04    0.51E-06
   3     10    11.673    61.921    0.19E-03    0.22E-03    0.23E-06
   3     10    11.673    48.328    0.20E-03    0.23E-03    0.23E-06
 Optimization of the real space projectors (new method)

 maximal supplied QI-value         = 16.25
 optimisation between [QCUT,QGAM] = [ 11.54, 23.24] = [ 37.28,151.24] Ry
 Optimized for a Real-space Cutoff    1.45 Angstroem

   l    n(q)    QCUT    max X(q) W(low)/X(q) W(high)/X(q)  e(spline)
   1     10    11.539     3.658    0.56E-04    0.12E-03    0.13E-06
   1     10    11.539     5.612    0.11E-03    0.23E-03    0.24E-06
   2      9    11.539    55.373    0.45E-04    0.92E-04    0.22E-06
   2      9    11.539    50.863    0.47E-04    0.95E-04    0.22E-06
   0     10    11.539    79.536    0.46E-04    0.27E-04    0.11E-06
   0     10    11.539    38.668    0.38E-04    0.25E-04    0.10E-06
  PAW_PBE Gd 23Dec2003                  :
  PAW_PBE Mn_pv 02Aug2007               :

 POSCAR: Gd6 Mn23
  positions in direct lattice
 exchange correlation table for  LEXCH =        8
   RHO(1)=    0.500       N(1)  =     2000
   RHO(2)=  100.500       N(2)  =     4000

 VTST: version 4.2, (08/11/21)

 CHAIN: initializing optimizer

 OPT: Using VASP Dynamics algorithm
 CHAIN: Read ICHAIN             0

 POSCAR: Gd6 Mn23
  positions in direct lattice

 ion  position               nearest neighbor table
   1  0.710  0.710  0.290-  19 2.92  20 2.92  17 2.92  14 2.92  22 3.08  27 3.08  28 3.08  25 3.08
                             9 3.08  10 3.08  12 3.08  13 3.08
   2  0.290  0.710  0.290-  14 2.92  16 2.92  21 2.92  19 2.92  27 3.08  24 3.08  22 3.08  29 3.08
                             8 3.08  10 3.08  11 3.08  13 3.08
   3  0.710  0.290  0.290-  14 2.92  15 2.92  21 2.92  20 2.92  28 3.08  23 3.08  22 3.08  29 3.08
                             8 3.08   9 3.08  11 3.08  12 3.08
   4  0.290  0.290  0.710-  15 2.92  16 2.92  21 2.92  18 2.92  26 3.08  24 3.08  23 3.08  29 3.08
                             9 3.08  10 3.08  12 3.08  13 3.08
   5  0.710  0.290  0.710-  18 2.92  20 2.92  17 2.92  15 2.92  23 3.08  26 3.08  28 3.08  25 3.08
                             8 3.08  10 3.08  11 3.08  13 3.08
   6  0.290  0.710  0.710-  18 2.92  19 2.92  17 2.92  16 2.92  24 3.08  26 3.08  27 3.08  25 3.08
                             8 3.08   9 3.08  11 3.08  12 3.08
   7  0.000  0.000  0.000-  17 2.51  21 2.51  18 2.51  14 2.51  16 2.51  19 2.51  20 2.51  15 2.51

   8  0.000  0.000  0.500-  23 2.49  27 2.49  24 2.49  28 2.49  14 2.68  18 2.68  17 2.68  21 2.68
                             2 3.08   3 3.08   5 3.08   6 3.08
   9  0.500  0.000  0.500-  25 2.49  29 2.49  27 2.49  23 2.49  16 2.68  20 2.68  18 2.68  14 2.68
                             1 3.08   3 3.08   4 3.08   6 3.08
  10  0.000  0.500  0.500-  25 2.49  29 2.49  28 2.49  24 2.49  14 2.68  15 2.68  18 2.68  19 2.68
                             1 3.08   2 3.08   4 3.08   5 3.08
  11  0.500  0.500  0.000-  25 2.49  29 2.49  26 2.49  22 2.49  15 2.68  16 2.68  19 2.68  20 2.68
                             2 3.08   3 3.08   5 3.08   6 3.08
  12  0.000  0.500  0.000-  22 2.49  26 2.49  24 2.49  28 2.49  15 2.68  19 2.68  17 2.68  21 2.68
                             1 3.08   3 3.08   4 3.08   6 3.08
  13  0.500  0.000  0.000-  22 2.49  26 2.49  23 2.49  27 2.49  16 2.68  20 2.68  17 2.68  21 2.68
                             1 3.08   2 3.08   4 3.08   5 3.08
  14  0.881  0.881  0.358-   7 2.51  23 2.67  24 2.67  25 2.67   8 2.68  10 2.68   9 2.68  21 2.90
                            19 2.90  20 2.90   2 2.92   3 2.92   1 2.92
  15  0.881  0.358  0.881-   7 2.51  22 2.67  24 2.67  25 2.67  12 2.68  10 2.68  11 2.68  21 2.90
                            18 2.90  20 2.90   3 2.92   4 2.92   5 2.92
  16  0.358  0.881  0.881-   7 2.51  22 2.67  23 2.67  25 2.67  13 2.68   9 2.68  11 2.68  21 2.90
                            18 2.90  19 2.90   2 2.92   4 2.92   6 2.92
  17  0.881  0.881  0.881-   7 2.51  22 2.67  23 2.67  24 2.67   8 2.68  12 2.68  13 2.68  18 2.90
                            19 2.90  20 2.90   5 2.92   6 2.92   1 2.92
  18  0.119  0.119  0.642-   7 2.51  27 2.67  28 2.67  29 2.67   8 2.68  10 2.68   9 2.68  17 2.90
                            15 2.90  16 2.90   5 2.92   6 2.92   4 2.92
  19  0.119  0.642  0.119-   7 2.51  26 2.67  28 2.67  29 2.67  12 2.68  10 2.68  11 2.68  17 2.90
                            14 2.90  16 2.90   1 2.92   6 2.92   2 2.92
  20  0.642  0.119  0.119-   7 2.51  26 2.67  27 2.67  29 2.67  13 2.68   9 2.68  11 2.68  17 2.90
                            14 2.90  15 2.90   1 2.92   5 2.92   3 2.92
  21  0.119  0.119  0.119-   7 2.51  26 2.67  27 2.67  28 2.67   8 2.68  12 2.68  13 2.68  14 2.90
                            15 2.90  16 2.90   3 2.92   4 2.92   2 2.92
  22  0.677  0.677  0.968-  12 2.49  13 2.49  11 2.49  23 2.50  24 2.50  25 2.50  15 2.67  16 2.67
                            17 2.67   1 3.08   3 3.08   2 3.08
  23  0.677  0.968  0.677-   8 2.49  13 2.49   9 2.49  22 2.50  24 2.50  25 2.50  14 2.67  16 2.67
                            17 2.67   5 3.08   3 3.08   4 3.08
  24  0.968  0.677  0.677-   8 2.49  12 2.49  10 2.49  22 2.50  23 2.50  25 2.50  14 2.67  15 2.67
                            17 2.67   6 3.08   2 3.08   4 3.08
  25  0.677  0.677  0.677-   9 2.49  10 2.49  11 2.49  22 2.50  23 2.50  24 2.50  14 2.67  15 2.67
                            16 2.67   1 3.08   6 3.08   5 3.08
  26  0.323  0.323  0.032-  12 2.49  13 2.49  11 2.49  27 2.50  28 2.50  29 2.50  19 2.67  20 2.67
                            21 2.67   4 3.08   6 3.08   5 3.08
  27  0.323  0.032  0.323-   8 2.49  13 2.49   9 2.49  26 2.50  28 2.50  29 2.50  18 2.67  20 2.67
                            21 2.67   2 3.08   6 3.08   1 3.08
  28  0.032  0.323  0.323-   8 2.49  12 2.49  10 2.49  26 2.50  27 2.50  29 2.50  18 2.67  19 2.67
                            21 2.67   3 3.08   5 3.08   1 3.08
  29  0.323  0.323  0.323-   9 2.49  10 2.49  11 2.49  26 2.50  27 2.50  28 2.50  18 2.67  19 2.67
                            20 2.67   4 3.08   2 3.08   3 3.08

  LATTYP: Found a face centered cubic cell.
 ALAT       =    12.1664220000

  Lattice vectors:

 A1 = (   0.0000000000,   6.0832110000,   6.0832110000)
 A2 = (   6.0832110000,   0.0000000000,   6.0832110000)
 A3 = (   6.0832110000,   6.0832110000,   0.0000000000)

Analysis of symmetry for initial positions (statically):
 Subroutine PRICEL returns:
 Original cell was already a primitive cell.

 Routine SETGRP: Setting up the symmetry group for a
 face centered cubic supercell.

 Subroutine GETGRP returns: Found 48 space group operations
 (whereof 48 operations were pure point group operations)
 out of a pool of 48 trial point group operations.

The static configuration has the point symmetry O_h .

Analysis of symmetry for dynamics (positions and initial velocities):
 Subroutine PRICEL returns:
 Original cell was already a primitive cell.

[...]

The dynamic configuration has the point symmetry O_h .

Analysis of structural, dynamic, and magnetic symmetry:
 Subroutine PRICEL returns:
 Original cell was already a primitive cell.

 Routine SETGRP: Setting up the symmetry group for a
 face centered cubic supercell.

 Subroutine GETGRP returns: Found 48 space group operations
 (whereof 48 operations were pure point group operations)
 out of a pool of 48 trial point group operations.

The overall configuration has the point symmetry O_h .

 Subroutine INISYM returns: Found 48 space group operations
 (whereof 48 operations are pure point group operations),
 and found     1 'primitive' translations

                                     Primitive cell

  volume of cell :     450.2240

  direct lattice vectors                    reciprocal lattice vectors
     0.000000000  6.083211000  6.083211000    -0.082193434  0.082193434  0.082193434
     6.083211000  0.000000000  6.083211000     0.082193434 -0.082193434  0.082193434
     6.083211000  6.083211000  0.000000000     0.082193434  0.082193434 -0.082193434

  length of vectors
     8.602959499  8.602959499  8.602959499     0.142363203  0.142363203  0.142363203

  position of ions in fractional coordinates (direct lattice)
     0.710230000  0.710230000  0.289770000
     0.289770000  0.710230000  0.289770000
     0.710230000  0.289770000  0.289770000
     0.289770000  0.289770000  0.710230000
     0.710230000  0.289770000  0.710230000
     0.289770000  0.710230000  0.710230000
     0.000000000  0.000000000  0.000000000
     1.000000000  0.000000000  0.500000000
     0.500000000  0.000000000  0.500000000
     1.000000000  0.500000000  0.500000000
     0.500000000  0.500000000  0.000000000
     1.000000000  0.500000000  0.000000000
     0.500000000  1.000000000  0.000000000
     0.880681000  0.880681000  0.357958000
     0.880681000  0.357958000  0.880681000
     0.357958000  0.880681000  0.880681000
     0.880681000  0.880681000  0.880681000
     0.119319000  0.119319000  0.642042000
     0.119319000  0.642042000  0.119319000
     0.642042000  0.119319000  0.119319000
     0.119319000  0.119319000  0.119319000
     0.677435000  0.677435000  0.967696000
     0.677435000  0.967696000  0.677435000
     0.967696000  0.677435000  0.677435000
     0.677435000  0.677435000  0.677435000
     0.322565000  0.322565000  0.032304000
     0.322565000  0.032304000  0.322565000
     0.032304000  0.322565000  0.322565000
     0.322565000  0.322565000  0.322565000

  ion indices of the primitive-cell ions
   primitive index   ion index
                 1           1
                 2           2
                 3           3
[...]
  292                  map_gather                            0.000048                  2   8
  293                  m_alltoallv_z                         0.000028                  2   8
  294                  map_scatter                           0.000135                  2   8
  295                map_backward                          0.000112                    2   7
  296                  map_gather                            0.000027                  1   8
  297                  m_alltoallv_z                         0.000011                  1   8
  298                  map_scatter                           0.000059                  1   8
  299          m_sumb_d                              0.000011                          2   4
  300          pothar                                0.000086                          1   4
  301            m_sumb_d                              0.000008                        1   5
  302        brmix                                 0.016266                            1   3
  303          m_sumb_d                              0.000048                          6   4
  304          brpre                                 0.000045                          2   4
  305          setg0                                 0.001903                          1   4
  306          broyd                                 0.011886                          1   4
  307            brget                                 0.002939                      326   5
  308            brsav                                 0.001354                      163   5
  309            m_sumb_d                              0.000952                       47   5
  310        m_bcast_d                             0.000042                            2   3
  311      potlok                                0.058877                              2   2
  312        fft3d_mpi                             0.040667                           36   3
  313          fftbrc_mpi                            0.030748                         36   4
  314            fftbas_plan_mpi                       0.030730                       36   5
  315              map_forward                           0.009025                     40   6
  316                map_gather                            0.002764                   24   7
  317                m_alltoallv_z                         0.003344                   24   7
  318                map_scatter                           0.002700                   24   7
  319              map_backward                          0.007916                     32   6
  320                map_gather                            0.002480                   16   7
  321                m_alltoallv_z                         0.003009                   16   7
  322                map_scatter                           0.002223                   16   7
  323              dfftw_execute                         0.012460                     30   6
  324        m_sumb_d                              0.000027                            5   3
  325        pothar                                0.002591                            2   3
  326          m_sumb_d                              0.000168                          2   4
  327        m_bcast_d                             0.004367                            4   3
  328      potlok_metagga                        0.000000                              1   2
  329      set_dd_magatom                        0.000005                              1   2
  330      set_dd_paw                            4.725436                              1   2
  331        m_sumb_d                              0.926450                            7   3
  332      augmentation_charge                   0.313478                              1   2
  333        fft3d_mpi                             0.115989                            2   3
  334          fftbrc_mpi                            0.100640                          2   4
  335            fftbas_plan_mpi                       0.100636                        2   5
  336              dfftw_execute                         0.066511                      6   6
  337              map_backward                          0.033912                      4   6
  338                map_gather                            0.011918                    2   7
  339                m_alltoallv_z                         0.011330                    2   7
  340                map_scatter                           0.010651                    2   7
  341      fftwav_mpi                            2.899486                           1944   2
  342        fftwav                                2.896940                         1944   3
  343          fft3d                                 2.643486                       1944   4
  344      densta                                0.004202                              1   2
  345        m_sumb_d                              0.001662                           40   3

 Flat profile

 set_dd_paw                           1210.030086         318
 m_sumb_d                              381.650420     1224718
 raccmu_                               225.808937      394335
 eddav                                 220.065782         320
 lapack                                178.569846      394335
 redis_pw                               93.949030     2126349
 augmentation_charge                    62.811201         317
 setdij_                                62.639785         344
 dfftw_execute                          42.318841        8064
 m_alltoall_d                           39.406519     5643937
 eccp                                   22.999555      207360
 total_time                             21.555619           1
 orth1                                  21.536552     1183093
 phaser                                 21.277209        2612
 fft3d                                  19.535326     2266931
 redis_proj                             18.131077     2695188
 fftwav                                 14.036292     1490740
 fft3d_mpi                              13.904102      787146
 hamiltmu                               12.762097      394335
 racc0mu_acc                            11.494969      394335
 w1_copy                                11.433465     2328573
 init_acc                               11.306743           1
 overl                                  11.134794     1345030
 rpromu_acc                              9.032728      291559
 m_alltoallv_z                           8.887333       12243
 m_bcast_z                               8.686697      396927
 soft_charge                             8.286513         316
 map_scatter                             7.762193       12243
 setup_precond                           7.506951      207360
 map_gather                              7.299348       12243
 set_charge                              7.147735         316
 ggemm                                   6.956316      499295
 m_bcast_d                               6.409745      789311
 overl_mu                                6.185441      394335
 pw_charge                               4.842963      135350
 acc_init_cublas                         3.511635           1
 vhamil                                  3.468264      776191
 kinhamil                                3.465772      776191
 depsum                                  3.355384         316
 fftext_mpi                              3.300255      776191
 newband                                 3.161769      396895
 apply_precond                           3.095333      568831
 broyd                                   2.103314         316
 fftwav_mpi                              1.984637     1490740
 potlok                                  1.899442         318
 brmix                                   1.074371         316
 acc_init_cusolver                       1.021494           1
 elmin                                   0.662770           1
 brget                                   0.661457       71123
 setg0                                   0.592539         318
 rspher_all                              0.575468          14
 fftbas_plan_mpi                         0.511029       10955
 rpro_isp                                0.437714          52
 w1_projall                              0.283558      289375
 acc_cufft_makeplan                      0.217792          19
 brsav                                   0.183518       20448
 sphpro_fast                             0.170898           2
 densta                                  0.160055         321
 lincom                                  0.107985        2568
 truncate_high_frequency_w1              0.083698      983551
 proall                                  0.074307           1
 map_forward                             0.070441       10336
 map_backward                            0.068266       11574
 fft_gq                                  0.052421         316
 pothar                                  0.029686         319
 stufak                                  0.023340           1
 orthch                                  0.022367           1
 force_and_stress                        0.021921           1
 choleski                                0.016528           8
 brpre                                   0.014824         632
 fftbrc_mpi                              0.006802       10955
 inisym                                  0.006633           1
 strnlr                                  0.003145           1
 strelo                                  0.003080           1
 forhar                                  0.002691           2
 strehar                                 0.002529           1
 set_dd_magatom                          0.001632         318
 forloc                                  0.001421           1
 strkin                                  0.001296           1
 vectorpot                               0.001295         317
 rsp                                     0.001193           1
 fornlr                                  0.001062           1
 brgrid                                  0.000344           1
 fewald                                  0.000326           1
 posmap                                  0.000285           2
 chggra                                  0.000272           1
 fordep                                  0.000180           1
 rcp                                     0.000049           1
 crpa_reader                             0.000027           1
 potlok_metagga                          0.000020         317
 acc_cufft_makeplans                     0.000010           3
 rotate_active_occupied_orbital          0.000000           1
 redis_pw_over_bands                     0.000000           1
  summed up times     2853.880753993988

 Accumulative profile

 total_time                           2853.880754           1
 elmin                                2790.685740           1
 set_dd_paw                           1500.146682         318
 eddav                                1064.257668         320
 m_sumb_d                              381.650420     1224718
 hamiltmu                              272.264648      394335
 raccmu_                               243.489347      394335
 lapack                                178.569846      394335
 set_charge                            134.867785         316
 redis_pw                              113.527919     2126349
 augmentation_charge                   100.228592         317
 setdij_                                99.811301         344
 fft3d_mpi                              86.367471      787146
 fftbrc_mpi                             66.924254       10955
 fftbas_plan_mpi                        66.917452       10955
 newband                                50.134543      396895
 dfftw_execute                          42.318841        8064
 m_alltoall_d                           39.406519     5643937
 redis_proj                             37.958707     2695188
 fftwav_mpi                             30.017139     1490740
 fftwav                                 28.032502     1490740
 soft_charge                            23.213300         316
 eccp                                   22.999555      207360
 orth1                                  21.536552     1183093
 phaser                                 21.277209        2612
 fft3d                                  19.535326     2266931
 force_and_stress                       15.048960           1
 map_backward                           13.796528       11574
 kinhamil                               12.544940      776191
 racc0mu_acc                            11.494969      394335
 w1_copy                                11.433465     2328573
 init_acc                               11.306743           1
 overl                                  11.134794     1345030
 map_forward                            10.291053       10336
 fftext_mpi                              9.079168      776191
 rpromu_acc                              9.032728      291559
 m_alltoallv_z                           8.887333       12243
 m_bcast_z                               8.686697      396927
 w1_projall                              8.589483      289375
 map_scatter                             7.762193       12243
 setup_precond                           7.506951      207360
 map_gather                              7.299348       12243
 ggemm                                   6.956316      499295
 m_bcast_d                               6.409745      789311
 overl_mu                                6.185441      394335
 brmix                                   5.008837         316
 pw_charge                               4.842963      135350
 fft_gq                                  4.290000         316
 potlok                                  3.757999         318
 depsum                                  3.540432         316
 acc_init_cublas                         3.511635           1
 vhamil                                  3.468264      776191
 broyd                                   3.299015         316
 apply_precond                           3.095333      568831
 strnlr                                  1.731261           1
 fordep                                  1.725679           1
 rpro_isp                                1.436836          52
 acc_init_cusolver                       1.021494           1
 brget                                   0.661457       71123
 setg0                                   0.592539         318
 rspher_all                              0.575468          14
 fornlr                                  0.574589           1
 orthch                                  0.376174           1
 densta                                  0.229938         321
 acc_cufft_makeplans                     0.217802           3
 acc_cufft_makeplan                      0.217792          19
 brsav                                   0.183518       20448
 sphpro_fast                             0.177326           2
 proall                                  0.162934           1
 lincom                                  0.107985        2568
 truncate_high_frequency_w1              0.083698      983551
 pothar                                  0.032933         319
 stufak                                  0.023340           1
 choleski                                0.016528           8
 brpre                                   0.014824         632
 inisym                                  0.006918           1
 strelo                                  0.003518           1
 forhar                                  0.002747           2
 strehar                                 0.002533           1
 forloc                                  0.002197           1
 fewald                                  0.001669           1
 set_dd_magatom                          0.001632         318
 strkin                                  0.001302           1
 vectorpot                               0.001295         317
 rsp                                     0.001193           1
 chggra                                  0.000925           1
 brgrid                                  0.000344           1
 posmap                                  0.000285           2
 rcp                                     0.000049           1
 crpa_reader                             0.000027           1
 potlok_metagga                          0.000020         317
 rotate_active_occupied_orbital          0.000000           1
 redis_pw_over_bands                     0.000000           1

Profiling took   4.920575  2.386397  0.003209  0.003112 seconds
Profiling took   3.188742 seconds