 vasp.6.3.2 27Jun22 (build Jul  3 2023 11:46:21) complex
 executed on    LinuxNV_CrayMPICH date 2024.04.22  02:20:19

 INCAR:
   ALGO = Normal
   EDIFF = 1e-05
   ENCUT = 520.0
   IBRION = -1
   ISIF = 3
   ISMEAR = -5
   ISPIN = 2
   LAECHG = True
   LASPH = True
   LCHARG = True
   LORBIT = 11
   LREAL = Auto
   LVHAR = True
   LWAVE = False
   MAGMOM = 1*7.0 4*5.0 1*0.6
   NELM = 1000
   NSW = 0
   PREC = Accurate
   SIGMA = 0.05

 POTCAR:    PAW_PBE Gd 23Dec2003
 POTCAR:    PAW_PBE Ni_pv 06Sep2000
 POTCAR:    PAW_PBE Au 04Oct2007
 POTCAR:    PAW_PBE Gd 23Dec2003
   VRHFIN =Gd : [core=Xe4]

   TITEL  = PAW_PBE Gd 23Dec2003
   POMASS =  157.250; ZVAL   =   18.000    mass and valenz
   ENMAX  =  256.472; ENMIN  =  192.354 eV

   TITEL  = PAW_PBE Ni_pv 06Sep2000
   POMASS =   58.690; ZVAL   =   16.000    mass and valenz
   ENMAX  =  367.986; ENMIN  =  275.989 eV

   TITEL  = PAW_PBE Au 04Oct2007
   POMASS =  196.966; ZVAL   =   11.000    mass and valenz
   ENMAX  =  229.943; ENMIN  =  172.457 eV

 Optimization of the real space projectors (new method)

 maximal supplied QI-value         = 13.42
 optimisation between [QCUT,QGAM] = [ 11.67, 23.35] = [ 38.16,152.62] Ry
 Optimized for a Real-space Cutoff    1.63 Angstroem

   l    n(q)    QCUT    max X(q) W(low)/X(q) W(high)/X(q)  e(spline)
   0     11    11.673    10.501    0.14E-04    0.17E-05    0.21E-07
   0     11    11.673     9.148    0.21E-04    0.32E-05    0.45E-07
   1     11    11.673     4.035    0.33E-05    0.11E-04    0.84E-07
   1     11    11.673     4.388    0.11E-04    0.47E-04    0.34E-06
   2     10    11.673    20.656    0.12E-04    0.28E-04    0.54E-06
   2     10    11.673    12.651    0.11E-04    0.26E-04    0.51E-06
   3     10    11.673    61.921    0.19E-03    0.22E-03    0.23E-06
   3     10    11.673    48.328    0.20E-03    0.23E-03    0.23E-06
 Optimization of the real space projectors (new method)

[...]

   l    n(q)    QCUT    max X(q) W(low)/X(q) W(high)/X(q)  e(spline)
   1      9    11.527     2.836    0.16E-04    0.30E-04    0.95E-07
   1      9    11.527     4.023    0.73E-04    0.81E-04    0.21E-06
   2      9    11.527    73.368    0.15E-03    0.29E-03    0.28E-06
   2      9    11.527    69.010    0.15E-03    0.29E-03    0.29E-06
   0      9    11.527    54.797    0.43E-04    0.28E-04    0.85E-07
   0      9    11.527    24.266    0.33E-04    0.24E-04    0.75E-07
 Optimization of the real space projectors (new method)

 maximal supplied QI-value         = 15.12
 optimisation between [QCUT,QGAM] = [ 11.64, 23.28] = [ 37.95,151.78] Ry
 Optimized for a Real-space Cutoff    1.49 Angstroem

   l    n(q)    QCUT    max X(q) W(low)/X(q) W(high)/X(q)  e(spline)
   2      9    11.641    60.898    0.24E-03    0.10E-03    0.19E-06
   2      9    11.641    58.894    0.25E-03    0.10E-03    0.19E-06
   0     10    11.641   109.617    0.73E-04    0.33E-04    0.11E-06
   0     10    11.641    75.026    0.71E-04    0.32E-04    0.11E-06
   1     10    11.641    16.344    0.27E-04    0.97E-04    0.16E-06
   1     10    11.641    10.160    0.23E-04    0.77E-04    0.13E-06
  PAW_PBE Gd 23Dec2003                  :
  PAW_PBE Ni_pv 06Sep2000               :
  PAW_PBE Au 04Oct2007                  :

 POSCAR: Gd1 Ni4 Au1
  positions in direct lattice
 exchange correlation table for  LEXCH =        8
   RHO(1)=    0.500       N(1)  =     2000
   RHO(2)=  100.500       N(2)  =     4000

 VTST: version 4.2, (08/11/21)

 CHAIN: initializing optimizer

 OPT: Using VASP Dynamics algorithm
 CHAIN: Read ICHAIN             0

 POSCAR: Gd1 Ni4 Au1
  positions in direct lattice

 ion  position               nearest neighbor table
   1  0.000  0.000  0.000-   2 2.91   3 2.91   2 2.91   5 2.91   4 2.91   5 2.91   3 2.91   4 2.91
                             5 2.91   2 2.91   3 2.91   4 2.91   6 3.04   6 3.04   6 3.04   6 3.04
   2  0.625  0.625  0.125-   3 2.48   4 2.48   5 2.48   3 2.48   4 2.48   5 2.48   6 2.91   6 2.91
                             6 2.91   1 2.91   1 2.91   1 2.91
   3  0.625  0.125  0.625-   2 2.48   4 2.48   5 2.48   4 2.48   2 2.48   5 2.48   6 2.91   6 2.91
                             6 2.91   1 2.91   1 2.91   1 2.91
   4  0.125  0.625  0.625-   2 2.48   3 2.48   5 2.48   3 2.48   2 2.48   5 2.48   6 2.91   6 2.91
                             6 2.91   1 2.91   1 2.91   1 2.91
   5  0.625  0.625  0.625-   2 2.48   3 2.48   4 2.48   4 2.48   3 2.48   2 2.48   6 2.91   6 2.91
                             6 2.91   1 2.91   1 2.91   1 2.91
   6  0.250  0.250  0.250-   2 2.91   3 2.91   4 2.91   3 2.91   4 2.91   5 2.91   2 2.91   4 2.91
                             5 2.91   2 2.91   3 2.91   5 2.91   1 3.04   1 3.04   1 3.04   1 3.04

  LATTYP: Found a face centered cubic cell.
 ALAT       =     7.0225940000

  Lattice vectors:

 A1 = (   0.0000000000,   3.5112970000,   3.5112970000)
 A2 = (   3.5112970000,   0.0000000000,   3.5112970000)
 A3 = (   3.5112970000,   3.5112970000,   0.0000000000)

Analysis of symmetry for initial positions (statically):
 Subroutine PRICEL returns:
 Original cell was already a primitive cell.

 Routine SETGRP: Setting up the symmetry group for a
 face centered cubic supercell.

 Subroutine GETGRP returns: Found 24 space group operations
 (whereof 24 operations were pure point group operations)
 out of a pool of 48 trial point group operations.

The static configuration has the point symmetry T_d .

Analysis of symmetry for dynamics (positions and initial velocities):
 Subroutine PRICEL returns:
 Original cell was already a primitive cell.

[...]

The dynamic configuration has the point symmetry T_d .

Analysis of structural, dynamic, and magnetic symmetry:
 Subroutine PRICEL returns:
 Original cell was already a primitive cell.

 Routine SETGRP: Setting up the symmetry group for a
 face centered cubic supercell.

 Subroutine GETGRP returns: Found 24 space group operations
 (whereof 24 operations were pure point group operations)
 out of a pool of 48 trial point group operations.

The overall configuration has the point symmetry T_d .

 Subroutine INISYM returns: Found 24 space group operations
 (whereof 24 operations are pure point group operations),
 and found     1 'primitive' translations

                                     Primitive cell

  volume of cell :      86.5830

  direct lattice vectors                    reciprocal lattice vectors
     0.000000000  3.511297000  3.511297000    -0.142397524  0.142397524  0.142397524
     3.511297000  0.000000000  3.511297000     0.142397524 -0.142397524  0.142397524
     3.511297000  3.511297000  0.000000000     0.142397524  0.142397524 -0.142397524

  length of vectors
     4.965723839  4.965723839  4.965723839     0.246639747  0.246639747  0.246639747

  position of ions in fractional coordinates (direct lattice)
     0.000000000  0.000000000  0.000000000
     0.624907000  0.624907000  0.125279000
     0.624907000  0.125279000  0.624907000
     0.125279000  0.624907000  0.624907000
     0.624907000  0.624907000  0.624907000
     0.250000000  0.250000000  0.250000000

  ion indices of the primitive-cell ions
   primitive index   ion index
                 1           1
                 2           2
                 3           3
                 4           4
                 5           5
                 6           6

 KPOINTS: Kpoints from vasprun.xml

Automatic generation of k-mesh.
 Grid dimensions read from file:
 generate k-points for:    6    6    6

 Generating k-lattice:

  Cartesian coordinates                     Fractional coordinates (reciprocal lattice)
    -0.023732921  0.023732921  0.023732921     0.166666667  0.000000000  0.000000000
     0.023732921 -0.023732921  0.023732921     0.000000000  0.166666667 -0.000000000
     0.023732921  0.023732921 -0.023732921    -0.000000000 -0.000000000  0.166666667

  Length of vectors
     0.041106625  0.041106625  0.041106625

  Shift w.r.t. Gamma in fractional coordinates (k-lattice)
     0.500000000  0.500000000  0.500000000

 TETIRR: Found    403 inequivalent tetrahedra from     5184

 Subroutine IBZKPT returns following result:

 Found     28 irreducible k-points:

 Following reciprocal coordinates:
            Coordinates               Weight
  0.083333  0.083333  0.083333      8.000000
  0.250000  0.083333  0.083333     24.000000
  0.416667  0.083333  0.083333     24.000000
 -0.416667  0.083333  0.083333     24.000000
 -0.250000  0.083333  0.083333     24.000000
 -0.083333  0.083333  0.083333     24.000000
  0.250000  0.250000  0.083333     24.000000
  0.416667  0.250000  0.083333     48.000000
 -0.416667  0.250000  0.083333     48.000000
 -0.250000  0.250000  0.083333     48.000000
 -0.083333  0.250000  0.083333     48.000000
  0.416667  0.416667  0.083333     24.000000
 -0.416667  0.416667  0.083333     48.000000
 -0.250000  0.416667  0.083333     48.000000
 -0.083333  0.416667  0.083333     48.000000
 -0.416667 -0.416667  0.083333     24.000000
 -0.250000 -0.416667  0.083333     48.000000
 -0.250000 -0.250000  0.083333     24.000000
  0.250000  0.250000  0.250000      8.000000
  0.416667  0.250000  0.250000     24.000000
 -0.416667  0.250000  0.250000     24.000000
 -0.250000  0.250000  0.250000     24.000000
  0.416667  0.416667  0.250000     24.000000
 -0.416667  0.416667  0.250000     48.000000
 -0.250000  0.416667  0.250000     48.000000
 -0.416667 -0.416667  0.250000     24.000000
  0.416667  0.416667  0.416667      8.000000
 -0.416667  0.416667  0.416667     24.000000

 Following cartesian coordinates:
            Coordinates               Weight
  0.011866  0.011866  0.011866      8.000000
 -0.011866  0.035599  0.035599     24.000000
 -0.035599  0.059332  0.059332     24.000000
  0.083065 -0.059332 -0.059332     24.000000
  0.059332 -0.035599 -0.035599     24.000000
  0.035599 -0.011866 -0.011866     24.000000
  0.011866  0.011866  0.059332     24.000000
 -0.011866  0.035599  0.083065     48.000000
  0.106798 -0.083065 -0.035599     48.000000
  0.083065 -0.059332 -0.011866     48.000000
  0.059332 -0.035599  0.011866     48.000000
  0.011866  0.011866  0.106798     24.000000
  0.130531 -0.106798 -0.011866     48.000000
  0.106798 -0.083065  0.011866     48.000000
  0.083065 -0.059332  0.035599     48.000000
  0.011866  0.011866 -0.130531     24.000000
 -0.011866  0.035599 -0.106798     48.000000
  0.011866  0.011866 -0.083065     24.000000
  0.035599  0.035599  0.035599      8.000000
  0.011866  0.059332  0.059332     24.000000
  0.130531 -0.059332 -0.059332     24.000000
  0.106798 -0.035599 -0.035599     24.000000
  0.035599  0.035599  0.083065     24.000000
  0.154264 -0.083065 -0.035599     48.000000
  0.130531 -0.059332 -0.011866     48.000000
  0.035599  0.035599 -0.154264     24.000000
  0.059332  0.059332  0.059332      8.000000
  0.177997 -0.059332 -0.059332     24.000000

 SYSTEM =  unknown system
 POSCAR =  Gd1 Ni4 Au1

 Startparameter for this run:
   NWRITE =      2    write-flag & timer
   PREC   = accura    normal or accurate (medium, high low for compatibility)
   ISTART =      0    job   : 0-new  1-cont  2-samecut
   ICHARG =      2    charge: 1-file 2-atom 10-const
   ISPIN  =      2    spin polarized calculation?
[...]
  239          fft3d_mpi                             0.000449                          3   4
  240            fftbrc_mpi                            0.000350                        3   5
  241              fftbas_plan_mpi                       0.000350                      3   6
  242                map_forward                           0.000179                    4   7
  243                  map_gather                            0.000041                  2   8
  244                  m_alltoallv_z                         0.000026                  2   8
  245                  map_scatter                           0.000084                  2   8
  246                map_backward                          0.000079                    2   7
  247                  map_gather                            0.000020                  1   8
  248                  m_alltoallv_z                         0.000012                  1   8
  249                  map_scatter                           0.000033                  1   8
  250          m_sumb_d                              0.000011                          2   4
  251          pothar                                0.000080                          1   4
  252            m_sumb_d                              0.000010                        1   5
  253        brmix                                 0.004496                            1   3
  254          m_sumb_d                              0.000022                          6   4
  255          brpre                                 0.000015                          2   4
  256          setg0                                 0.000463                          1   4
  257          broyd                                 0.003461                          1   4
  258            m_sumb_d                              0.000321                       51   5
  259            brget                                 0.000618                      229   5
  260            brsav                                 0.000132                       49   5
  261        m_bcast_d                             0.000018                            2   3
  262      potlok                                0.018399                              2   2
  263        fft3d_mpi                             0.012084                           36   3
  264          fftbrc_mpi                            0.010344                         36   4
  265            fftbas_plan_mpi                       0.010329                       36   5
  266              map_forward                           0.003169                     40   6
  267                map_gather                            0.001071                   24   7
  268                m_alltoallv_z                         0.000971                   24   7
  269                map_scatter                           0.000943                   24   7
  270              map_backward                          0.002517                     32   6
  271                map_gather                            0.000896                   16   7
  272                m_alltoallv_z                         0.000674                   16   7
  273                map_scatter                           0.000772                   16   7
  274              dfftw_execute                         0.003051                     30   6
  275        m_sumb_d                              0.000023                            5   3
  276        pothar                                0.000693                            2   3
  277          m_sumb_d                              0.000052                          2   4
  278        m_bcast_d                             0.001145                            4   3
  279      potlok_metagga                        0.000001                              1   2
  280      set_dd_magatom                        0.000004                              1   2
  281      set_dd_paw                            1.410475                              1   2
  282        m_sumb_d                              0.940770                            7   3
  283      augmentation_charge                   0.008424                              1   2
  284        fft3d_mpi                             0.001891                            2   3
  285          fftbrc_mpi                            0.001640                          2   4
  286            fftbas_plan_mpi                       0.001640                        2   5
  287              dfftw_execute                         0.000690                      6   6
  288              map_backward                          0.000774                      4   6
  289                map_gather                            0.000322                    2   7
  290                m_alltoallv_z                         0.000257                    2   7
  291                map_scatter                           0.000191                    2   7
  292      densta                                6.464969                              1   2

 Flat profile

 m_sumb_d                              245.908318     1042701
 eddav                                 158.688271         184
 lapack                                150.664487      339272
 raccmu_                               125.920007      339272
 set_dd_paw                             85.640544         182
 redis_pw                               59.959913     1870880
 densta                                 45.397219         185
 m_alltoall_d                           34.438532     4940320
 phaser                                 20.915577       10668
 eccp                                   16.186643      185472
 redis_proj                             15.562789     2364008
 fft3d                                  14.851142     1985248
 fftwav                                 12.168012     1306704
 init_acc                               11.764147           1
 orth1                                  10.895149     1017984
 w1_copy                                 9.914673     2035632
 racc0mu_acc                             9.890951      339272
 overl                                   9.669225     1171672
 soft_charge                             8.655722         180
 hamiltmu                                7.778493      339272
 rpromu_acc                              7.693070      250176
 m_bcast_z                               6.783606      343304
 setup_precond                           6.679152      185472
 total_time                              5.845617           1
 m_bcast_d                               5.577257      678913
 overl_mu                                5.177108      339272
 ggemm                                   4.672120      432008
 pw_charge                               3.199726      121984
 kinhamil                                3.107876      678544
 vhamil                                  3.095669      678544
 depsum                                  2.990917         180
 fftext_mpi                              2.843877      678544
 newband                                 2.747705      349576
 apply_precond                           2.686141      493072
 acc_init_cublas                         2.435635           1
 fftwav_mpi                              1.707927     1306704
 augmentation_charge                     1.181434         181
 setdij_                                 1.107162         208
 set_charge                              0.860460         180
 acc_init_cusolver                       0.794877           1
 rpro_isp                                0.704498         364
 potlok                                  0.463419         182
 fft3d_mpi                               0.443216      684023
 lincom                                  0.379827       10360
 broyd                                   0.368793         180
 m_alltoallv_z                           0.337492        6203
 elmin                                   0.298639           1
 w1_projall                              0.246300      246536
 map_scatter                             0.233080        6203
 fftbas_plan_mpi                         0.207844        5479
 dfftw_execute                           0.181189        2244
 map_gather                              0.180954        6203
 rspher_all                              0.137584          14
 acc_cufft_makeplan                      0.126297          19
 brget                                   0.100254       38073
 brmix                                   0.095958         180
 setg0                                   0.083544         182
 sphpro_fast                             0.077056           2
 truncate_high_frequency_w1              0.071644      864016
 proall                                  0.045877           1
 map_backward                            0.032840        5834
 map_forward                             0.031555        5124
 brsav                                   0.027051       10754
 orthch                                  0.015502           1
 pothar                                  0.013701         183
 choleski                                0.013493          56
 force_and_stress                        0.009112           1
 strnlr                                  0.007311           1
 fft_gq                                  0.005355         180
 inisym                                  0.004998           1
 brpre                                   0.002870         360
 fftbrc_mpi                              0.002699        5479
 fornlr                                  0.002507           1
 stufak                                  0.001833           1
 forhar                                  0.001281           2
 strelo                                  0.001071           1
 strehar                                 0.000791           1
 vectorpot                               0.000752         181
 set_dd_magatom                          0.000715         182
 forloc                                  0.000664           1
 strkin                                  0.000351           1
 fewald                                  0.000331           1
 chggra                                  0.000221           1
 brgrid                                  0.000118           1
 rsp                                     0.000095           1
 posmap                                  0.000036           2
 crpa_reader                             0.000028           1
 fordep                                  0.000027           1
 rcp                                     0.000018           1
 potlok_metagga                          0.000016         181
 acc_cufft_makeplans                     0.000013           3
 rotate_active_occupied_orbital          0.000000           1
 redis_pw_over_bands                     0.000000           1
  summed up times     1131.017965078354

 Accumulative profile

 total_time                           1131.017965           1
 elmin                                1097.090418           1
 eddav                                 780.853183         184
 set_dd_paw                            255.207087         182
 m_sumb_d                              245.908318     1042701
 hamiltmu                              162.850130      339272
 lapack                                150.664487      339272
 raccmu_                               140.988066      339272
 redis_pw                               76.921516     1870880
 densta                                 45.397219         185
 newband                                39.173149      349576
 m_alltoall_d                           34.438532     4940320
 redis_proj                             33.039718     2364008
 fftwav_mpi                             23.890746     1306704
 fftwav                                 22.182819     1306704
 set_charge                             21.609406         180
 phaser                                 20.915577       10668
 eccp                                   16.186643      185472
 soft_charge                            16.077458         180
 fft3d                                  14.851142     1985248
 init_acc                               11.764147           1
 kinhamil                               10.987902      678544
 orth1                                  10.895149     1017984
 w1_copy                                 9.914673     2035632
 racc0mu_acc                             9.890951      339272
 overl                                   9.669225     1171672
 fftext_mpi                              7.880026      678544
 rpromu_acc                              7.693070      250176
 w1_projall                              7.326205      246536
 m_bcast_z                               6.783606      343304
 setup_precond                           6.679152      185472
 fft3d_mpi                               6.487203      684023
 m_bcast_d                               5.577257      678913
 overl_mu                                5.177108      339272
 ggemm                                   4.672120      432008
 force_and_stress                        4.141371           1
 pw_charge                               3.199726      121984
 vhamil                                  3.095669      678544
 depsum                                  3.005434         180
 apply_precond                           2.686141      493072
 acc_init_cublas                         2.435635           1
 strnlr                                  1.847485           1
 rpro_isp                                1.712099         364
 augmentation_charge                     1.528128         181
 potlok                                  1.385391         182
 fftbrc_mpi                              1.207652        5479
 fftbas_plan_mpi                         1.204953        5479
 setdij_                                 1.143175         208
 acc_init_cusolver                       0.794877           1
 brmix                                   0.735399         180
 fornlr                                  0.619351           1
 broyd                                   0.546340         180
 map_forward                             0.425866        5124
 map_backward                            0.390055        5834
 lincom                                  0.379827       10360
 m_alltoallv_z                           0.337492        6203
 orthch                                  0.322133           1
 map_scatter                             0.233080        6203
 fft_gq                                  0.185367         180
 dfftw_execute                           0.181189        2244
 map_gather                              0.180954        6203
 proall                                  0.152371           1
 rspher_all                              0.137584          14
 acc_cufft_makeplans                     0.126310           3
 acc_cufft_makeplan                      0.126297          19
 brget                                   0.100254       38073
 setg0                                   0.083544         182
 sphpro_fast                             0.079230           2
 truncate_high_frequency_w1              0.071644      864016
 fordep                                  0.031837           1
 brsav                                   0.027051       10754
 pothar                                  0.015252         183
 choleski                                0.013493          56
 inisym                                  0.005034           1
 brpre                                   0.002870         360
 stufak                                  0.001833           1
 forhar                                  0.001303           2
 strelo                                  0.001113           1
 strehar                                 0.000797           1
 chggra                                  0.000761           1
 vectorpot                               0.000752         181
 set_dd_magatom                          0.000715         182
 forloc                                  0.000703           1
 fewald                                  0.000493           1
 strkin                                  0.000363           1
 brgrid                                  0.000118           1
 rsp                                     0.000095           1
 posmap                                  0.000036           2
 crpa_reader                             0.000028           1
 rcp                                     0.000018           1
 potlok_metagga                          0.000016         181
 rotate_active_occupied_orbital          0.000000           1
 redis_pw_over_bands                     0.000000           1

Profiling took   4.141066  2.082177  0.003643  0.003575 seconds
Profiling took   2.637270 seconds