 vasp.6.3.2 27Jun22 (build Jul  3 2023 11:46:21) complex
 executed on    LinuxNV_CrayMPICH date 2024.04.21  20:20:20

 INCAR:
   ADDGRID = True
   ALGO = Normal
   EDIFF = 0.00085
   ENCUT = 520.0
   IBRION = -1
   ICHARG = 0
   ISIF = 3
   ISMEAR = 0
   ISPIN = 2
   ISTART = 1
   KPOINT_BSE = -1 0 0 0
   LAECHG = True
   LASPH = True
   LCHARG = True
   LELF = True
   LORBIT = 11
   LREAL = Auto
   LVHAR = True
   LWAVE = False
   MAGMOM = 1*7.0 16*0.6
   NELM = 1000
   NSW = 0
   PREC = accurate
   SIGMA = 0.05

 POTCAR:    PAW_PBE Eu 23Dec2003
 POTCAR:    PAW_PBE Ge_d 03Jul2007
 POTCAR:    PAW_PBE Pt 04Feb2005
 POTCAR:    PAW_PBE Eu 23Dec2003
   VRHFIN =Eu : [core=Kr4d]

   TITEL  = PAW_PBE Eu 23Dec2003
   POMASS =  151.965; ZVAL   =   17.000    mass and valenz
   ENMAX  =  249.668; ENMIN  =  187.251 eV

   TITEL  = PAW_PBE Ge_d 03Jul2007
   POMASS =   72.610; ZVAL   =   14.000    mass and valenz
   ENMAX  =  310.294; ENMIN  =  232.720 eV

   TITEL  = PAW_PBE Pt 04Feb2005
   POMASS =  195.080; ZVAL   =   10.000    mass and valenz
   ENMAX  =  230.283; ENMIN  =  172.712 eV

 Optimization of the real space projectors (new method)

 maximal supplied QI-value         = 13.42
 optimisation between [QCUT,QGAM] = [ 11.67, 23.35] = [ 38.16,152.62] Ry
 Optimized for a Real-space Cutoff    1.63 Angstroem

   l    n(q)    QCUT    max X(q) W(low)/X(q) W(high)/X(q)  e(spline)
   0     11    11.673    10.400    0.14E-04    0.18E-05    0.24E-07
   0     11    11.673    10.768    0.21E-04    0.32E-05    0.49E-07
   1     11    11.673     4.094    0.40E-05    0.13E-04    0.93E-07
   1     11    11.673     4.009    0.11E-04    0.46E-04    0.33E-06
   2     10    11.673    29.030    0.79E-04    0.60E-04    0.70E-06
   2     10    11.673    19.941    0.80E-04    0.60E-04    0.71E-06
   3     10    11.673    88.889    0.23E-03    0.29E-03    0.30E-06
   3     10    11.673    76.102    0.23E-03    0.30E-03    0.30E-06
 Optimization of the real space projectors (new method)

[...]

   l    n(q)    QCUT    max X(q) W(low)/X(q) W(high)/X(q)  e(spline)
   2     10    11.539     8.936    0.13E-03    0.18E-03    0.23E-06
   2     10    11.539     8.183    0.16E-03    0.22E-03    0.28E-06
   0     11    11.539    62.777    0.61E-04    0.20E-04    0.15E-06
   0     11    11.539    50.556    0.58E-04    0.19E-04    0.14E-06
   1     10    11.539    38.422    0.20E-04    0.75E-05    0.16E-06
   1     10    11.539    22.623    0.19E-04    0.69E-05    0.15E-06
 Optimization of the real space projectors (new method)

 maximal supplied QI-value         = 14.36
 optimisation between [QCUT,QGAM] = [ 11.63, 23.27] = [ 37.90,151.59] Ry
 Optimized for a Real-space Cutoff    1.49 Angstroem

   l    n(q)    QCUT    max X(q) W(low)/X(q) W(high)/X(q)  e(spline)
   2      9    11.633    66.195    0.24E-03    0.97E-04    0.19E-06
   2      9    11.633    64.643    0.25E-03    0.98E-04    0.20E-06
   0     10    11.633    95.520    0.71E-04    0.29E-04    0.12E-06
   0     10    11.633    63.403    0.69E-04    0.28E-04    0.12E-06
   1     10    11.633    19.961    0.61E-04    0.16E-03    0.11E-06
   1     10    11.633    13.289    0.50E-04    0.13E-03    0.90E-07
  PAW_PBE Eu 23Dec2003                  :
  PAW_PBE Ge_d 03Jul2007                :
  PAW_PBE Pt 04Feb2005                  :

 POSCAR: Eu1 Ge12 Pt4
  positions in direct lattice
 exchange correlation table for  LEXCH =        8
   RHO(1)=    0.500       N(1)  =     2000
   RHO(2)=  100.500       N(2)  =     4000

 VTST: version 4.2, (08/11/21)

 CHAIN: initializing optimizer

 OPT: Using VASP Dynamics algorithm
 CHAIN: Read ICHAIN             0

 POSCAR: Eu1 Ge12 Pt4
  positions in direct lattice

 ion  position               nearest neighbor table
   1  0.000  0.000  0.000-
   2  0.354  0.505  0.151-  15 2.54  17 2.54   3 2.58  12 2.66
   3  0.646  0.797  0.151-  16 2.54  14 2.54   2 2.58  13 2.66
   4  0.849  0.354  0.203-  14 2.54  15 2.54   7 2.58   8 2.66
   5  0.505  0.151  0.354-  14 2.54  17 2.54   9 2.58   6 2.66
   6  0.203  0.849  0.354-  15 2.54  16 2.54  10 2.58   5 2.66
   7  0.849  0.646  0.495-  16 2.54  17 2.54   4 2.58  11 2.66
   8  0.151  0.354  0.505-  16 2.54  17 2.54  11 2.58   4 2.66
   9  0.797  0.151  0.646-  15 2.54  16 2.54   5 2.58  10 2.66
  10  0.495  0.849  0.646-  14 2.54  17 2.54   6 2.58   9 2.66
  11  0.151  0.646  0.797-  14 2.54  15 2.54   8 2.58   7 2.66
  12  0.354  0.203  0.849-  16 2.54  14 2.54  13 2.58   2 2.66
  13  0.646  0.495  0.849-  15 2.54  17 2.54  12 2.58   3 2.66
  14  0.500  0.000  0.000-   4 2.54  11 2.54  10 2.54   5 2.54   3 2.54  12 2.54
  15  0.000  0.500  0.000-   6 2.54   9 2.54   2 2.54  13 2.54  11 2.54   4 2.54
  16  0.000  0.000  0.500-   3 2.54  12 2.54   8 2.54   7 2.54   9 2.54   6 2.54
  17  0.500  0.500  0.500-   2 2.54   5 2.54   7 2.54   8 2.54  10 2.54  13 2.54

  LATTYP: Found a body centered cubic cell.
 ALAT       =     8.8179220000

  Lattice vectors:

 A1 = (  -4.4089610000,   4.4089610000,   4.4089610000)
 A2 = (   4.4089610000,  -4.4089610000,   4.4089610000)
 A3 = (   4.4089610000,   4.4089610000,  -4.4089610000)

Analysis of symmetry for initial positions (statically):
 Subroutine PRICEL returns:
 Original cell was already a primitive cell.

 Routine SETGRP: Setting up the symmetry group for a
 body centered cubic supercell.

 Subroutine GETGRP returns: Found 24 space group operations
 (whereof 24 operations were pure point group operations)
 out of a pool of 48 trial point group operations.

The static configuration has the point symmetry T_h .

Analysis of symmetry for dynamics (positions and initial velocities):
 Subroutine PRICEL returns:
 Original cell was already a primitive cell.

[...]

The dynamic configuration has the point symmetry T_h .

Analysis of structural, dynamic, and magnetic symmetry:
 Subroutine PRICEL returns:
 Original cell was already a primitive cell.

 Routine SETGRP: Setting up the symmetry group for a
 body centered cubic supercell.

 Subroutine GETGRP returns: Found 24 space group operations
 (whereof 24 operations were pure point group operations)
 out of a pool of 48 trial point group operations.

The overall configuration has the point symmetry T_h .

 Subroutine INISYM returns: Found 24 space group operations
 (whereof 24 operations are pure point group operations),
 and found     1 'primitive' translations

                                     Primitive cell

  volume of cell :     342.8221

  direct lattice vectors                    reciprocal lattice vectors
    -4.408961000  4.408961000  4.408961000    -0.000000000  0.113405403  0.113405403
     4.408961000 -4.408961000  4.408961000     0.113405403 -0.000000000  0.113405403
     4.408961000  4.408961000 -4.408961000     0.113405403  0.113405403 -0.000000000

  length of vectors
     7.636544461  7.636544461  7.636544461     0.160379459  0.160379459  0.160379459

  position of ions in fractional coordinates (direct lattice)
     0.000000000  0.000000000  0.000000000
     0.353528000  0.504536000  0.151008000
     0.646472000  0.797479000  0.151008000
     0.848992000  0.353528000  0.202521000
     0.504536000  0.151008000  0.353528000
     0.202521000  0.848992000  0.353528000
     0.848992000  0.646472000  0.495464000
     0.151008000  0.353528000  0.504536000
     0.797479000  0.151008000  0.646472000
     0.495464000  0.848992000  0.646472000
     0.151008000  0.646472000  0.797479000
     0.353528000  0.202521000  0.848992000
     0.646472000  0.495464000  0.848992000
     0.500000000  1.000000000  1.000000000
     1.000000000  0.500000000  1.000000000
     1.000000000  0.000000000  0.500000000
     0.500000000  0.500000000  0.500000000

  ion indices of the primitive-cell ions
   primitive index   ion index
                 1           1
                 2           2
                 3           3
                 4           4
                 5           5
                 6           6
                 7           7
                 8           8
                 9           9
                10          10
                11          11
                12          12
                13          13
                14          14
                15          15
                16          16
                17          17

 KPOINTS: Kpoints from vasprun.xml

Automatic generation of k-mesh.
 Grid dimensions read from file:
 generate k-points for:    4    4    4

 Generating k-lattice:

  Cartesian coordinates                     Fractional coordinates (reciprocal lattice)
    -0.000000000  0.028351351  0.028351351     0.250000000 -0.000000000 -0.000000000
     0.028351351 -0.000000000  0.028351351    -0.000000000  0.250000000  0.000000000
     0.028351351  0.028351351 -0.000000000    -0.000000000 -0.000000000  0.250000000

  Length of vectors
     0.040094865  0.040094865  0.040094865

  Shift w.r.t. Gamma in fractional coordinates (k-lattice)
     0.000000000  0.000000000  0.000000000

 Subroutine IBZKPT returns following result:

 Found      8 irreducible k-points:

 Following reciprocal coordinates:
            Coordinates               Weight
  0.000000  0.000000  0.000000      1.000000
  0.250000  0.000000  0.000000     12.000000
  0.500000  0.000000  0.000000      6.000000
  0.250000  0.250000  0.000000     24.000000
  0.250000  0.250000  0.250000      2.000000
 -0.250000  0.250000  0.250000      6.000000
  0.500000  0.500000  0.250000     12.000000
  0.500000  0.500000  0.500000      1.000000

 Following cartesian coordinates:
            Coordinates               Weight
  0.000000  0.000000  0.000000      1.000000
  0.000000  0.028351  0.028351     12.000000
  0.000000  0.056703  0.056703      6.000000
  0.028351  0.028351  0.056703     24.000000
  0.056703  0.056703  0.056703      2.000000
  0.056703  0.000000  0.000000      6.000000
  0.085054  0.085054  0.113405     12.000000
  0.113405  0.113405  0.113405      1.000000

 SYSTEM =  unknown system
 POSCAR =  Eu1 Ge12 Pt4

 Startparameter for this run:
   NWRITE =      2    write-flag & timer
   PREC   = accura    normal or accurate (medium, high low for compatibility)
   ISTART =      0    job   : 0-new  1-cont  2-samecut
   ICHARG =      2    charge: 1-file 2-atom 10-const
   ISPIN  =      2    spin polarized calculation?
   LNONCOLLINEAR =      F non collinear calculations
   LSORBIT =      F    spin-orbit coupling
   INIWAV =      1    electr: 0-lowe 1-rand  2-diag
   LASPH  =      T    aspherical Exc in radial PAW
 Electronic Relaxation 1
   ENCUT  =  520.0 eV  38.22 Ry    6.18 a.u.  14.20 14.20 14.20*2*pi/ulx,y,z
   ENINI  =  520.0     initial cutoff
   ENAUG  =  549.6 eV  augmentation charge cutoff
   NELM   =   1000;   NELMIN=  2; NELMDL=  0     # of ELM steps
   EDIFF  = 0.8E-03   stopping-criterion for ELM
   LREAL  =      T    real-space projection
   NLSPLINE    = F    spline interpolate recip. space projectors
   LCOMPAT=      F    compatible to vasp.4.4
   GGA_COMPAT  = T    GGA compatible to vasp.4.4-vasp.4.6
   LMAXPAW     = -100 max onsite density
   LMAXMIX     =    2 max onsite mixed and CHGCAR
   VOSKOWN=      0    Vosko Wilk Nusair interpolation
   ROPT   =   -0.00025  -0.00025  -0.00025
 Ionic relaxation
[...]
  292                  map_gather                            0.000051                  2   8
  293                  m_alltoallv_z                         0.000028                  2   8
  294                  map_scatter                           0.000105                  2   8
  295                map_backward                          0.000109                    2   7
  296                  map_gather                            0.000027                  1   8
  297                  m_alltoallv_z                         0.000013                  1   8
  298                  map_scatter                           0.000052                  1   8
  299          m_sumb_d                              0.000009                          2   4
  300          pothar                                0.000083                          1   4
  301            m_sumb_d                              0.000005                        1   5
  302        brmix                                 0.011931                            1   3
  303          m_sumb_d                              0.000050                          6   4
  304          brpre                                 0.000047                          2   4
  305          setg0                                 0.001540                          1   4
  306          broyd                                 0.008502                          1   4
  307            m_sumb_d                              0.000567                       49   5
  308            brget                                 0.001770                      219   5
  309            brsav                                 0.000580                       47   5
  310        m_bcast_d                             0.000040                            2   3
  311      potlok                                0.049145                              2   2
  312        fft3d_mpi                             0.031623                           36   3
  313          fftbrc_mpi                            0.027195                         36   4
  314            fftbas_plan_mpi                       0.027183                       36   5
  315              map_forward                           0.007964                     40   6
  316                map_gather                            0.002425                   24   7
  317                m_alltoallv_z                         0.003073                   24   7
  318                map_scatter                           0.002232                   24   7
  319              map_backward                          0.006805                     32   6
  320                map_gather                            0.002255                   16   7
  321                m_alltoallv_z                         0.002410                   16   7
  322                map_scatter                           0.001930                   16   7
  323              dfftw_execute                         0.010602                     30   6
  324        m_sumb_d                              0.000030                            5   3
  325        pothar                                0.002095                            2   3
  326          m_sumb_d                              0.000138                          2   4
  327        m_bcast_d                             0.003569                            4   3
  328      potlok_metagga                        0.000001                              1   2
  329      set_dd_magatom                        0.000005                              1   2
  330      set_dd_paw                            3.113892                              1   2
  331        m_sumb_d                              0.936184                            7   3
  332      augmentation_charge                   0.200324                              1   2
  333        fft3d_mpi                             0.074821                            2   3
  334          fftbrc_mpi                            0.066811                          2   4
  335            fftbas_plan_mpi                       0.066808                        2   5
  336              dfftw_execute                         0.040375                      6   6
  337              map_backward                          0.026189                      4   6
  338                map_gather                            0.008574                    2   7
  339                m_alltoallv_z                         0.009844                    2   7
  340                map_scatter                           0.007760                    2   7
  341      fftwav_mpi                            2.254864                           1728   2
  342        fftwav                                2.252708                         1728   3
  343          fft3d                                 2.069831                       1728   4
  344      densta                                0.002789                              1   2
  345        m_sumb_d                              0.001073                           38   3

 Flat profile

 set_dd_paw                            251.738788         115
 m_sumb_d                              143.708727      304453
 raccmu_                                54.695428       96084
 eddav                                  51.383494         117
 lapack                                 39.437415       96084
 redis_pw                               24.624534      512888
 total_time                             16.788445           1
 setdij_                                16.675802         141
 augmentation_charge                    14.403272         114
 dfftw_execute                          12.631273        3192
 init_acc                               12.204345           1
 phaser                                 11.171106        1976
 m_alltoall_d                           10.003173     1415448
 eccp                                    6.953318       67392
 fft3d                                   6.287211      570727
 redis_proj                              4.461613      637680
 fftwav                                  4.059795      378559
 orth1                                   3.819284      288332
 m_alltoallv_z                           3.246573        4529
 hamiltmu                                2.953719       96084
 soft_charge                             2.849337         113
 racc0mu_acc                             2.844813       96084
 w1_copy                                 2.806316      576504
 overl                                   2.646355      316960
 setup_precond                           2.459017       67392
 acc_init_cublas                         2.446628           1
 rpromu_acc                              2.389474       64260
 m_bcast_z                               2.236353       98388
 map_scatter                             2.082776        4529
 fft3d_mpi                               2.073627      196221
 map_gather                              2.032310        4529
 ggemm                                   1.853530      129780
 pw_charge                               1.791818       52399
 set_charge                              1.723902         113
 m_bcast_d                               1.566877      192403
 overl_mu                                1.498833       96084
 depsum                                  1.048374         113
 newband                                 0.949671       97956
 vhamil                                  0.890146      192168
 kinhamil                                0.861053      192168
 fftext_mpi                              0.831535      192168
 acc_init_cusolver                       0.807178           1
 apply_precond                           0.685802      124776
 potlok                                  0.635384         115
 broyd                                   0.500705         113
 fftwav_mpi                              0.497318      378559
 rpro_isp                                0.408078         104
 rspher_all                              0.359553          14
 brmix                                   0.302171         113
 elmin                                   0.259454           1
 fftbas_plan_mpi                         0.230275        4053
 setg0                                   0.173943         115
 brget                                   0.170246       21864
 acc_cufft_makeplan                      0.160590          19
 sphpro_fast                             0.095865           2
 lincom                                  0.068335        1888
 w1_projall                              0.066571       62388
 proall                                  0.062009           1
 densta                                  0.051657         118
 brsav                                   0.045504        6068
 map_forward                             0.026993        3840
 map_backward                            0.026074        4266
 truncate_high_frequency_w1              0.021793      259560
 orthch                                  0.019040           1
 choleski                                0.017076          16
 force_and_stress                        0.016669           1
 fft_gq                                  0.013836         113
 stufak                                  0.012530           1
 pothar                                  0.011649         116
 inisym                                  0.005221           1
 brpre                                   0.004805         226
 strnlr                                  0.003127           1
 forhar                                  0.002980           2
 strelo                                  0.002709           1
 fftbrc_mpi                              0.002459        4053
 strehar                                 0.002122           1
 forloc                                  0.001550           1
 fornlr                                  0.001077           1
 strkin                                  0.001007           1
 set_dd_magatom                          0.000526         115
 vectorpot                               0.000478         114
 rsp                                     0.000469           1
 fewald                                  0.000341           1
 brgrid                                  0.000281           1
 chggra                                  0.000254           1
 fordep                                  0.000115           1
 posmap                                  0.000096           2
 crpa_reader                             0.000027           1
 rcp                                     0.000027           1
 potlok_metagga                          0.000013         114
 acc_cufft_makeplans                     0.000010           3
 rotate_active_occupied_orbital          0.000000           1
 redis_pw_over_bands                     0.000000           1
  summed up times     736.9060509204865

 Accumulative profile

 total_time                            736.906051           1
 elmin                                 686.350167           1
 set_dd_paw                            357.549443         115
 eddav                                 275.953640         117
 m_sumb_d                              143.708727      304453
 hamiltmu                               66.013915       96084
 raccmu_                                59.039074       96084
 lapack                                 39.437415       96084
 set_charge                             33.163732         113
 redis_pw                               29.568849      512888
 setdij_                                29.040186         141
 fft3d_mpi                              23.732358      196221
 augmentation_charge                    23.134785         114
 fftbrc_mpi                             20.278733        4053
 fftbas_plan_mpi                        20.276274        4053
 newband                                15.818620       97956
 dfftw_execute                          12.631273        3192
 init_acc                               12.204345           1
 phaser                                 11.171106        1976
 force_and_stress                       10.834113           1
 m_alltoall_d                           10.003173     1415448
 redis_proj                              9.520471      637680
 fftwav_mpi                              9.464326      378559
 fftwav                                  8.967008      378559
 soft_charge                             7.089359         113
 eccp                                    6.953318       67392
 fft3d                                   6.287211      570727
 map_backward                            4.123383        4266
 orth1                                   3.819284      288332
 map_forward                             3.291343        3840
 m_alltoallv_z                           3.246573        4529
 kinhamil                                3.130975      192168
 racc0mu_acc                             2.844813       96084
 w1_copy                                 2.806316      576504
 overl                                   2.646355      316960
 setup_precond                           2.459017       67392
 acc_init_cublas                         2.446628           1
 rpromu_acc                              2.389474       64260
 fftext_mpi                              2.269922      192168
 m_bcast_z                               2.236353       98388
 map_scatter                             2.082776        4529
 map_gather                              2.032310        4529
 w1_projall                              1.907760       62388
 ggemm                                   1.853530      129780
 pw_charge                               1.791818       52399
 m_bcast_d                               1.566877      192403
 strnlr                                  1.529130           1
 overl_mu                                1.498833       96084
 potlok                                  1.371873         115
 brmix                                   1.274698         113
 fordep                                  1.238032           1
 rpro_isp                                1.188243         104
 depsum                                  1.104745         113
 vhamil                                  0.890146      192168
 acc_init_cusolver                       0.807178           1
 broyd                                   0.783699         113
 apply_precond                           0.685802      124776
 fornlr                                  0.509574           1
 rspher_all                              0.359553          14
 fft_gq                                  0.358164         113
 orthch                                  0.335224           1
 setg0                                   0.173943         115
 brget                                   0.170246       21864
 acc_cufft_makeplans                     0.160600           3
 acc_cufft_makeplan                      0.160590          19
 proall                                  0.138475           1
 sphpro_fast                             0.099543           2
 densta                                  0.076235         118
 lincom                                  0.068335        1888
 brsav                                   0.045504        6068
 truncate_high_frequency_w1              0.021793      259560
 choleski                                0.017076          16
 pothar                                  0.012925         116
 stufak                                  0.012530           1
 inisym                                  0.005317           1
 brpre                                   0.004805         226
 forhar                                  0.003037           2
 strelo                                  0.002781           1
 forloc                                  0.002672           1
 strehar                                 0.002137           1
 strkin                                  0.001017           1
 fewald                                  0.000958           1
 chggra                                  0.000875           1
 set_dd_magatom                          0.000526         115
 vectorpot                               0.000478         114
 rsp                                     0.000469           1
 brgrid                                  0.000281           1
 posmap                                  0.000096           2
 crpa_reader                             0.000027           1
 rcp                                     0.000027           1
 potlok_metagga                          0.000013         114
 rotate_active_occupied_orbital          0.000000           1
 redis_pw_over_bands                     0.000000           1

Profiling took   1.207438  0.593205  0.003417  0.003316 seconds
Profiling took   0.769179 seconds