 vasp.6.3.2 27Jun22 (build Jul  3 2023 11:46:21) complex
 executed on    LinuxNV_CrayMPICH date 2024.04.21  02:13:38

 INCAR:
   ADDGRID = True
   ALGO = Normal
   EDIFF = 0.0007
   ENCUT = 520.0
   IBRION = -1
   ICHARG = 0
   ISIF = 3
   ISMEAR = -5
   ISPIN = 2
   KPOINT_BSE = -1 0 0 0
   LAECHG = True
   LASPH = True
   LCHARG = True
   LELF = True
   LORBIT = 11
   LREAL = Auto
   LVHAR = True
   LWAVE = False
   MAGMOM = 4*5.0 1*7.0 9*0.6
   NELM = 1000
   NSW = 0
   PREC = accurate
   SIGMA = 0.05

 POTCAR:    PAW_PBE Ce 23Dec2003
 POTCAR:    PAW_PBE Gd 23Dec2003
 POTCAR:    PAW_PBE O 08Apr2002
 POTCAR:    PAW_PBE Ce 23Dec2003
   VRHFIN =Ce : [core= Kr 4d10]

   TITEL  = PAW_PBE Ce 23Dec2003
   POMASS =  140.115; ZVAL   =   12.000    mass and valenz
   ENMAX  =  273.042; ENMIN  =  204.781 eV

   TITEL  = PAW_PBE Gd 23Dec2003
   POMASS =  157.250; ZVAL   =   18.000    mass and valenz
   ENMAX  =  256.472; ENMIN  =  192.354 eV

   TITEL  = PAW_PBE O 08Apr2002
   POMASS =   16.000; ZVAL   =    6.000    mass and valenz
   ENMAX  =  400.000; ENMIN  =  300.000 eV

 Optimization of the real space projectors (new method)

 maximal supplied QI-value         = 13.98
 optimisation between [QCUT,QGAM] = [ 11.61, 23.35] = [ 37.72,152.72] Ry
 Optimized for a Real-space Cutoff    1.58 Angstroem

   l    n(q)    QCUT    max X(q) W(low)/X(q) W(high)/X(q)  e(spline)
   0     11    11.607     8.553    0.18E-04    0.38E-05    0.11E-06
   0     11    11.607     8.106    0.25E-04    0.72E-05    0.23E-06
   1     11    11.607     4.160    0.64E-06    0.35E-05    0.82E-07
   1     11    11.607     3.597    0.15E-04    0.58E-05    0.16E-06
   2     10    11.607     8.183    0.53E-04    0.30E-03    0.10E-05
   2     10    11.607     6.077    0.37E-04    0.21E-03    0.69E-06
   3     10    11.607   116.013    0.17E-03    0.16E-04    0.46E-06
   3     10    11.607   108.937    0.17E-03    0.15E-04    0.47E-06
 Optimization of the real space projectors (new method)

[...]

   l    n(q)    QCUT    max X(q) W(low)/X(q) W(high)/X(q)  e(spline)
   0     11    11.673    10.501    0.14E-04    0.17E-05    0.21E-07
   0     11    11.673     9.148    0.21E-04    0.32E-05    0.45E-07
   1     11    11.673     4.035    0.33E-05    0.11E-04    0.84E-07
   1     11    11.673     4.388    0.11E-04    0.47E-04    0.34E-06
   2     10    11.673    20.656    0.12E-04    0.28E-04    0.54E-06
   2     10    11.673    12.651    0.11E-04    0.26E-04    0.51E-06
   3     10    11.673    61.921    0.19E-03    0.22E-03    0.23E-06
   3     10    11.673    48.328    0.20E-03    0.23E-03    0.23E-06
 Optimization of the real space projectors (new method)

 maximal supplied QI-value         = 24.76
 optimisation between [QCUT,QGAM] = [ 11.64, 23.27] = [ 37.91,151.63] Ry
 Optimized for a Real-space Cutoff    1.14 Angstroem

   l    n(q)    QCUT    max X(q) W(low)/X(q) W(high)/X(q)  e(spline)
   0      8    11.635    20.381    0.10E-03    0.33E-03    0.24E-06
   0      8    11.635    15.268    0.11E-03    0.35E-03    0.26E-06
   1      7    11.635     5.964    0.24E-03    0.31E-03    0.30E-06
   1      7    11.635     5.382    0.22E-03    0.25E-03    0.26E-06
  PAW_PBE Ce 23Dec2003                  :
  PAW_PBE Gd 23Dec2003                  :
  PAW_PBE O 08Apr2002                   :

 POSCAR: Ce4 Gd1 O9
  positions in direct lattice
 exchange correlation table for  LEXCH =        8
   RHO(1)=    0.500       N(1)  =     2000
   RHO(2)=  100.500       N(2)  =     4000

 VTST: version 4.2, (08/11/21)

 CHAIN: initializing optimizer

 OPT: Using VASP Dynamics algorithm
 CHAIN: Read ICHAIN             0

 POSCAR: Ce4 Gd1 O9
  positions in direct lattice

 ion  position               nearest neighbor table
   1  0.401  0.393  0.008-   6 2.27   9 2.31   8 2.32   8 2.32   7 2.41   7 2.41  13 2.42
   2  0.199  0.198  0.001-  12 2.31  10 2.36  10 2.36  14 2.36  14 2.36   9 2.38   6 2.48
   3  0.803  0.802  0.001-   8 2.31   6 2.36   6 2.36   9 2.36   9 2.36  14 2.38  10 2.48
   4  0.614  0.607  0.008-  10 2.27  14 2.31  12 2.32  12 2.32  11 2.41  11 2.41  13 2.42
   5  0.947  0.000  0.947-  13 2.26  13 2.26   8 2.33  12 2.33   7 2.36  11 2.36
   6  0.054  0.303  0.751-   1 2.27   3 2.36   3 2.36   2 2.48
   7  0.171  0.917  0.254-   5 2.36   1 2.41   1 2.41
   8  0.643  0.895  0.747-   3 2.31   1 2.32   1 2.32   5 2.33
   9  0.547  0.297  0.250-   1 2.31   3 2.36   3 2.36   2 2.38
  10  0.447  0.697  0.751-   4 2.27   2 2.36   2 2.36   3 2.48
  11  0.337  0.083  0.254-   5 2.36   4 2.41   4 2.41
  12  0.852  0.105  0.747-   2 2.31   4 2.32   4 2.32   5 2.33
  13  0.728  0.500  0.228-   5 2.26   5 2.26   4 2.42   1 2.42
  14  0.952  0.703  0.250-   4 2.31   2 2.36   2 2.36   3 2.38

  LATTYP: Found a body centered orthorhombic cell.
 ALAT       =     3.8145400000
 B/A-ratio  =     1.4509361548
 C/A-ratio  =     5.1437829987

  Lattice vectors:

 A1 = (  -1.9072700000,   2.7673270000,   9.8105830000)
 A2 = (   1.9072700000,  -2.7673270000,   9.8105830000)
 A3 = (   1.9072700000,   2.7673270000,  -9.8105830000)

Analysis of symmetry for initial positions (statically):
 Subroutine PRICEL returns:
 Original cell was already a primitive cell.

 Routine SETGRP: Setting up the symmetry group for a
 body centered orthorhombic supercell.

 Subroutine GETGRP returns: Found  4 space group operations
 (whereof  4 operations were pure point group operations)
 out of a pool of  8 trial point group operations.

The static configuration has the point symmetry C_2v.

Analysis of symmetry for dynamics (positions and initial velocities):
 Subroutine PRICEL returns:
 Original cell was already a primitive cell.

[...]

The dynamic configuration has the point symmetry C_2v.

Analysis of structural, dynamic, and magnetic symmetry:
 Subroutine PRICEL returns:
 Original cell was already a primitive cell.

 Routine SETGRP: Setting up the symmetry group for a
 body centered orthorhombic supercell.

 Subroutine GETGRP returns: Found  4 space group operations
 (whereof  4 operations were pure point group operations)
 out of a pool of  8 trial point group operations.

The overall configuration has the point symmetry C_2v.

 Subroutine INISYM returns: Found  4 space group operations
 (whereof  4 operations are pure point group operations),
 and found     1 'primitive' translations

                                     Primitive cell

  volume of cell :     207.1226

  direct lattice vectors                    reciprocal lattice vectors
    -1.907270000  2.767327000  9.810583000    -0.000000000  0.180679768  0.050965371
     1.907270000 -2.767327000  9.810583000     0.262154808 -0.000000000  0.050965371
     1.907270000  2.767327000 -9.810583000     0.262154808  0.180679768 -0.000000000

  length of vectors
    10.370309368 10.370309368 10.370309368     0.187730252  0.267062937  0.318387063

  position of ions in fractional coordinates (direct lattice)
     0.401135000  0.393442000  0.007693000
     0.199180000  0.198291000  0.000889000
     0.802598000  0.801709000  0.000889000
     0.614250000  0.606558000  0.007693000
     0.946546000  0.000000000  0.946546000
     0.054200000  0.303453000  0.750747000
     0.170665000  0.916908000  0.253757000
     0.642649000  0.895153000  0.747495000
     0.547063000  0.297420000  0.249643000
     0.447294000  0.696547000  0.750747000
     0.336849000  0.083092000  0.253757000
     0.852342000  0.104847000  0.747495000
     0.728394000  0.500000000  0.228394000
     0.952223000  0.702580000  0.249643000

  ion indices of the primitive-cell ions
   primitive index   ion index
                 1           1
                 2           2
                 3           3
                 4           4
                 5           5
                 6           6
                 7           7
                 8           8
                 9           9
                10          10
                11          11
                12          12
                13          13
                14          14

 KPOINTS: Kpoints from vasprun.xml

Automatic generation of k-mesh.
 Grid dimensions read from file:
 generate k-points for:    4    4    4

 Generating k-lattice:

  Cartesian coordinates                     Fractional coordinates (reciprocal lattice)
    -0.000000000  0.045169942  0.012741343     0.250000000 -0.000000000  0.000000000
     0.065538702 -0.000000000  0.012741343     0.000000000  0.250000000 -0.000000000
     0.065538702  0.045169942 -0.000000000     0.000000000 -0.000000000  0.250000000

  Length of vectors
     0.046932563  0.066765734  0.079596766

  Shift w.r.t. Gamma in fractional coordinates (k-lattice)
     0.000000000  0.000000000  0.000000000

 TETIRR: Found    153 inequivalent tetrahedra from      384

 Subroutine IBZKPT returns following result:

 Found     18 irreducible k-points:

 Following reciprocal coordinates:
            Coordinates               Weight
  0.000000  0.000000  0.000000      1.000000
  0.250000  0.000000  0.000000      4.000000
  0.500000  0.000000  0.000000      2.000000
  0.000000  0.250000  0.000000      4.000000
  0.250000  0.250000  0.000000      8.000000
  0.500000  0.250000  0.000000      8.000000
 -0.250000  0.250000  0.000000      4.000000
  0.000000  0.500000  0.000000      2.000000
  0.250000  0.500000  0.000000      8.000000
  0.500000  0.500000  0.000000      2.000000
  0.250000  0.250000  0.250000      2.000000
 -0.250000  0.250000  0.250000      2.000000
  0.500000  0.500000  0.250000      4.000000
 -0.250000  0.500000  0.250000      4.000000
  0.250000 -0.250000  0.250000      2.000000
  0.500000 -0.250000  0.250000      4.000000
 -0.250000 -0.250000  0.250000      2.000000
  0.500000  0.500000  0.500000      1.000000

 Following cartesian coordinates:
            Coordinates               Weight
  0.000000  0.000000  0.000000      1.000000
  0.000000  0.045170  0.012741      4.000000
  0.000000  0.090340  0.025483      2.000000
  0.065539  0.000000  0.012741      4.000000
  0.065539  0.045170  0.025483      8.000000
  0.065539  0.090340  0.038224      8.000000
  0.065539 -0.045170  0.000000      4.000000
  0.131077  0.000000  0.025483      2.000000
  0.131077  0.045170  0.038224      8.000000
  0.131077  0.090340  0.050965      2.000000
  0.131077  0.090340  0.025483      2.000000
  0.131077  0.000000  0.000000      2.000000
  0.196616  0.135510  0.050965      4.000000
  0.196616  0.000000  0.012741      4.000000
  0.000000  0.090340  0.000000      2.000000
  0.000000  0.135510  0.012741      4.000000
  0.000000  0.000000 -0.025483      2.000000
  0.262155  0.180680  0.050965      1.000000

 SYSTEM =  unknown system
 POSCAR =  Ce4 Gd1 O9

 Startparameter for this run:
   NWRITE =      2    write-flag & timer
   PREC   = accura    normal or accurate (medium, high low for compatibility)
   ISTART =      0    job   : 0-new  1-cont  2-samecut
   ICHARG =      0    charge: 1-file 2-atom 10-const
   ISPIN  =      2    spin polarized calculation?
   LNONCOLLINEAR =      F non collinear calculations
   LSORBIT =      F    spin-orbit coupling
   INIWAV =      1    electr: 0-lowe 1-rand  2-diag
   LASPH  =      T    aspherical Exc in radial PAW
 Electronic Relaxation 1
[...]
  318                map_forward                           0.000437                    4   7
  319                  map_gather                            0.000066                  2   8
  320                  m_alltoallv_z                         0.000029                  2   8
  321                  map_scatter                           0.000300                  2   8
  322                map_backward                          0.000277                    2   7
  323                  map_gather                            0.000034                  1   8
  324                  m_alltoallv_z                         0.000013                  1   8
  325                  map_scatter                           0.000208                  1   8
  326          m_sumb_d                              0.000009                          2   4
  327          pothar                                0.000097                          1   4
  328            m_sumb_d                              0.000005                        1   5
  329        brmix                                 0.021958                            1   3
  330          m_sumb_d                              0.000111                          6   4
  331          brpre                                 0.000152                          2   4
  332          setg0                                 0.004322                          1   4
  333          broyd                                 0.012846                          1   4
  334            m_sumb_d                              0.000858                       41   5
  335            brget                                 0.002751                      179   5
  336            brsav                                 0.000586                       39   5
  337        m_bcast_d                             0.000034                            2   3
  338      potlok                                0.107139                              2   2
  339        fft3d_mpi                             0.073163                           36   3
  340          fftbrc_mpi                            0.059255                         36   4
  341            fftbas_plan_mpi                       0.059240                       36   5
  342              map_forward                           0.016047                     40   6
  343                map_gather                            0.004112                   24   7
  344                m_alltoallv_z                         0.006802                   24   7
  345                map_scatter                           0.004875                   24   7
  346              map_backward                          0.014165                     32   6
  347                map_gather                            0.003184                   16   7
  348                m_alltoallv_z                         0.006449                   16   7
  349                map_scatter                           0.004275                   16   7
  350              dfftw_execute                         0.027079                     30   6
  351        m_sumb_d                              0.000030                            5   3
  352        pothar                                0.005182                            2   3
  353          m_sumb_d                              0.000039                          2   4
  354        m_bcast_d                             0.008409                            4   3
  355      potlok_metagga                        0.000000                              1   2
  356      set_dd_magatom                        0.000004                              1   2
  357      set_dd_paw                            2.293210                              1   2
  358        m_sumb_d                              0.928886                            7   3
  359      augmentation_charge                   0.655516                              1   2
  360        fft3d_mpi                             0.184826                            2   3
  361          fftbrc_mpi                            0.154773                          2   4
  362            fftbas_plan_mpi                       0.154769                        2   5
  363              dfftw_execute                         0.087567                      6   6
  364              map_backward                          0.067008                      4   6
  365                map_gather                            0.025012                    2   7
  366                m_alltoallv_z                         0.014461                    2   7
  367                map_scatter                           0.027518                    2   7
  368      fftwav_mpi                            8.396035                           2376   2
  369        fftwav                                8.392792                         2376   3
  370          fft3d                                 7.867267                       2376   4
  371      densta                                2.368776                              1   2

 Flat profile

 raccmu_                               146.518397       65788
 m_sumb_d                               58.157557      202837
 set_dd_paw                             50.926596          37
 eddav                                  42.797841          39
 total_time                             36.324629           1
 lapack                                 33.374543       65788
 setdij_                                28.843168          63
 phaser                                 25.929430        1638
 augmentation_charge                    17.229192          37
 redis_pw                               15.650504      366720
 fft3d                                  12.549155      396709
 init_acc                               11.502085           1
 dfftw_execute                          11.442778        1332
 m_alltoall_d                            6.801011      955880
 densta                                  6.467894          40
 eccp                                    3.955452       30888
 acc_init_cublas                         3.661900           1
 fft3d_mpi                               3.353517      132981
 fftwav                                  3.232798      265133
 hamiltmu                                3.085143       65788
 redis_proj                              3.063943      467444
 map_scatter                             2.743932        1571
 rpromu_acc                              2.673768       53152
 map_gather                              2.471890        1571
 orth1                                   2.235860      197472
 m_alltoallv_z                           2.163282        1571
 overl                                   1.936399      232300
 racc0mu_acc                             1.922856       65788
 w1_copy                                 1.904219      394728
 m_bcast_z                               1.572480       68956
 set_charge                              1.513356          36
 soft_charge                             1.373171          36
 m_bcast_d                               1.164135      131655
 setup_precond                           1.121213       30888
 rspher_all                              1.066290          14
 pw_charge                               1.057490       20197
 acc_init_cusolver                       1.056038           1
 overl_mu                                1.049194       65788
 ggemm                                   0.872009       81232
 rpro_isp                                0.651664         234
 vhamil                                  0.609484      131576
 kinhamil                                0.594390      131576
 fftext_mpi                              0.568713      131576
 apply_precond                           0.554287      100688
 newband                                 0.523732       67192
 depsum                                  0.461562          36
 potlok                                  0.437704          37
 fftwav_mpi                              0.354949      265133
 acc_cufft_makeplan                      0.347370          19
 brmix                                   0.173911          35
 elmin                                   0.148261           1
 setg0                                   0.129295          37
 broyd                                   0.110680          35
 sphpro_fast                             0.107875           2
 fftbas_plan_mpi                         0.093578        1405
 proall                                  0.061781           1
 brget                                   0.050308        3284
 lincom                                  0.050045        1440
 w1_projall                              0.049079       50344
 force_and_stress                        0.027355           1
 stufak                                  0.023373           1
 orthch                                  0.017655           1
 choleski                                0.017020          36
 truncate_high_frequency_w1              0.012893      162464
 brsav                                   0.012023         776
 map_backward                            0.010727        1466
 fft_gq                                  0.010508          36
 map_forward                             0.010066        1344
 pothar                                  0.008985          38
 forhar                                  0.007946           2
 strelo                                  0.006043           1
 strnlr                                  0.005702           1
 strehar                                 0.004822           1
 inisym                                  0.004354           1
 forloc                                  0.003994           1
 brpre                                   0.003181          70
 fornlr                                  0.001935           1
 fftbrc_mpi                              0.000968        1405
 strkin                                  0.000678           1
 rsp                                     0.000631           1
 brgrid                                  0.000587           1
 fewald                                  0.000341           1
 chggra                                  0.000325           1
 set_dd_magatom                          0.000164          37
 vectorpot                               0.000149          36
 fordep                                  0.000079           1
 rcp                                     0.000032           1
 crpa_reader                             0.000027           1
 posmap                                  0.000022           2
 acc_cufft_makeplans                     0.000012           3
 potlok_metagga                          0.000007          36
 rotate_active_occupied_orbital          0.000000           1
 redis_pw_over_bands                     0.000000           1
  summed up times     561.0363888740540

 Accumulative profile

 total_time                            561.036389           1
 elmin                                 459.928136           1
 eddav                                 322.107052          39
 hamiltmu                              155.349756       65788
 raccmu_                               149.490447       65788
 set_dd_paw                             85.405921          37
 m_sumb_d                               58.157557      202837
 setdij_                                42.558749          63
 lapack                                 33.374543       65788
 set_charge                             31.507489          36
 force_and_stress                       27.404541           1
 phaser                                 25.929430        1638
 augmentation_charge                    24.207651          37
 fft3d_mpi                              23.252573      132981
 redis_pw                               18.974974      366720
 fftbrc_mpi                             18.937221        1405
 fftbas_plan_mpi                        18.936254        1405
 fftwav_mpi                             15.175067      265133
 fftwav                                 14.820118      265133
 fft3d                                  12.549155      396709
 init_acc                               11.502085           1
 dfftw_execute                          11.442778        1332
 newband                                 7.968606       67192
 m_alltoall_d                            6.801011      955880
 redis_proj                              6.540484      467444
 densta                                  6.467894          40
 soft_charge                             5.762272          36
 strnlr                                  5.015856           1
 fordep                                  4.043566           1
 map_forward                             4.008712        1344
 eccp                                    3.955452       30888
 acc_init_cublas                         3.661900           1
 map_backward                            3.391186        1466
 map_scatter                             2.743932        1571
 rpromu_acc                              2.673768       53152
 map_gather                              2.471890        1571
 orth1                                   2.235860      197472
 rpro_isp                                2.199559         234
 kinhamil                                2.164682      131576
 m_alltoallv_z                           2.163282        1571
 overl                                   1.936399      232300
 racc0mu_acc                             1.922856       65788
 w1_copy                                 1.904219      394728
 fornlr                                  1.664083           1
 m_bcast_z                               1.572480       68956
 fftext_mpi                              1.570292      131576
 w1_projall                              1.517924       50344
 m_bcast_d                               1.164135      131655
 setup_precond                           1.121213       30888
 rspher_all                              1.066290          14
 pw_charge                               1.057490       20197
 acc_init_cusolver                       1.056038           1
 overl_mu                                1.049194       65788
 potlok                                  0.902933          37
 ggemm                                   0.872009       81232
 vhamil                                  0.609484      131576
 apply_precond                           0.554287      100688
 brmix                                   0.517704          35
 depsum                                  0.471409          36
 proall                                  0.387877           1
 acc_cufft_makeplans                     0.347382           3
 acc_cufft_makeplan                      0.347370          19
 orthch                                  0.343403           1
 fft_gq                                  0.316559          36
 broyd                                   0.205702          35
 setg0                                   0.129295          37
 sphpro_fast                             0.111757           2
 brget                                   0.050308        3284
 lincom                                  0.050045        1440
 stufak                                  0.023373           1
 choleski                                0.017020          36
 truncate_high_frequency_w1              0.012893      162464
 brsav                                   0.012023         776
 pothar                                  0.009304          38
 forhar                                  0.008001           2
 strelo                                  0.006053           1
 strehar                                 0.004829           1
 inisym                                  0.004376           1
 forloc                                  0.004261           1
 brpre                                   0.003181          70
 fewald                                  0.001621           1
 chggra                                  0.001385           1
 strkin                                  0.000683           1
 rsp                                     0.000631           1
 brgrid                                  0.000587           1
 set_dd_magatom                          0.000164          37
 vectorpot                               0.000149          36
 rcp                                     0.000032           1
 crpa_reader                             0.000027           1
 posmap                                  0.000022           2
 potlok_metagga                          0.000007          36
 rotate_active_occupied_orbital          0.000000           1
 redis_pw_over_bands                     0.000000           1

Profiling took   0.831208  0.407338  0.003336  0.003224 seconds
Profiling took   0.526537 seconds