 vasp.6.3.2 27Jun22 (build Jul  3 2023 11:46:21) complex
 executed on    LinuxNV_CrayMPICH date 2024.04.22  03:39:13

 INCAR:
   ALGO = Normal
   EDIFF = 1e-05
   ENCUT = 520.0
   IBRION = -1
   ISIF = 3
   ISMEAR = -5
   ISPIN = 2
   LAECHG = True
   LASPH = True
   LCHARG = True
   LORBIT = 11
   LREAL = Auto
   LVHAR = True
   LWAVE = False
   MAGMOM = 2*0.6 1*7.0 11*0.6
   NELM = 1000
   NSW = 0
   PREC = Accurate
   SIGMA = 0.05

 POTCAR:    PAW_PBE Sr_sv 07Sep2000
 POTCAR:    PAW_PBE Gd 23Dec2003
 POTCAR:    PAW_PBE Cu_pv 06Sep2000
 POTCAR:    PAW_PBE Ru_pv 28Jan2005
 POTCAR:    PAW_PBE O 08Apr2002
 POTCAR:    PAW_PBE Sr_sv 07Sep2000
   VRHFIN =Sr: 4s4p5s

   TITEL  = PAW_PBE Sr_sv 07Sep2000
   POMASS =   87.620; ZVAL   =   10.000    mass and valenz
   ENMAX  =  229.353; ENMIN  =  172.014 eV

   TITEL  = PAW_PBE Gd 23Dec2003
   POMASS =  157.250; ZVAL   =   18.000    mass and valenz
   ENMAX  =  256.472; ENMIN  =  192.354 eV

   TITEL  = PAW_PBE Cu_pv 06Sep2000
   POMASS =   63.546; ZVAL   =   17.000    mass and valenz
   ENMAX  =  368.648; ENMIN  =  276.486 eV

   TITEL  = PAW_PBE Ru_pv 28Jan2005
   POMASS =  101.070; ZVAL   =   14.000    mass and valenz
   ENMAX  =  240.049; ENMIN  =  180.037 eV

   TITEL  = PAW_PBE O 08Apr2002
   POMASS =   16.000; ZVAL   =    6.000    mass and valenz
   ENMAX  =  400.000; ENMIN  =  300.000 eV

 Optimization of the real space projectors (new method)

 maximal supplied QI-value         = 15.12
 optimisation between [QCUT,QGAM] = [ 11.64, 23.28] = [ 37.95,151.78] Ry
 Optimized for a Real-space Cutoff    1.58 Angstroem

   l    n(q)    QCUT    max X(q) W(low)/X(q) W(high)/X(q)  e(spline)
   0     11    11.641    11.565    0.25E-04    0.45E-05    0.87E-07
   0     11    11.641    10.214    0.38E-04    0.85E-05    0.18E-06
   1     11    11.641   189.983    0.18E-03    0.75E-04    0.37E-06
   1     11    11.641   193.105    0.18E-03    0.75E-04    0.37E-06
   2     10    11.641   115.941    0.51E-04    0.22E-03    0.56E-06
   2     10    11.641    76.444    0.49E-04    0.21E-03    0.55E-06
 Optimization of the real space projectors (new method)

[...]

   l    n(q)    QCUT    max X(q) W(low)/X(q) W(high)/X(q)  e(spline)
   1     10    11.641     3.180    0.30E-04    0.36E-05    0.54E-07
   1     10    11.641     5.351    0.12E-03    0.51E-04    0.30E-06
   2      9    11.641    66.565    0.22E-03    0.78E-04    0.20E-06
   2      9    11.641    63.466    0.22E-03    0.79E-04    0.20E-06
   0     10    11.641    85.644    0.61E-04    0.23E-04    0.12E-06
   0     10    11.641    44.119    0.56E-04    0.21E-04    0.11E-06
 Optimization of the real space projectors (new method)

 maximal supplied QI-value         = 24.76
 optimisation between [QCUT,QGAM] = [ 11.64, 23.27] = [ 37.91,151.63] Ry
 Optimized for a Real-space Cutoff    1.14 Angstroem

   l    n(q)    QCUT    max X(q) W(low)/X(q) W(high)/X(q)  e(spline)
   0      8    11.635    20.381    0.10E-03    0.33E-03    0.24E-06
   0      8    11.635    15.268    0.11E-03    0.35E-03    0.26E-06
   1      7    11.635     5.964    0.24E-03    0.31E-03    0.30E-06
   1      7    11.635     5.382    0.22E-03    0.25E-03    0.26E-06
  PAW_PBE Sr_sv 07Sep2000               :
  PAW_PBE Gd 23Dec2003                  :
  PAW_PBE Cu_pv 06Sep2000               :
  PAW_PBE Ru_pv 28Jan2005               :
  PAW_PBE O 08Apr2002                   :

 POSCAR: Sr2 Gd1 Cu2 Ru1 O8
  positions in direct lattice
 exchange correlation table for  LEXCH =        8
   RHO(1)=    0.500       N(1)  =     2000
   RHO(2)=  100.500       N(2)  =     4000

 VTST: version 4.2, (08/11/21)

 CHAIN: initializing optimizer

 OPT: Using VASP Dynamics algorithm
 CHAIN: Read ICHAIN             0

 POSCAR: Sr2 Gd1 Cu2 Ru1 O8
  positions in direct lattice

 ion  position               nearest neighbor table
   1  0.500  0.500  0.808-   9 2.74   9 2.74   9 2.74   9 2.74  11 2.90  12 2.90  12 2.90  11 2.90
                             8 2.99   7 2.99   8 2.99   7 2.99   4 3.35   4 3.35   4 3.35   4 3.35
   2  0.500  0.500  0.192-  10 2.74  10 2.74  10 2.74  10 2.74  13 2.90  14 2.90  14 2.90  13 2.90
                             8 2.99   7 2.99   8 2.99   7 2.99   5 3.35   5 3.35   5 3.35   5 3.35
   3  0.500  0.500  0.500-  11 2.44  12 2.44  13 2.44  14 2.44  11 2.44  13 2.44  12 2.44  14 2.44
                             1 3.66   2 3.66
   4  0.000  0.000  0.644-  11 1.94  12 1.94  12 1.94  11 1.94   9 2.20   1 3.35   1 3.35   1 3.35
                             1 3.35
   5  0.000  0.000  0.356-  13 1.94  14 1.94  14 1.94  13 1.94  10 2.20   2 3.35   2 3.35   2 3.35
                             2 3.35
   6  0.000  0.000  0.000-   7 1.93   8 1.93   8 1.93   7 1.93   9 2.04  10 2.04   1 3.56   2 3.56
                             1 3.56   1 3.56   2 3.56   2 3.56   1 3.56   2 3.56
   7  0.500  0.000  0.000-   6 1.93   6 1.93   1 2.99   1 2.99   2 2.99   2 2.99
   8  0.000  0.500  0.000-   6 1.93   6 1.93   1 2.99   2 2.99   1 2.99   2 2.99
   9  0.000  0.000  0.829-   6 2.04   4 2.20   1 2.74   1 2.74   1 2.74   1 2.74
  10  0.000  0.000  0.171-   6 2.04   5 2.20   2 2.74   2 2.74   2 2.74   2 2.74
  11  0.500  0.000  0.626-   4 1.94   4 1.94   3 2.44   3 2.44   1 2.90   1 2.90
  12  0.000  0.500  0.626-   4 1.94   4 1.94   3 2.44   3 2.44   1 2.90   1 2.90
  13  0.500  0.000  0.374-   5 1.94   5 1.94   3 2.44   3 2.44   2 2.90   2 2.90
  14  0.000  0.500  0.374-   5 1.94   5 1.94   3 2.44   3 2.44   2 2.90   2 2.90

  LATTYP: Found a simple tetragonal cell.
 ALAT       =     3.8557370000
 C/A-ratio  =     3.0848053174

  Lattice vectors:

 A1 = (   3.8557370000,   0.0000000000,   0.0000000000)
 A2 = (   0.0000000000,   3.8557370000,   0.0000000000)
 A3 = (   0.0000000000,   0.0000000000,  11.8941980000)

Analysis of symmetry for initial positions (statically):
 Subroutine PRICEL returns:
 Original cell was already a primitive cell.

 Routine SETGRP: Setting up the symmetry group for a
 simple tetragonal supercell.

 Subroutine GETGRP returns: Found 16 space group operations
 (whereof 16 operations were pure point group operations)
 out of a pool of 16 trial point group operations.

The static configuration has the point symmetry D_4h.

Analysis of symmetry for dynamics (positions and initial velocities):
 Subroutine PRICEL returns:
 Original cell was already a primitive cell.

[...]

The dynamic configuration has the point symmetry D_4h.

Analysis of structural, dynamic, and magnetic symmetry:
 Subroutine PRICEL returns:
 Original cell was already a primitive cell.

 Routine SETGRP: Setting up the symmetry group for a
 simple tetragonal supercell.

 Subroutine GETGRP returns: Found 16 space group operations
 (whereof 16 operations were pure point group operations)
 out of a pool of 16 trial point group operations.

The overall configuration has the point symmetry D_4h.

 Subroutine INISYM returns: Found 16 space group operations
 (whereof 16 operations are pure point group operations),
 and found     1 'primitive' translations

                                     Primitive cell

  volume of cell :     176.8276

  direct lattice vectors                    reciprocal lattice vectors
     3.855737000  0.000000000  0.000000000     0.259353789  0.000000000  0.000000000
     0.000000000  3.855737000  0.000000000     0.000000000  0.259353789  0.000000000
     0.000000000  0.000000000 11.894198000     0.000000000  0.000000000  0.084074605

  length of vectors
     3.855737000  3.855737000 11.894198000     0.259353789  0.259353789  0.084074605

  position of ions in fractional coordinates (direct lattice)
     0.500000000  0.500000000  0.807936000
     0.500000000  0.500000000  0.192064000
     0.500000000  0.500000000  0.500000000
     0.000000000  0.000000000  0.643882000
     0.000000000  0.000000000  0.356118000
     0.000000000  0.000000000  0.000000000
     0.500000000  0.000000000  0.000000000
     0.000000000  0.500000000  0.000000000
     0.000000000  0.000000000  0.828808000
     0.000000000  0.000000000  0.171192000
     0.500000000  0.000000000  0.625943000
     0.000000000  0.500000000  0.625943000
     0.500000000  0.000000000  0.374057000
     0.000000000  0.500000000  0.374057000

  ion indices of the primitive-cell ions
   primitive index   ion index
                 1           1
                 2           2
                 3           3
                 4           4
                 5           5
                 6           6
                 7           7
                 8           8
                 9           9
                10          10
                11          11
                12          12
                13          13
                14          14

 KPOINTS: Kpoints from vasprun.xml

Automatic generation of k-mesh.
 Grid dimensions read from file:
 generate k-points for:    7    7    2

 Generating k-lattice:

  Cartesian coordinates                     Fractional coordinates (reciprocal lattice)
     0.037050541  0.000000000  0.000000000     0.142857143  0.000000000  0.000000000
     0.000000000  0.037050541  0.000000000     0.000000000  0.142857143  0.000000000
     0.000000000  0.000000000  0.042037303     0.000000000  0.000000000  0.500000000

  Length of vectors
     0.037050541  0.037050541  0.042037303

  Shift w.r.t. Gamma in fractional coordinates (k-lattice)
     0.000000000  0.000000000  0.000000000

 TETIRR: Found    145 inequivalent tetrahedra from      588

 Subroutine IBZKPT returns following result:

 Found     20 irreducible k-points:

 Following reciprocal coordinates:
            Coordinates               Weight
  0.000000  0.000000  0.000000      1.000000
  0.142857  0.000000  0.000000      4.000000
  0.285714  0.000000  0.000000      4.000000
  0.428571  0.000000  0.000000      4.000000
  0.142857  0.142857  0.000000      4.000000
  0.285714  0.142857  0.000000      8.000000
  0.428571  0.142857  0.000000      8.000000
  0.285714  0.285714  0.000000      4.000000
  0.428571  0.285714  0.000000      8.000000
  0.428571  0.428571  0.000000      4.000000
  0.000000  0.000000  0.500000      1.000000
  0.142857  0.000000  0.500000      4.000000
  0.285714  0.000000  0.500000      4.000000
  0.428571  0.000000  0.500000      4.000000
  0.142857  0.142857  0.500000      4.000000
  0.285714  0.142857  0.500000      8.000000
  0.428571  0.142857  0.500000      8.000000
  0.285714  0.285714  0.500000      4.000000
  0.428571  0.285714  0.500000      8.000000
  0.428571  0.428571  0.500000      4.000000

 Following cartesian coordinates:
            Coordinates               Weight
  0.000000  0.000000  0.000000      1.000000
  0.037051  0.000000  0.000000      4.000000
  0.074101  0.000000  0.000000      4.000000
  0.111152  0.000000  0.000000      4.000000
  0.037051  0.037051  0.000000      4.000000
  0.074101  0.037051  0.000000      8.000000
  0.111152  0.037051  0.000000      8.000000
  0.074101  0.074101  0.000000      4.000000
  0.111152  0.074101  0.000000      8.000000
  0.111152  0.111152  0.000000      4.000000
  0.000000  0.000000  0.042037      1.000000
  0.037051  0.000000  0.042037      4.000000
  0.074101  0.000000  0.042037      4.000000
[...]
  239          fft3d_mpi                             0.000456                          3   4
  240            fftbrc_mpi                            0.000359                        3   5
  241              fftbas_plan_mpi                       0.000356                      3   6
  242                map_forward                           0.000183                    4   7
  243                  map_gather                            0.000039                  2   8
  244                  m_alltoallv_z                         0.000028                  2   8
  245                  map_scatter                           0.000087                  2   8
  246                map_backward                          0.000082                    2   7
  247                  map_gather                            0.000020                  1   8
  248                  m_alltoallv_z                         0.000011                  1   8
  249                  map_scatter                           0.000037                  1   8
  250          m_sumb_d                              0.000010                          2   4
  251          pothar                                0.000074                          1   4
  252            m_sumb_d                              0.000005                        1   5
  253        brmix                                 0.005511                            1   3
  254          m_sumb_d                              0.000033                          6   4
  255          brpre                                 0.000016                          2   4
  256          setg0                                 0.000583                          1   4
  257          broyd                                 0.004188                          1   4
  258            m_sumb_d                              0.000726                       50   5
  259            brget                                 0.000699                      224   5
  260            brsav                                 0.000146                       48   5
  261        m_bcast_d                             0.000021                            2   3
  262      potlok                                0.024712                              2   2
  263        fft3d_mpi                             0.014780                           36   3
  264          fftbrc_mpi                            0.012141                         36   4
  265            fftbas_plan_mpi                       0.012125                       36   5
  266              map_forward                           0.003482                     40   6
  267                map_gather                            0.001181                   24   7
  268                m_alltoallv_z                         0.001121                   24   7
  269                map_scatter                           0.001009                   24   7
  270              map_backward                          0.002882                     32   6
  271                map_gather                            0.001015                   16   7
  272                m_alltoallv_z                         0.000770                   16   7
  273                map_scatter                           0.000907                   16   7
  274              dfftw_execute                         0.004157                     30   6
  275        m_sumb_d                              0.000026                            5   3
  276        pothar                                0.000830                            2   3
  277          m_sumb_d                              0.000047                          2   4
  278        m_bcast_d                             0.001338                            4   3
  279      potlok_metagga                        0.000000                              1   2
  280      set_dd_magatom                        0.000003                              1   2
  281      set_dd_paw                            1.387389                              1   2
  282        m_sumb_d                              0.488718                            7   3
  283      augmentation_charge                   0.008533                              1   2
  284        fft3d_mpi                             0.002510                            2   3
  285          fftbrc_mpi                            0.002115                          2   4
  286            fftbas_plan_mpi                       0.002113                        2   5
  287              dfftw_execute                         0.000958                      6   6
  288              map_backward                          0.000971                      4   6
  289                map_gather                            0.000385                    2   7
  290                m_alltoallv_z                         0.000345                    2   7
  291                map_scatter                           0.000237                    2   7
  292      densta                                4.137291                              1   2

 Flat profile

 m_sumb_d                              504.152177     2646549
 set_dd_paw                            444.307598         491
 eddav                                 418.472401         493
 lapack                                404.374990      862138
 raccmu_                               227.556312      862138
 redis_pw                              186.769964     4778508
 m_alltoall_d                           86.238456    12508172
 densta                                 52.870904         494
 phaser                                 40.661930       19980
 redis_proj                             39.927470     6068984
 eccp                                   39.910279      433840
 fft3d                                  38.052681     5093968
 fftwav                                 31.426976     3369692
 orth1                                  27.139986     2586534
 racc0mu_acc                            25.404379      862138
 w1_copy                                25.280949     5172828
 overl                                  24.713467     3014752
 soft_charge                            19.738586         489
 hamiltmu                               19.207361      862138
 rpromu_acc                             19.154818      648338
 m_bcast_z                              17.349051      865658
 setup_precond                          15.743750      433840
 m_bcast_d                              14.016186     1725263
 overl_mu                               13.247944      862138
 init_acc                               12.562476           1
 ggemm                                  11.270822     1079058
 pw_charge                               9.281801      343540
 vhamil                                  7.853886     1724276
 kinhamil                                7.639283     1724276
 fftext_mpi                              7.262049     1724276
 apply_precond                           7.090485     1290436
 depsum                                  7.049573         489
 total_time                              6.842550           1
 newband                                 6.692878      881858
 fftwav_mpi                              4.378293     3369692
 augmentation_charge                     2.933585         490
 set_charge                              2.513402         489
 setdij_                                 2.444798         517
 acc_init_cublas                         2.433924           1
 potlok                                  1.405592         491
 broyd                                   1.268903         489
 fft3d_mpi                               1.249861     1739025
 acc_init_cusolver                       0.780524           1
 elmin                                   0.757508           1
 lincom                                  0.685624       19760
 map_scatter                             0.674348       16709
 dfftw_execute                           0.632030        5952
 w1_projall                              0.612123      645218
 m_alltoallv_z                           0.601671       16709
 rpro_isp                                0.595960         260
 fftbas_plan_mpi                         0.550223       14749
 map_gather                              0.513144       16709
 brget                                   0.336497      112988
 brmix                                   0.329999         489
 setg0                                   0.285033         491
 truncate_high_frequency_w1              0.172627     2158116
 acc_cufft_makeplan                      0.149147          19
 rspher_all                              0.125410          14
 sphpro_fast                             0.112587           2
 map_backward                            0.097269       15722
 brsav                                   0.091548       32591
 map_forward                             0.085023       13776
 proall                                  0.052828           1
 pothar                                  0.036309         492
 fft_gq                                  0.019341         489
 orthch                                  0.017494           1
 force_and_stress                        0.011449           1
 choleski                                0.011017          40
 brpre                                   0.008733         978
 fftbrc_mpi                              0.007589       14749
 strnlr                                  0.005473           1
 stufak                                  0.004739           1
 inisym                                  0.004505           1
 fornlr                                  0.002440           1
 vectorpot                               0.002037         490
 set_dd_magatom                          0.001971         491
 forhar                                  0.001811           2
 strelo                                  0.001589           1
 strehar                                 0.000964           1
 forloc                                  0.000930           1
 strkin                                  0.000607           1
 fewald                                  0.000438           1
 rsp                                     0.000388           1
 chggra                                  0.000224           1
 brgrid                                  0.000139           1
 fordep                                  0.000043           1
 posmap                                  0.000043           2
 potlok_metagga                          0.000041         490
 crpa_reader                             0.000027           1
 rcp                                     0.000021           1
 acc_cufft_makeplans                     0.000010           3
 rotate_active_occupied_orbital          0.000001           1
 redis_pw_over_bands                     0.000000           1
  summed up times     2846.274274110794

 Accumulative profile

 total_time                           2846.274274           1
 elmin                                2813.344714           1
 eddav                                2016.946148         493
 set_dd_paw                            686.019421         491
 m_sumb_d                              504.152177     2646549
 lapack                                404.374990      862138
 hamiltmu                              320.941438      862138
 raccmu_                               266.208635      862138
 redis_pw                              229.677903     4778508
 newband                                95.118511      881858
 m_alltoall_d                           86.238456    12508172
 redis_proj                             83.257987     6068984
 fftwav_mpi                             61.608999     3369692
 fftwav                                 57.230706     3369692
 set_charge                             55.113858         489
 densta                                 52.870904         494
 soft_charge                            40.928291         489
 phaser                                 40.661930       19980
 eccp                                   39.910279      433840
 fft3d                                  38.052681     5093968
 kinhamil                               27.671556     1724276
 orth1                                  27.139986     2586534
 racc0mu_acc                            25.404379      862138
 w1_copy                                25.280949     5172828
 overl                                  24.713467     3014752
 fftext_mpi                             20.032274     1724276
 w1_projall                             19.226865      645218
 rpromu_acc                             19.154818      648338
 m_bcast_z                              17.349051      865658
 fft3d_mpi                              16.660109     1739025
 setup_precond                          15.743750      433840
 m_bcast_d                              14.016186     1725263
 overl_mu                               13.247944      862138
 init_acc                               12.562476           1
 ggemm                                  11.270822     1079058
 pw_charge                               9.281801      343540
 vhamil                                  7.853886     1724276
 depsum                                  7.128235         489
 apply_precond                           7.090485     1290436
 augmentation_charge                     4.104245         490
 force_and_stress                        3.715454           1
 potlok                                  3.590797         491
 fftbrc_mpi                              3.161296       14749
 fftbas_plan_mpi                         3.153708       14749
 brmix                                   2.670943         489
 setdij_                                 2.536901         517
 acc_init_cublas                         2.433924           1
 broyd                                   2.023521         489
 strnlr                                  1.543072           1
 rpro_isp                                1.478327         260
 map_backward                            1.162553       15722
 map_forward                             0.808903       13776
 acc_init_cusolver                       0.780524           1
 lincom                                  0.685624       19760
 map_scatter                             0.674348       16709
 dfftw_execute                           0.632030        5952
 m_alltoallv_z                           0.601671       16709
 fft_gq                                  0.588140         489
 fornlr                                  0.514492           1
 map_gather                              0.513144       16709
 orthch                                  0.359582           1
 brget                                   0.336497      112988
 setg0                                   0.285033         491
 truncate_high_frequency_w1              0.172627     2158116
 acc_cufft_makeplans                     0.149157           3
 acc_cufft_makeplan                      0.149147          19
 proall                                  0.141270           1
 rspher_all                              0.125410          14
 sphpro_fast                             0.116695           2
 brsav                                   0.091548       32591
 pothar                                  0.040404         492
 fordep                                  0.029065           1
 choleski                                0.011017          40
 brpre                                   0.008733         978
 stufak                                  0.004739           1
 inisym                                  0.004548           1
 vectorpot                               0.002037         490
 set_dd_magatom                          0.001971         491
 forhar                                  0.001851           2
 strelo                                  0.001730           1
 fewald                                  0.001255           1
 strehar                                 0.000972           1
 forloc                                  0.000950           1
 chggra                                  0.000764           1
 strkin                                  0.000614           1
 rsp                                     0.000388           1
 brgrid                                  0.000139           1
 posmap                                  0.000043           2
 potlok_metagga                          0.000041         490
 crpa_reader                             0.000027           1
 rcp                                     0.000021           1
 rotate_active_occupied_orbital          0.000001           1
 redis_pw_over_bands                     0.000000           1

Profiling took  10.547398  5.206618  0.002913  0.002860 seconds
Profiling took   6.517373 seconds