 vasp.6.3.2 27Jun22 (build Jul  3 2023 11:46:21) complex
 executed on    LinuxNV_CrayMPICH date 2024.05.12  16:18:15

 INCAR:
   ADDGRID = True
   ALGO = Normal
   EDIFF = 0.00095
   ENCUT = 520.0
   IBRION = -1
   ICHARG = 0
   ISIF = 3
   ISMEAR = -5
   ISPIN = 2
   ISTART = 1
   KPOINT_BSE = -1 0 0 0
   LAECHG = True
   LASPH = True
   LCHARG = True
   LELF = True
   LORBIT = 11
   LREAL = Auto
   LVHAR = True
   LWAVE = False
   MAGMOM = 1*7.0 12*5.0 6*0.6
   NELM = 1000
   NUPDOWN = 10
   NSW = 0
   PREC = accurate
   SIGMA = 0.05

 POTCAR:    PAW_PBE Eu 23Dec2003
 POTCAR:    PAW_PBE Ni_pv 06Sep2000
 POTCAR:    PAW_PBE B 06Sep2000
 POTCAR:    PAW_PBE Eu 23Dec2003
   VRHFIN =Eu : [core=Kr4d]

   TITEL  = PAW_PBE Eu 23Dec2003
   POMASS =  151.965; ZVAL   =   17.000    mass and valenz
   ENMAX  =  249.668; ENMIN  =  187.251 eV

   TITEL  = PAW_PBE Ni_pv 06Sep2000
   POMASS =   58.690; ZVAL   =   16.000    mass and valenz
   ENMAX  =  367.986; ENMIN  =  275.989 eV

   TITEL  = PAW_PBE B 06Sep2000
   POMASS =   10.811; ZVAL   =    3.000    mass and valenz
   ENMAX  =  318.614; ENMIN  =  238.960 eV

 Optimization of the real space projectors (new method)

 maximal supplied QI-value         = 13.42
 optimisation between [QCUT,QGAM] = [ 11.67, 23.35] = [ 38.16,152.62] Ry
 Optimized for a Real-space Cutoff    1.63 Angstroem

   l    n(q)    QCUT    max X(q) W(low)/X(q) W(high)/X(q)  e(spline)
   0     11    11.673    10.400    0.14E-04    0.18E-05    0.24E-07
   0     11    11.673    10.768    0.21E-04    0.32E-05    0.49E-07
   1     11    11.673     4.094    0.40E-05    0.13E-04    0.93E-07
   1     11    11.673     4.009    0.11E-04    0.46E-04    0.33E-06
   2     10    11.673    29.030    0.79E-04    0.60E-04    0.70E-06
   2     10    11.673    19.941    0.80E-04    0.60E-04    0.71E-06
   3     10    11.673    88.889    0.23E-03    0.29E-03    0.30E-06
   3     10    11.673    76.102    0.23E-03    0.30E-03    0.30E-06
 Optimization of the real space projectors (new method)

[...]

   l    n(q)    QCUT    max X(q) W(low)/X(q) W(high)/X(q)  e(spline)
   1      9    11.527     2.836    0.16E-04    0.30E-04    0.95E-07
   1      9    11.527     4.023    0.73E-04    0.81E-04    0.21E-06
   2      9    11.527    73.368    0.15E-03    0.29E-03    0.28E-06
   2      9    11.527    69.010    0.15E-03    0.29E-03    0.29E-06
   0      9    11.527    54.797    0.43E-04    0.28E-04    0.85E-07
   0      9    11.527    24.266    0.33E-04    0.24E-04    0.75E-07
 Optimization of the real space projectors (new method)

 maximal supplied QI-value         = 22.11
 optimisation between [QCUT,QGAM] = [ 11.50, 23.22] = [ 37.02,150.92] Ry
 Optimized for a Real-space Cutoff    1.21 Angstroem

   l    n(q)    QCUT    max X(q) W(low)/X(q) W(high)/X(q)  e(spline)
   0      8    11.497    53.033    0.18E-03    0.30E-03    0.10E-06
   0      8    11.497    34.740    0.17E-03    0.29E-03    0.10E-06
   1      8    11.497    30.949    0.20E-03    0.12E-03    0.21E-06
   1      8    11.497    19.518    0.18E-03    0.11E-03    0.19E-06
  PAW_PBE Eu 23Dec2003                  :
  PAW_PBE Ni_pv 06Sep2000               :
  PAW_PBE B 06Sep2000                   :

 POSCAR: Eu1 Ni12 B6
  positions in direct lattice
 exchange correlation table for  LEXCH =        8
   RHO(1)=    0.500       N(1)  =     2000
   RHO(2)=  100.500       N(2)  =     4000

 VTST: version 4.2, (08/11/21)

 CHAIN: initializing optimizer

 OPT: Using VASP Dynamics algorithm
 CHAIN: Read ICHAIN             0

 POSCAR: Eu1 Ni12 B6
  positions in direct lattice

 ion  position               nearest neighbor table
   1  0.000  0.000  0.000-
   2  0.812  0.542  0.542-  15 2.07  19 2.07  17 2.09  12 2.46   9 2.46   5 2.50   4 2.50
   3  0.500  0.869  0.131-  17 2.04  16 2.04  14 2.10  15 2.10   8 2.50   7 2.50  12 2.50
   4  0.131  0.500  0.869-  19 2.04  14 2.04  16 2.10  18 2.10   6 2.50   9 2.50   2 2.50
   5  0.131  0.869  0.500-  18 2.04  15 2.04  16 2.10  14 2.10  10 2.50   2 2.50  12 2.50
   6  0.869  0.500  0.131-  14 2.04  19 2.04  17 2.10  15 2.10   4 2.50   7 2.50  11 2.50
   7  0.542  0.542  0.812-  16 2.07  19 2.07  18 2.09  12 2.46  11 2.46   6 2.50   3 2.50
   8  0.500  0.131  0.869-  16 2.04  17 2.04  19 2.10  18 2.10   3 2.50   9 2.50  13 2.50
   9  0.458  0.458  0.188-  17 2.07  14 2.07  15 2.09  13 2.46   2 2.46   4 2.50   8 2.50
  10  0.869  0.131  0.500-  15 2.04  18 2.04  17 2.10  19 2.10   5 2.50  11 2.50  13 2.50
  11  0.188  0.458  0.458-  18 2.07  14 2.07  16 2.09  13 2.46   7 2.46  10 2.50   6 2.50
  12  0.458  0.188  0.458-  18 2.07  17 2.07  19 2.09   2 2.46   7 2.46   5 2.50   3 2.50
  13  0.542  0.812  0.542-  15 2.07  16 2.07  14 2.09  11 2.46   9 2.46  10 2.50   8 2.50
  14  0.234  0.663  0.234-   6 2.04   4 2.04   9 2.07  11 2.07  13 2.09   3 2.10   5 2.10
  15  0.766  0.766  0.337-  10 2.04   5 2.04   2 2.07  13 2.07   9 2.09   6 2.10   3 2.10
  16  0.337  0.766  0.766-   8 2.04   3 2.04   7 2.07  13 2.07  11 2.09   4 2.10   5 2.10
  17  0.663  0.234  0.234-   3 2.04   8 2.04   9 2.07  12 2.07   2 2.09   6 2.10  10 2.10
  18  0.234  0.234  0.663-   5 2.04  10 2.04  11 2.07  12 2.07   7 2.09   8 2.10   4 2.10
  19  0.766  0.337  0.766-   4 2.04   6 2.04   7 2.07   2 2.07  12 2.09   8 2.10  10 2.10

  LATTYP: Found a trigonal (rhomboedric) cell.
 ALAT       =     6.0350565924
 COS(alpha) =    -0.2471586020

  Lattice vectors:

 A1 = (   3.7026960000,  -4.7657050000,   0.0000000000)
 A2 = (   3.7026960000,   4.7657050000,   0.0000000000)
 A3 = (  -2.4311980000,   0.0000000000,   5.5236930000)

Analysis of symmetry for initial positions (statically):
 Subroutine PRICEL returns:
 Original cell was already a primitive cell.

 Routine SETGRP: Setting up the symmetry group for a
 trigonal (rhombohedral) supercell.

 Subroutine GETGRP returns: Found 12 space group operations
 (whereof 12 operations were pure point group operations)
 out of a pool of 12 trial point group operations.

The static configuration has the point symmetry D_3d.

Analysis of symmetry for dynamics (positions and initial velocities):
 Subroutine PRICEL returns:
 Original cell was already a primitive cell.

[...]

The dynamic configuration has the point symmetry D_3d.

Analysis of structural, dynamic, and magnetic symmetry:
 Subroutine PRICEL returns:
 Original cell was already a primitive cell.

 Routine SETGRP: Setting up the symmetry group for a
 trigonal (rhombohedral) supercell.

 Subroutine GETGRP returns: Found 12 space group operations
 (whereof 12 operations were pure point group operations)
 out of a pool of 12 trial point group operations.

The overall configuration has the point symmetry D_3d.

 Subroutine INISYM returns: Found 12 space group operations
 (whereof 12 operations are pure point group operations),
 and found     1 'primitive' translations

                                     Primitive cell

  volume of cell :     194.9417

  direct lattice vectors                    reciprocal lattice vectors
     3.702696000 -4.765705000  0.000000000     0.135036741 -0.104916272  0.059435065
     3.702696000  4.765705000  0.000000000     0.135036741  0.104916272  0.059435065
    -2.431198000  0.000000000  5.523693000    -0.000000000  0.000000000  0.181038302

  length of vectors
     6.035056074  6.035056074  6.035056592     0.181038317  0.181038317  0.181038302

  position of ions in fractional coordinates (direct lattice)
     0.000000000  0.000000000  0.000000000
     0.812445000  0.541976000  0.541976000
     0.500000000  0.868864000  0.131136000
     0.131136000  0.500000000  0.868864000
     0.131136000  0.868864000  0.500000000
     0.868864000  0.500000000  0.131136000
     0.541976000  0.541976000  0.812445000
     0.500000000  0.131136000  0.868864000
     0.458024000  0.458024000  0.187555000
     0.868864000  0.131136000  0.500000000
     0.187555000  0.458024000  0.458024000
     0.458024000  0.187555000  0.458024000
     0.541976000  0.812445000  0.541976000
     0.233767000  0.662920000  0.233767000
     0.766233000  0.766233000  0.337080000
     0.337080000  0.766233000  0.766233000
     0.662920000  0.233767000  0.233767000
     0.233767000  0.233767000  0.662920000
     0.766233000  0.337080000  0.766233000

  ion indices of the primitive-cell ions
   primitive index   ion index
                 1           1
                 2           2
                 3           3
                 4           4
                 5           5
                 6           6
                 7           7
                 8           8
                 9           9
                10          10
                11          11
                12          12
                13          13
                14          14
                15          15
                16          16
                17          17
                18          18
                19          19

 KPOINTS: Kpoints from vasprun.xml

Automatic generation of k-mesh.
 Grid dimensions read from file:
 generate k-points for:    5    5    5

 Generating k-lattice:

  Cartesian coordinates                     Fractional coordinates (reciprocal lattice)
     0.027007348 -0.020983254  0.011887013     0.200000000  0.000000000 -0.000000000
     0.027007348  0.020983254  0.011887013     0.000000000  0.200000000 -0.000000000
    -0.000000000  0.000000000  0.036207660     0.000000000  0.000000000  0.200000000

  Length of vectors
     0.036207663  0.036207663  0.036207660

  Shift w.r.t. Gamma in fractional coordinates (k-lattice)
     0.000000000  0.000000000  0.000000000

 TETIRR: Found    174 inequivalent tetrahedra from      750

 Subroutine IBZKPT returns following result:

 Found     19 irreducible k-points:

 Following reciprocal coordinates:
            Coordinates               Weight
  0.000000  0.000000  0.000000      1.000000
  0.200000  0.000000  0.000000      6.000000
  0.400000  0.000000  0.000000      6.000000
  0.200000  0.200000  0.000000      6.000000
  0.400000  0.200000  0.000000     12.000000
 -0.400000  0.200000  0.000000     12.000000
 -0.200000  0.200000  0.000000      6.000000
  0.400000  0.400000  0.000000      6.000000
 -0.400000  0.400000  0.000000      6.000000
  0.200000  0.200000  0.200000      2.000000
  0.400000  0.200000  0.200000      6.000000
 -0.400000  0.200000  0.200000      6.000000
 -0.200000  0.200000  0.200000      6.000000
  0.400000  0.400000  0.200000      6.000000
 -0.400000  0.400000  0.200000     12.000000
 -0.200000  0.400000  0.200000     12.000000
 -0.400000 -0.400000  0.200000      6.000000
  0.400000  0.400000  0.400000      2.000000
 -0.400000  0.400000  0.400000      6.000000

 Following cartesian coordinates:
            Coordinates               Weight
  0.000000  0.000000  0.000000      1.000000
  0.027007 -0.020983  0.011887      6.000000
  0.054015 -0.041967  0.023774      6.000000
  0.054015  0.000000  0.023774      6.000000
  0.081022 -0.020983  0.035661     12.000000
 -0.027007  0.062950 -0.011887     12.000000
  0.000000  0.041967  0.000000      6.000000
  0.108029  0.000000  0.047548      6.000000
  0.000000  0.083933  0.000000      6.000000
  0.054015  0.000000  0.059982      2.000000
[...]
  290                map_forward                           0.000191                    4   7
  291                  map_gather                            0.000044                  2   8
  292                  m_alltoallv_z                         0.000027                  2   8
  293                  map_scatter                           0.000092                  2   8
  294                map_backward                          0.000082                    2   7
  295                  map_gather                            0.000019                  1   8
  296                  m_alltoallv_z                         0.000012                  1   8
  297                  map_scatter                           0.000035                  1   8
  298          m_sumb_d                              0.000009                          2   4
  299          pothar                                0.000080                          1   4
  300            m_sumb_d                              0.000009                        1   5
  301        brmix                                 0.005002                            1   3
  302          m_sumb_d                              0.000044                          6   4
  303          brpre                                 0.000021                          2   4
  304          setg0                                 0.000781                          1   4
  305          broyd                                 0.003269                          1   4
  306            m_sumb_d                              0.000542                       39   5
  307            brget                                 0.000679                      169   5
  308            brsav                                 0.000150                       37   5
  309        m_bcast_d                             0.000026                            2   3
  310      potlok                                0.029846                              2   2
  311        fft3d_mpi                             0.019129                           36   3
  312          fftbrc_mpi                            0.016380                         36   4
  313            fftbas_plan_mpi                       0.016367                       36   5
  314              map_forward                           0.004640                     40   6
  315                map_gather                            0.001616                   24   7
  316                m_alltoallv_z                         0.001449                   24   7
  317                map_scatter                           0.001385                   24   7
  318              map_backward                          0.004073                     32   6
  319                map_gather                            0.001280                   16   7
  320                m_alltoallv_z                         0.001377                   16   7
  321                map_scatter                           0.001215                   16   7
  322              dfftw_execute                         0.005906                     30   6
  323        m_sumb_d                              0.000025                            5   3
  324        pothar                                0.001244                            2   3
  325          m_sumb_d                              0.000104                          2   4
  326        m_bcast_d                             0.001870                            4   3
  327      potlok_metagga                        0.000000                              1   2
  328      set_dd_magatom                        0.000004                              1   2
  329      set_dd_paw                            2.530189                              1   2
  330        m_sumb_d                              0.922680                            7   3
  331      augmentation_charge                   0.101181                              1   2
  332        fft3d_mpi                             0.031419                            2   3
  333          fftbrc_mpi                            0.028234                          2   4
  334            fftbas_plan_mpi                       0.028231                        2   5
  335              dfftw_execute                         0.018836                      6   6
  336              map_backward                          0.009123                      4   6
  337                map_gather                            0.002231                    2   7
  338                m_alltoallv_z                         0.004354                    2   7
  339                map_scatter                           0.002531                    2   7
  340      fftwav_mpi                            3.754217                           4902   2
  341        fftwav                                3.748052                         4902   3
  342          fft3d                                 3.593295                       4902   4
  343      densta                               11.438729                              1   2

 Flat profile

 m_sumb_d                               70.084740      327917
 set_dd_paw                             56.304735          35
 raccmu_                                52.163782      107778
 eddav                                  51.270254          37
 lapack                                 45.590997      107778
 redis_pw                               21.869133      569172
 densta                                 19.567111          38
 init_acc                               10.903081           1
 m_alltoall_d                           10.734228     1531026
 total_time                             10.733548           1
 fft3d                                   8.190983      628790
 phaser                                  6.186076        1653
 eccp                                    5.676708       60458
 redis_proj                              4.884543      717666
 fftwav                                  4.248092      419876
 setdij_                                 3.912677          61
 orth1                                   3.423879      323562
 rpromu_acc                              3.411752       82280
 racc0mu_acc                             3.171112      107778
 w1_copy                                 3.086431      626742
 overl                                   3.000973      357408
 m_bcast_z                               2.714325      114314
 hamiltmu                                2.635821      107778
 augmentation_charge                     2.388171          34
 dfftw_execute                           2.314662        1272
 setup_precond                           2.199889       60458
 soft_charge                             2.199825          33
 m_bcast_d                               1.782736      215631
 overl_mu                                1.683614      107778
 ggemm                                   1.485328      138710
 rpro_isp                                1.028171         247
 pw_charge                               1.010494       36362
 vhamil                                  0.963532      208914
 kinhamil                                0.959631      208914
 newband                                 0.931335      109184
 fftext_mpi                              0.895851      208914
 depsum                                  0.885634          33
 apply_precond                           0.835861      148456
 m_alltoallv_z                           0.671537        1489
 acc_init_cublas                         0.606278           1
 fftwav_mpi                              0.561679      419876
 fft3d_mpi                               0.451050      210247
 map_scatter                             0.349755        1489
 map_gather                              0.294338        1489
 sphpro_fast                             0.257587           2
 rspher_all                              0.228016          14
 set_charge                              0.221303          33
 potlok                                  0.133967          35
 elmin                                   0.099436           1
 fftbas_plan_mpi                         0.089093        1333
 w1_projall                              0.082605       76846
 proall                                  0.072578           1
 acc_init_cusolver                       0.063198           1
 lincom                                  0.058145        1444
 acc_cufft_makeplan                      0.054630          19
 brmix                                   0.031673          33
 orthch                                  0.028502           1
 setg0                                   0.026531          35
 broyd                                   0.024867          33
 truncate_high_frequency_w1              0.022679      269372
 force_and_stress                        0.018428           1
 choleski                                0.013297          38
 brget                                   0.011274        2931
 map_backward                            0.007434        1386
 stufak                                  0.007255           1
 strnlr                                  0.007004           1
 map_forward                             0.006804        1280
 inisym                                  0.004060           1
 pothar                                  0.003694          36
 brsav                                   0.002696         699
 fornlr                                  0.002454           1
 strelo                                  0.002036           1
 forhar                                  0.001938           2
 fft_gq                                  0.001597          33
 strehar                                 0.001256           1
 strkin                                  0.001190           1
 forloc                                  0.001017           1
 fftbrc_mpi                              0.000884        1333
 brpre                                   0.000758          66
 rsp                                     0.000568           1
 fewald                                  0.000333           1
 chggra                                  0.000252           1
 brgrid                                  0.000180           1
 set_dd_magatom                          0.000160          35
 vectorpot                               0.000140          34
 fordep                                  0.000109           1
 posmap                                  0.000057           2
 rcp                                     0.000028           1
 crpa_reader                             0.000027           1
 acc_cufft_makeplans                     0.000007           3
 potlok_metagga                          0.000003          34
 rotate_active_occupied_orbital          0.000000           1
 redis_pw_over_bands                     0.000000           1
  summed up times     429.8561010360718

 Accumulative profile

 total_time                            429.856101           1
 elmin                                 378.346422           1
 eddav                                 271.799700          37
 set_dd_paw                             90.641847          35
 m_sumb_d                               70.084740      327917
 hamiltmu                               64.018449      107778
 raccmu_                                57.018507      107778
 lapack                                 45.590997      107778
 redis_pw                               27.145792      569172
 densta                                 19.567111          38
 newband                                13.491061      109184
 fftwav_mpi                             11.520096      419876
 fftwav                                 10.958416      419876
 init_acc                               10.903081           1
 m_alltoall_d                           10.734228     1531026
 redis_proj                             10.342111      717666
 force_and_stress                        9.464106           1
 set_charge                              9.021702          33
 fft3d                                   8.190983      628790
 setdij_                                 6.469965          61
 phaser                                  6.186076        1653
 eccp                                    5.676708       60458
 fft3d_mpi                               5.666216      210247
 soft_charge                             4.456995          33
 fftbrc_mpi                              3.734508        1333
 fftbas_plan_mpi                         3.733624        1333
 augmentation_charge                     3.508759          34
 orth1                                   3.423879      323562
 rpromu_acc                              3.411752       82280
 kinhamil                                3.400589      208914
 racc0mu_acc                             3.171112      107778
 w1_copy                                 3.086431      626742
 overl                                   3.000973      357408
 strnlr                                  2.895862           1
 rpro_isp                                2.862906         247
 m_bcast_z                               2.714325      114314
 fftext_mpi                              2.440958      208914
 dfftw_execute                           2.314662        1272
 w1_projall                              2.296775       76846
 setup_precond                           2.199889       60458
 m_bcast_d                               1.782736      215631
 overl_mu                                1.683614      107778
 ggemm                                   1.485328      138710
 pw_charge                               1.010494       36362
 fornlr                                  0.966005           1
 vhamil                                  0.963532      208914
 depsum                                  0.892378          33
 apply_precond                           0.835861      148456
 map_forward                             0.790364        1280
 m_alltoallv_z                           0.671537        1489
 fordep                                  0.635734           1
 acc_init_cublas                         0.606278           1
 map_backward                            0.539505        1386
 potlok                                  0.424447          35
 orthch                                  0.366299           1
 map_scatter                             0.349755        1489
 map_gather                              0.294338        1489
 sphpro_fast                             0.268071           2
 proall                                  0.236238           1
 rspher_all                              0.228016          14
 brmix                                   0.107748          33
 acc_init_cusolver                       0.063198           1
 lincom                                  0.058145        1444
 fft_gq                                  0.057835          33
 acc_cufft_makeplans                     0.054637           3
 acc_cufft_makeplan                      0.054630          19
 broyd                                   0.047212          33
 setg0                                   0.026531          35
 truncate_high_frequency_w1              0.022679      269372
 choleski                                0.013297          38
 brget                                   0.011274        2931
 stufak                                  0.007255           1
 inisym                                  0.004117           1
 pothar                                  0.004081          36
 brsav                                   0.002696         699
 strelo                                  0.002136           1
 forhar                                  0.001983           2
 strehar                                 0.001259           1
 strkin                                  0.001205           1
 fewald                                  0.001075           1
 forloc                                  0.001057           1
 chggra                                  0.000801           1
 brpre                                   0.000758          66
 rsp                                     0.000568           1
 brgrid                                  0.000180           1
 set_dd_magatom                          0.000160          35
 vectorpot                               0.000140          34
 posmap                                  0.000057           2
 rcp                                     0.000028           1
 crpa_reader                             0.000027           1
 potlok_metagga                          0.000003          34
 rotate_active_occupied_orbital          0.000000           1
 redis_pw_over_bands                     0.000000           1

Profiling took   1.368003  0.656136  0.003504  0.003432 seconds
Profiling took   0.849602 seconds