 vasp.6.3.2 27Jun22 (build Jul  3 2023 11:46:21) complex
 executed on    LinuxNV_CrayMPICH date 2024.04.22  01:51:02

 INCAR:
   ADDGRID = True
   ALGO = Normal
   EDIFF = 0.0011
   ENCUT = 520.0
   IBRION = -1
   ICHARG = 0
   ISIF = 3
   ISMEAR = -5
   ISPIN = 2
   ISTART = 1
   KPOINT_BSE = -1 0 0 0
   LAECHG = True
   LASPH = True
   LCHARG = True
   LELF = True
   LORBIT = 11
   LREAL = Auto
   LVHAR = True
   LWAVE = False
   MAGMOM = 3*7.0 19*0.6
   NELM = 1000
   NSW = 0
   PREC = accurate
   SIGMA = 0.05

 POTCAR:    PAW_PBE Gd 23Dec2003
 POTCAR:    PAW_PBE Bi 08Apr2002
 POTCAR:    PAW_PBE Ru_pv 28Jan2005
 POTCAR:    PAW_PBE O 08Apr2002
 POTCAR:    PAW_PBE Gd 23Dec2003
   VRHFIN =Gd : [core=Xe4]

   TITEL  = PAW_PBE Gd 23Dec2003
   POMASS =  157.250; ZVAL   =   18.000    mass and valenz
   ENMAX  =  256.472; ENMIN  =  192.354 eV

   TITEL  = PAW_PBE Bi 08Apr2002
   POMASS =  208.980; ZVAL   =    5.000    mass and valenz
   ENMAX  =  105.037; ENMIN  =   78.777 eV

   TITEL  = PAW_PBE Ru_pv 28Jan2005
   POMASS =  101.070; ZVAL   =   14.000    mass and valenz
   ENMAX  =  240.049; ENMIN  =  180.037 eV

   TITEL  = PAW_PBE O 08Apr2002
   POMASS =   16.000; ZVAL   =    6.000    mass and valenz
   ENMAX  =  400.000; ENMIN  =  300.000 eV

 Optimization of the real space projectors (new method)

 maximal supplied QI-value         = 13.42
 optimisation between [QCUT,QGAM] = [ 11.67, 23.35] = [ 38.16,152.62] Ry
 Optimized for a Real-space Cutoff    1.63 Angstroem

   l    n(q)    QCUT    max X(q) W(low)/X(q) W(high)/X(q)  e(spline)
   0     11    11.673    10.501    0.14E-04    0.17E-05    0.21E-07
   0     11    11.673     9.148    0.21E-04    0.32E-05    0.45E-07
   1     11    11.673     4.035    0.33E-05    0.11E-04    0.84E-07
   1     11    11.673     4.388    0.11E-04    0.47E-04    0.34E-06
   2     10    11.673    20.656    0.12E-04    0.28E-04    0.54E-06
   2     10    11.673    12.651    0.11E-04    0.26E-04    0.51E-06
   3     10    11.673    61.921    0.19E-03    0.22E-03    0.23E-06
   3     10    11.673    48.328    0.20E-03    0.23E-03    0.23E-06
 Optimization of the real space projectors (new method)

[...]

   l    n(q)    QCUT    max X(q) W(low)/X(q) W(high)/X(q)  e(spline)
   1     10    11.641     3.180    0.30E-04    0.36E-05    0.54E-07
   1     10    11.641     5.351    0.12E-03    0.51E-04    0.30E-06
   2      9    11.641    66.565    0.22E-03    0.78E-04    0.20E-06
   2      9    11.641    63.466    0.22E-03    0.79E-04    0.20E-06
   0     10    11.641    85.644    0.61E-04    0.23E-04    0.12E-06
   0     10    11.641    44.119    0.56E-04    0.21E-04    0.11E-06
 Optimization of the real space projectors (new method)

 maximal supplied QI-value         = 24.76
 optimisation between [QCUT,QGAM] = [ 11.64, 23.27] = [ 37.91,151.63] Ry
 Optimized for a Real-space Cutoff    1.14 Angstroem

   l    n(q)    QCUT    max X(q) W(low)/X(q) W(high)/X(q)  e(spline)
   0      8    11.635    20.381    0.10E-03    0.33E-03    0.24E-06
   0      8    11.635    15.268    0.11E-03    0.35E-03    0.26E-06
   1      7    11.635     5.964    0.24E-03    0.31E-03    0.30E-06
   1      7    11.635     5.382    0.22E-03    0.25E-03    0.26E-06
  PAW_PBE Gd 23Dec2003                  :
  PAW_PBE Bi 08Apr2002                  :
  PAW_PBE Ru_pv 28Jan2005               :
  PAW_PBE O 08Apr2002                   :

 POSCAR: Gd3 Bi1 Ru4 O14
  positions in direct lattice
 exchange correlation table for  LEXCH =        8
   RHO(1)=    0.500       N(1)  =     2000
   RHO(2)=  100.500       N(2)  =     4000

 VTST: version 4.2, (08/11/21)

 CHAIN: initializing optimizer

 OPT: Using VASP Dynamics algorithm
 CHAIN: Read ICHAIN             0

 POSCAR: Gd3 Bi1 Ru4 O14
  positions in direct lattice

 ion  position               nearest neighbor table
   1  0.500  0.000  0.500-  21 2.22  22 2.22  10 2.52  16 2.52  15 2.52   9 2.52  14 2.54  20 2.54
                             4 3.66   4 3.66
   2  0.000  0.500  0.500-  21 2.22  22 2.22  11 2.52  17 2.52  15 2.52   9 2.52  13 2.54  19 2.54
                             4 3.66   4 3.66
   3  0.500  0.500  0.000-  21 2.22  22 2.22  10 2.52  16 2.52  11 2.52  17 2.52  12 2.54  18 2.54
                             4 3.66   4 3.66
   4  0.500  0.500  0.500-  21 2.27  22 2.27  19 2.53  20 2.53  13 2.53  14 2.53  12 2.53  18 2.53
                             3 3.66   3 3.66   1 3.66   2 3.66   1 3.66   2 3.66
   5  0.000  0.000  0.000-   9 2.01  15 2.01  11 2.01  10 2.01  16 2.01  17 2.01
   6  0.000  0.500  0.000-  12 2.00  18 2.00  13 2.00  19 2.00  11 2.02  17 2.02
   7  0.500  0.000  0.000-  12 2.00  18 2.00  14 2.00  20 2.00  10 2.02  16 2.02
   8  0.000  0.000  0.500-  13 2.00  14 2.00  19 2.00  20 2.00   9 2.02  15 2.02
   9  0.919  0.919  0.331-   5 2.01   8 2.02   1 2.52   2 2.52
  10  0.331  0.919  0.919-   5 2.01   7 2.02   3 2.52   1 2.52
  11  0.919  0.331  0.919-   5 2.01   6 2.02   3 2.52   2 2.52
  12  0.330  0.330  0.920-   6 2.00   7 2.00   4 2.53   3 2.54
  13  0.920  0.330  0.330-   8 2.00   6 2.00   4 2.53   2 2.54
  14  0.330  0.920  0.330-   8 2.00   7 2.00   4 2.53   1 2.54
  15  0.081  0.081  0.669-   5 2.01   8 2.02   1 2.52   2 2.52
  16  0.669  0.081  0.081-   5 2.01   7 2.02   3 2.52   1 2.52
  17  0.081  0.669  0.081-   5 2.01   6 2.02   3 2.52   2 2.52
  18  0.670  0.670  0.080-   6 2.00   7 2.00   4 2.53   3 2.54
  19  0.080  0.670  0.670-   8 2.00   6 2.00   4 2.53   2 2.54
  20  0.670  0.080  0.670-   8 2.00   7 2.00   4 2.53   1 2.54
  21  0.627  0.627  0.627-   1 2.22   2 2.22   3 2.22   4 2.27
  22  0.373  0.373  0.373-   1 2.22   2 2.22   3 2.22   4 2.27

  LATTYP: Found a trigonal (rhomboedric) cell.
 ALAT       =     7.3150135149
 COS(alpha) =     0.5026726540

  Lattice vectors:

 A1 = (   6.3406290000,  -3.6477180000,   0.0000000000)
 A2 = (   6.3406290000,   3.6477180000,   0.0000000000)
 A3 = (   4.2421220000,   0.0000000000,   5.9593470000)

Analysis of symmetry for initial positions (statically):
 Subroutine PRICEL returns:
 Original cell was already a primitive cell.

 Routine SETGRP: Setting up the symmetry group for a
 trigonal (rhombohedral) supercell.

 Subroutine GETGRP returns: Found 12 space group operations
 (whereof 12 operations were pure point group operations)
 out of a pool of 12 trial point group operations.

The static configuration has the point symmetry D_3d.

Analysis of symmetry for dynamics (positions and initial velocities):
 Subroutine PRICEL returns:
 Original cell was already a primitive cell.

[...]

The dynamic configuration has the point symmetry D_3d.

Analysis of structural, dynamic, and magnetic symmetry:
 Subroutine PRICEL returns:
 Original cell was already a primitive cell.

 Routine SETGRP: Setting up the symmetry group for a
 trigonal (rhombohedral) supercell.

 Subroutine GETGRP returns: Found 12 space group operations
 (whereof 12 operations were pure point group operations)
 out of a pool of 12 trial point group operations.

The overall configuration has the point symmetry D_3d.

 Subroutine INISYM returns: Found 12 space group operations
 (whereof 12 operations are pure point group operations),
 and found     1 'primitive' translations

                                     Primitive cell

  volume of cell :     275.6654

  direct lattice vectors                    reciprocal lattice vectors
     6.340629000 -3.647718000  0.000000000     0.078856530 -0.137072000 -0.056133503
     6.340629000  3.647718000  0.000000000     0.078856530  0.137072000 -0.056133503
     4.242122000  0.000000000  5.959347000    -0.000000000  0.000000000  0.167803620

  length of vectors
     7.315013515  7.315013515  7.315013037     0.167803622  0.167803622  0.167803620

  position of ions in fractional coordinates (direct lattice)
     0.500000000  0.000000000  0.500000000
     0.000000000  0.500000000  0.500000000
     0.500000000  0.500000000  0.000000000
     0.500000000  0.500000000  0.500000000
     0.000000000  0.000000000  0.000000000
     0.000000000  0.500000000  0.000000000
     0.500000000  0.000000000  0.000000000
     0.000000000  0.000000000  0.500000000
     0.918765000  0.918765000  0.331182000
     0.331182000  0.918765000  0.918765000
     0.918765000  0.331182000  0.918765000
     0.329997000  0.329997000  0.919782000
     0.919782000  0.329997000  0.329997000
     0.329997000  0.919782000  0.329997000
     0.081235000  0.081235000  0.668818000
     0.668818000  0.081235000  0.081235000
     0.081235000  0.668818000  0.081235000
     0.670003000  0.670003000  0.080218000
     0.080218000  0.670003000  0.670003000
     0.670003000  0.080218000  0.670003000
     0.626718000  0.626718000  0.626718000
     0.373282000  0.373282000  0.373282000

  ion indices of the primitive-cell ions
   primitive index   ion index
                 1           1
                 2           2
                 3           3
                 4           4
                 5           5
                 6           6
                 7           7
                 8           8
                 9           9
                10          10
                11          11
                12          12
                13          13
                14          14
                15          15
                16          16
                17          17
                18          18
                19          19
                20          20
                21          21
                22          22

 KPOINTS: Kpoints from vasprun.xml

Automatic generation of k-mesh.
 Grid dimensions read from file:
 generate k-points for:    4    4    4

 Generating k-lattice:

  Cartesian coordinates                     Fractional coordinates (reciprocal lattice)
     0.019714132 -0.034268000 -0.014033376     0.250000000  0.000000000  0.000000000
     0.019714132  0.034268000 -0.014033376     0.000000000  0.250000000  0.000000000
    -0.000000000  0.000000000  0.041950905     0.000000000  0.000000000  0.250000000

  Length of vectors
     0.041950905  0.041950905  0.041950905

  Shift w.r.t. Gamma in fractional coordinates (k-lattice)
     0.000000000  0.000000000  0.000000000

 TETIRR: Found     30 inequivalent tetrahedra from      384

 Subroutine IBZKPT returns following result:

 Found     13 irreducible k-points:

 Following reciprocal coordinates:
            Coordinates               Weight
  0.000000  0.000000  0.000000      1.000000
  0.250000  0.000000  0.000000      6.000000
  0.500000  0.000000  0.000000      3.000000
  0.250000  0.250000  0.000000      6.000000
  0.500000  0.250000  0.000000     12.000000
 -0.250000  0.250000  0.000000      6.000000
  0.500000  0.500000  0.000000      3.000000
  0.250000  0.250000  0.250000      2.000000
  0.500000  0.250000  0.250000      6.000000
 -0.250000  0.250000  0.250000      6.000000
  0.500000  0.500000  0.250000      6.000000
 -0.250000  0.500000  0.250000      6.000000
  0.500000  0.500000  0.500000      1.000000

 Following cartesian coordinates:
            Coordinates               Weight
  0.000000  0.000000  0.000000      1.000000
  0.019714 -0.034268 -0.014033      6.000000
  0.039428 -0.068536 -0.028067      3.000000
[...]
  290                map_forward                           0.000224                    4   7
  291                  map_gather                            0.000047                  2   8
  292                  m_alltoallv_z                         0.000046                  2   8
  293                  map_scatter                           0.000095                  2   8
  294                map_backward                          0.000096                    2   7
  295                  map_gather                            0.000024                  1   8
  296                  m_alltoallv_z                         0.000011                  1   8
  297                  map_scatter                           0.000044                  1   8
  298          m_sumb_d                              0.000012                          2   4
  299          pothar                                0.000085                          1   4
  300            m_sumb_d                              0.000008                        1   5
  301        brmix                                 0.010437                            1   3
  302          m_sumb_d                              0.000057                          6   4
  303          brpre                                 0.000033                          2   4
  304          setg0                                 0.001114                          1   4
  305          broyd                                 0.007955                          1   4
  306            brget                                 0.002089                      326   5
  307            brsav                                 0.000953                      163   5
  308            m_sumb_d                              0.000421                       47   5
  309        m_bcast_d                             0.000025                            2   3
  310      potlok                                0.041163                              2   2
  311        fft3d_mpi                             0.025955                           36   3
  312          fftbrc_mpi                            0.022592                         36   4
  313            fftbas_plan_mpi                       0.022571                       36   5
  314              map_forward                           0.006375                     40   6
  315                map_gather                            0.001869                   24   7
  316                m_alltoallv_z                         0.002530                   24   7
  317                map_scatter                           0.001773                   24   7
  318              map_backward                          0.005599                     32   6
  319                map_gather                            0.001689                   16   7
  320                m_alltoallv_z                         0.002173                   16   7
  321                map_scatter                           0.001542                   16   7
  322              dfftw_execute                         0.009059                     30   6
  323        m_sumb_d                              0.000028                            5   3
  324        pothar                                0.001582                            2   3
  325          m_sumb_d                              0.000124                          2   4
  326        m_bcast_d                             0.002606                            4   3
  327      potlok_metagga                        0.000000                              1   2
  328      set_dd_magatom                        0.000004                              1   2
  329      set_dd_paw                            2.276872                              1   2
  330        m_sumb_d                              0.663816                            7   3
  331      augmentation_charge                   0.173950                              1   2
  332        fft3d_mpi                             0.058500                            2   3
  333          fftbrc_mpi                            0.053117                          2   4
  334            fftbas_plan_mpi                       0.053115                        2   5
  335              dfftw_execute                         0.035935                      6   6
  336              map_backward                          0.016895                      4   6
  337                map_gather                            0.004709                    2   7
  338                m_alltoallv_z                         0.006312                    2   7
  339                map_scatter                           0.005865                    2   7
  340      fftwav_mpi                            2.885396                           2652   2
  341        fftwav                                2.882037                         2652   3
  342          fft3d                                 2.670921                       2652   4
  343      densta                                1.106159                              1   2

 Flat profile

 set_dd_paw                             77.434638          48
 m_sumb_d                               64.518852      249493
 eddav                                  42.919283          50
 raccmu_                                42.806948       81292
 lapack                                 37.918217       81292
 redis_pw                               18.084749      446204
 total_time                             13.070276           1
 init_acc                               11.125415           1
 m_alltoall_d                            8.475250     1186708
 setdij_                                 7.833419          74
 phaser                                  6.337482        1469
 fft3d                                   6.238426      488184
 augmentation_charge                     5.330865          47
 dfftw_execute                           5.112099        1584
 eccp                                    4.455500       44200
 redis_proj                              3.846182      564614
 fftwav                                  3.400226      325600
 densta                                  2.654104          51
 orth1                                   2.616280      244006
 rpromu_acc                              2.456132       62234
 acc_init_cublas                         2.433263           1
 racc0mu_acc                             2.416701       81292
 w1_copy                                 2.374668      487752
 overl                                   2.374242      280994
 hamiltmu                                2.242748       81292
 m_bcast_z                               2.001701       84828
 soft_charge                             1.751807          46
 setup_precond                           1.611553       44200
 ggemm                                   1.599317      103392
 m_bcast_d                               1.348986      162685
 overl_mu                                1.281267       81292
 m_alltoallv_z                           1.190599        1983
 pw_charge                               0.950003       30488
 map_scatter                             0.843174        1983
 acc_init_cusolver                       0.789497           1
 vhamil                                  0.759891      162584
 fft3d_mpi                               0.753162      164359
 kinhamil                                0.736194      162584
 fftext_mpi                              0.698080      162584
 newband                                 0.681824       82592
 depsum                                  0.670232          46
 apply_precond                           0.660764      118384
 rpro_isp                                0.592389         169
 map_gather                              0.571644        1983
 set_charge                              0.464696          46
 fftwav_mpi                              0.436199      325600
 rspher_all                              0.266135          14
 potlok                                  0.224990          48
 sphpro_fast                             0.158800           2
 acc_cufft_makeplan                      0.121480          19
 elmin                                   0.118189           1
 fftbas_plan_mpi                         0.106011        1775
 broyd                                   0.101982          46
 brmix                                   0.084253          46
 proall                                  0.062925           1
 w1_projall                              0.062162       59192
 setg0                                   0.052212          48
 lincom                                  0.047435        1326
 brget                                   0.037682        5675
 orthch                                  0.021390           1
 truncate_high_frequency_w1              0.016885      206784
 force_and_stress                        0.016684           1
 choleski                                0.012205          26
 stufak                                  0.011916           1
 map_forward                             0.010343        1696
 map_backward                            0.010045        1854
 brsav                                   0.009101        1386
 pothar                                  0.005186          49
 strnlr                                  0.004773           1
 inisym                                  0.004488           1
 fft_gq                                  0.004254          46
 forhar                                  0.002426           2
 strelo                                  0.002147           1
 brpre                                   0.001680          92
 strehar                                 0.001656           1
 fornlr                                  0.001647           1
 forloc                                  0.001276           1
 fftbrc_mpi                              0.001102        1775
 strkin                                  0.000904           1
 rsp                                     0.000728           1
 fewald                                  0.000354           1
 chggra                                  0.000271           1
 set_dd_magatom                          0.000216          48
 brgrid                                  0.000215           1
 vectorpot                               0.000198          47
 fordep                                  0.000098           1
 posmap                                  0.000058           2
 rcp                                     0.000041           1
 crpa_reader                             0.000027           1
 acc_cufft_makeplans                     0.000014           3
 potlok_metagga                          0.000003          47
 rotate_active_occupied_orbital          0.000001           1
 redis_pw_over_bands                     0.000000           1
  summed up times     400.4555361270905

 Accumulative profile

 total_time                            400.455536           1
 elmin                                 354.966956           1
 eddav                                 226.944930          50
 set_dd_paw                            109.239699          48
 m_sumb_d                               64.518852      249493
 hamiltmu                               52.138070       81292
 raccmu_                                46.504917       81292
 lapack                                 37.918217       81292
 redis_pw                               22.191410      446204
 set_charge                             13.044279          46
 setdij_                                12.884370          74
 init_acc                               11.125415           1
 newband                                10.164923       82592
 fft3d_mpi                               9.746170      164359
 force_and_stress                        9.662028           1
 fftwav_mpi                              8.926861      325600
 fftwav                                  8.490662      325600
 m_alltoall_d                            8.475250     1186708
 redis_proj                              8.214771      564614
 augmentation_charge                     8.101336          47
 fftbrc_mpi                              7.845017        1775
 fftbas_plan_mpi                         7.843915        1775
 phaser                                  6.337482        1469
 fft3d                                   6.238426      488184
 dfftw_execute                           5.112099        1584
 eccp                                    4.455500       44200
 soft_charge                             3.891659          46
 densta                                  2.654104          51
 kinhamil                                2.630515      162584
 orth1                                   2.616280      244006
 rpromu_acc                              2.456132       62234
 acc_init_cublas                         2.433263           1
 racc0mu_acc                             2.416701       81292
 w1_copy                                 2.374668      487752
 overl                                   2.374242      280994
 m_bcast_z                               2.001701       84828
 strnlr                                  1.903488           1
 fftext_mpi                              1.894321      162584
 w1_projall                              1.810392       59192
 rpro_isp                                1.648089         169
 setup_precond                           1.611553       44200
 ggemm                                   1.599317      103392
 map_forward                             1.405501        1696
 m_bcast_d                               1.348986      162685
 overl_mu                                1.281267       81292
 map_backward                            1.220303        1854
 m_alltoallv_z                           1.190599        1983
 fordep                                  1.056394           1
 pw_charge                               0.950003       30488
 map_scatter                             0.843174        1983
 acc_init_cusolver                       0.789497           1
 vhamil                                  0.759891      162584
 depsum                                  0.681460          46
 apply_precond                           0.660764      118384
 potlok                                  0.644399          48
 fornlr                                  0.636332           1
 map_gather                              0.571644        1983
 orthch                                  0.343922           1
 brmix                                   0.301563          46
 rspher_all                              0.266135          14
 sphpro_fast                             0.165219           2
 proall                                  0.165093           1
 broyd                                   0.159981          46
 acc_cufft_makeplans                     0.121493           3
 acc_cufft_makeplan                      0.121480          19
 fft_gq                                  0.112910          46
 setg0                                   0.052212          48
 lincom                                  0.047435        1326
 brget                                   0.037682        5675
 truncate_high_frequency_w1              0.016885      206784
 choleski                                0.012205          26
 stufak                                  0.011916           1
 brsav                                   0.009101        1386
 pothar                                  0.005783          49
 inisym                                  0.004546           1
 forhar                                  0.002516           2
 strelo                                  0.002300           1
 strehar                                 0.001714           1
 brpre                                   0.001680          92
 forloc                                  0.001641           1
 fewald                                  0.001619           1
 strkin                                  0.000909           1
 chggra                                  0.000889           1
 rsp                                     0.000728           1
 set_dd_magatom                          0.000216          48
 brgrid                                  0.000215           1
 vectorpot                               0.000198          47
 posmap                                  0.000058           2
 rcp                                     0.000041           1
 crpa_reader                             0.000027           1
 potlok_metagga                          0.000003          47
 rotate_active_occupied_orbital          0.000001           1
 redis_pw_over_bands                     0.000000           1

Profiling took   1.005672  0.498304  0.003248  0.003135 seconds
Profiling took   0.639498 seconds