 vasp.6.3.2 27Jun22 (build Jul  3 2023 11:46:21) complex
 executed on    LinuxNV_CrayMPICH date 2024.04.21  00:10:12

 INCAR:
   ALGO = Normal
   EDIFF = 1e-05
   ENCUT = 520.0
   IBRION = -1
   ISIF = 3
   ISMEAR = -5
   ISPIN = 2
   LAECHG = True
   LASPH = True
   LCHARG = True
   LORBIT = 11
   LREAL = Auto
   LVHAR = True
   LWAVE = False
   MAGMOM = 2*0.6 2*7.0 8*0.6
   NELM = 1000
   NSW = 0
   PREC = Accurate
   SIGMA = 0.05

 POTCAR:    PAW_PBE Cs_sv 08Apr2002
 POTCAR:    PAW_PBE Gd 23Dec2003
 POTCAR:    PAW_PBE Hg 06Sep2000
 POTCAR:    PAW_PBE Se 06Sep2000
 POTCAR:    PAW_PBE Cs_sv 08Apr2002
   VRHFIN =Cs: 5s5p6s

   TITEL  = PAW_PBE Cs_sv 08Apr2002
   POMASS =  132.900; ZVAL   =    9.000    mass and valenz
   ENMAX  =  220.318; ENMIN  =  165.238 eV

   TITEL  = PAW_PBE Gd 23Dec2003
   POMASS =  157.250; ZVAL   =   18.000    mass and valenz
   ENMAX  =  256.472; ENMIN  =  192.354 eV

   TITEL  = PAW_PBE Hg 06Sep2000
   POMASS =  200.590; ZVAL   =   12.000    mass and valenz
   ENMAX  =  233.204; ENMIN  =  174.903 eV

   TITEL  = PAW_PBE Se 06Sep2000
   POMASS =   78.960; ZVAL   =    6.000    mass and valenz
   ENMAX  =  211.555; ENMIN  =  158.666 eV

 Optimization of the real space projectors (new method)

 maximal supplied QI-value         = 15.12
 optimisation between [QCUT,QGAM] = [ 11.64, 23.28] = [ 37.95,151.78] Ry
 Optimized for a Real-space Cutoff    1.58 Angstroem

   l    n(q)    QCUT    max X(q) W(low)/X(q) W(high)/X(q)  e(spline)
   0     11    11.641    25.322    0.32E-04    0.44E-04    0.76E-06
   0     11    11.641    99.187    0.29E-04    0.43E-04    0.73E-06
   1     11    11.641    11.761    0.14E-03    0.20E-04    0.36E-06
   1     11    11.641     8.275    0.16E-03    0.25E-04    0.39E-06
   2     10    11.641     3.829    0.40E-04    0.12E-03    0.26E-06
 Optimization of the real space projectors (new method)

[...]

   l    n(q)    QCUT    max X(q) W(low)/X(q) W(high)/X(q)  e(spline)
   2      9    11.641    85.054    0.63E-04    0.13E-03    0.51E-06
   2      9    11.641    84.141    0.64E-04    0.13E-03    0.51E-06
   0     10    11.641   132.931    0.15E-03    0.13E-03    0.47E-06
   0     10    11.641   100.595    0.15E-03    0.13E-03    0.46E-06
   1     10    11.641    35.860    0.15E-03    0.79E-04    0.27E-06
   1     10    11.641    30.554    0.14E-03    0.70E-04    0.24E-06
 Optimization of the real space projectors (new method)

 maximal supplied QI-value         = 17.95
 optimisation between [QCUT,QGAM] = [ 11.67, 23.34] = [ 38.13,152.52] Ry
 Optimized for a Real-space Cutoff    1.25 Angstroem

   l    n(q)    QCUT    max X(q) W(low)/X(q) W(high)/X(q)  e(spline)
   0      9    11.669   133.320    0.17E-03    0.44E-04    0.69E-07
   0      9    11.669   111.601    0.18E-03    0.46E-04    0.72E-07
   1      8    11.669    47.222    0.22E-03    0.37E-03    0.10E-06
   1      8    11.669    33.775    0.22E-03    0.36E-03    0.10E-06
   2      8    11.669     3.720    0.19E-03    0.46E-04    0.50E-07
  PAW_PBE Cs_sv 08Apr2002               :
  PAW_PBE Gd 23Dec2003                  :
  PAW_PBE Hg 06Sep2000                  :
  PAW_PBE Se 06Sep2000                  :

 POSCAR: Cs2 Gd2 Hg2 Se6
  positions in direct lattice
 exchange correlation table for  LEXCH =        8
   RHO(1)=    0.500       N(1)  =     2000
   RHO(2)=  100.500       N(2)  =     4000

 VTST: version 4.2, (08/11/21)

 CHAIN: initializing optimizer

 OPT: Using VASP Dynamics algorithm
 CHAIN: Read ICHAIN             0

 POSCAR: Cs2 Gd2 Hg2 Se6
  positions in direct lattice

 ion  position               nearest neighbor table
   1  0.744  0.256  0.250-
   2  0.256  0.744  0.750-
   3  0.000  0.000  0.500-   9 2.96  12 2.96   9 2.96  12 2.96   7 2.98   8 2.98   5 3.63   6 3.63
                             6 3.63   5 3.63
   4  0.000  0.000  0.000-  10 2.96  11 2.96  10 2.96  11 2.96   7 2.98   8 2.98   5 3.63   6 3.63
                             6 3.63   5 3.63
   5  0.546  0.454  0.750-   9 2.63  10 2.63   8 2.78   8 2.78   3 3.63   3 3.63   4 3.63   4 3.63

   6  0.454  0.546  0.250-  11 2.63  12 2.63   7 2.78   7 2.78   3 3.63   3 3.63   4 3.63   4 3.63

   7  0.060  0.940  0.250-   6 2.78   6 2.78   4 2.98   3 2.98
   8  0.940  0.060  0.750-   5 2.78   5 2.78   4 2.98   3 2.98
   9  0.619  0.381  0.542-   5 2.63   3 2.96   3 2.96
  10  0.619  0.381  0.958-   5 2.63   4 2.96   4 2.96
  11  0.381  0.619  0.042-   6 2.63   4 2.96   4 2.96
  12  0.381  0.619  0.458-   6 2.63   3 2.96   3 2.96

  LATTYP: Found a base centered orthorhombic cell.
 ALAT       =     4.3435240000
 B/A-ratio  =     3.7632806910
 C/A-ratio  =     2.5906416081

  Lattice vectors:

 A1 = (   2.1717620000,  -8.1729500000,   0.0000000000)
 A2 = (   2.1717620000,   8.1729500000,   0.0000000000)
 A3 = (   0.0000000000,   0.0000000000,  11.2525140000)

Analysis of symmetry for initial positions (statically):
 Subroutine PRICEL returns:
 Original cell was already a primitive cell.

 Routine SETGRP: Setting up the symmetry group for a
 base centered orthorhombic supercell.

 Subroutine GETGRP returns: Found  8 space group operations
 (whereof  4 operations were pure point group operations)
 out of a pool of  8 trial point group operations.

The static configuration has the point symmetry C_2h.
 The point group associated with its full space group is D_2h.

Analysis of symmetry for dynamics (positions and initial velocities):
 Subroutine PRICEL returns:
 Original cell was already a primitive cell.

[...]

The dynamic configuration has the point symmetry C_2h.
 The point group associated with its full space group is D_2h.

Analysis of structural, dynamic, and magnetic symmetry:
 Subroutine PRICEL returns:
 Original cell was already a primitive cell.

 Routine SETGRP: Setting up the symmetry group for a
 base centered orthorhombic supercell.

 Subroutine GETGRP returns: Found  8 space group operations
 (whereof  4 operations were pure point group operations)
 out of a pool of  8 trial point group operations.

The overall configuration has the point symmetry C_2h.
 The point group associated with its full space group is D_2h.

 Subroutine INISYM returns: Found  8 space group operations
 (whereof  4 operations are pure point group operations),
 and found     1 'primitive' translations

                                     Primitive cell

  volume of cell :     399.4575

  direct lattice vectors                    reciprocal lattice vectors
     2.171762000 -8.172950000  0.000000000     0.230227806 -0.061177421  0.000000000
     2.171762000  8.172950000  0.000000000     0.230227806  0.061177421 -0.000000000
     0.000000000  0.000000000 11.252514000    -0.000000000  0.000000000  0.088869030

  length of vectors
     8.456575068  8.456575068 11.252514000     0.238217378  0.238217378  0.088869030

  position of ions in fractional coordinates (direct lattice)
     0.743818000  0.256182000  0.250000000
     0.256182000  0.743818000  0.750000000
     0.000000000  0.000000000  0.500000000
     0.000000000  0.000000000  0.000000000
     0.545512000  0.454488000  0.750000000
     0.454488000  0.545512000  0.250000000
     0.060266000  0.939734000  0.250000000
     0.939734000  0.060266000  0.750000000
     0.619292000  0.380708000  0.542289000
     0.619292000  0.380708000  0.957711000
     0.380708000  0.619292000  0.042289000
     0.380708000  0.619292000  0.457711000

  ion indices of the primitive-cell ions
   primitive index   ion index
                 1           1
                 2           2
                 3           3
                 4           4
                 5           5
                 6           6
                 7           7
                 8           8
                 9           9
                10          10
                11          11
                12          12

 KPOINTS: Kpoints from vasprun.xml

Automatic generation of k-mesh.
 Grid dimensions read from file:
 generate k-points for:    4    4    3

 Generating k-lattice:

  Cartesian coordinates                     Fractional coordinates (reciprocal lattice)
     0.057556951 -0.015294355  0.000000000     0.250000000 -0.000000000  0.000000000
     0.057556951  0.015294355 -0.000000000    -0.000000000  0.250000000  0.000000000
    -0.000000000  0.000000000  0.029623010     0.000000000  0.000000000  0.333333333

  Length of vectors
     0.059554345  0.059554345  0.029623010

  Shift w.r.t. Gamma in fractional coordinates (k-lattice)
     0.000000000  0.000000000  0.000000000

 TETIRR: Found     74 inequivalent tetrahedra from      288

 Subroutine IBZKPT returns following result:

 Found     14 irreducible k-points:

 Following reciprocal coordinates:
            Coordinates               Weight
  0.000000  0.000000  0.000000      1.000000
  0.250000  0.000000  0.000000      4.000000
  0.500000  0.000000  0.000000      2.000000
  0.250000  0.250000  0.000000      2.000000
  0.500000  0.250000  0.000000      4.000000
 -0.250000  0.250000  0.000000      2.000000
  0.500000  0.500000  0.000000      1.000000
  0.000000  0.000000  0.333333      2.000000
  0.250000  0.000000  0.333333      8.000000
  0.500000  0.000000  0.333333      4.000000
  0.250000  0.250000  0.333333      4.000000
  0.500000  0.250000  0.333333      8.000000
 -0.250000  0.250000  0.333333      4.000000
  0.500000  0.500000  0.333333      2.000000

 Following cartesian coordinates:
            Coordinates               Weight
  0.000000  0.000000  0.000000      1.000000
  0.057557 -0.015294  0.000000      4.000000
  0.115114 -0.030589  0.000000      2.000000
  0.115114  0.000000  0.000000      2.000000
  0.172671 -0.015294  0.000000      4.000000
  0.000000  0.030589  0.000000      2.000000
  0.230228  0.000000  0.000000      1.000000
  0.000000  0.000000  0.029623      2.000000
  0.057557 -0.015294  0.029623      8.000000
  0.115114 -0.030589  0.029623      4.000000
  0.115114  0.000000  0.029623      4.000000
  0.172671 -0.015294  0.029623      8.000000
  0.000000  0.030589  0.029623      4.000000
  0.230228  0.000000  0.029623      2.000000

 SYSTEM =  unknown system
 POSCAR =  Cs2 Gd2 Hg2 Se6

 Startparameter for this run:
   NWRITE =      2    write-flag & timer
   PREC   = accura    normal or accurate (medium, high low for compatibility)
   ISTART =      0    job   : 0-new  1-cont  2-samecut
   ICHARG =      2    charge: 1-file 2-atom 10-const
   ISPIN  =      2    spin polarized calculation?
   LNONCOLLINEAR =      F non collinear calculations
   LSORBIT =      F    spin-orbit coupling
   INIWAV =      1    electr: 0-lowe 1-rand  2-diag
   LASPH  =      T    aspherical Exc in radial PAW
 Electronic Relaxation 1
   ENCUT  =  520.0 eV  38.22 Ry    6.18 a.u.  15.72 15.72 20.92*2*pi/ulx,y,z
   ENINI  =  520.0     initial cutoff
   ENAUG  =  537.2 eV  augmentation charge cutoff
   NELM   =   1000;   NELMIN=  2; NELMDL= -5     # of ELM steps
   EDIFF  = 0.1E-04   stopping-criterion for ELM
   LREAL  =      T    real-space projection
   NLSPLINE    = F    spline interpolate recip. space projectors
   LCOMPAT=      F    compatible to vasp.4.4
   GGA_COMPAT  = T    GGA compatible to vasp.4.4-vasp.4.6
   LMAXPAW     = -100 max onsite density
[...]
  239          fft3d_mpi                             0.000817                          3   4
  240            fftbrc_mpi                            0.000566                        3   5
  241              fftbas_plan_mpi                       0.000565                      3   6
  242                map_forward                           0.000332                    4   7
  243                  map_gather                            0.000054                  2   8
  244                  m_alltoallv_z                         0.000040                  2   8
  245                  map_scatter                           0.000201                  2   8
  246                map_backward                          0.000137                    2   7
  247                  map_gather                            0.000029                  1   8
  248                  m_alltoallv_z                         0.000015                  1   8
  249                  map_scatter                           0.000069                  1   8
  250          m_sumb_d                              0.000012                          2   4
  251          pothar                                0.000096                          1   4
  252            m_sumb_d                              0.000009                        1   5
  253        brmix                                 0.009835                            1   3
  254          m_sumb_d                              0.000051                          6   4
  255          brpre                                 0.000056                          2   4
  256          setg0                                 0.003574                          1   4
  257          broyd                                 0.003083                          1   4
  258            m_sumb_d                              0.000352                       22   5
  259            brsav                                 0.000218                       21   5
  260            brget                                 0.000853                       84   5
  261        m_bcast_d                             0.000034                            2   3
  262      potlok                                0.082849                              2   2
  263        fft3d_mpi                             0.053510                           36   3
  264          fftbrc_mpi                            0.041098                         36   4
  265            fftbas_plan_mpi                       0.041075                       36   5
  266              map_forward                           0.011641                     40   6
  267                map_gather                            0.003210                   24   7
  268                m_alltoallv_z                         0.004994                   24   7
  269                map_scatter                           0.003208                   24   7
  270              map_backward                          0.010193                     32   6
  271                map_gather                            0.002730                   16   7
  272                m_alltoallv_z                         0.003687                   16   7
  273                map_scatter                           0.003483                   16   7
  274              dfftw_execute                         0.017816                     30   6
  275        m_sumb_d                              0.000044                            5   3
  276        pothar                                0.003377                            2   3
  277          m_sumb_d                              0.000289                          2   4
  278        m_bcast_d                             0.005658                            4   3
  279      potlok_metagga                        0.000000                              1   2
  280      set_dd_magatom                        0.000004                              1   2
  281      set_dd_paw                            1.931179                              1   2
  282        m_sumb_d                              0.000212                            7   3
  283      augmentation_charge                   0.030948                              1   2
  284        fft3d_mpi                             0.009941                            2   3
  285          fftbrc_mpi                            0.007963                          2   4
  286            fftbas_plan_mpi                       0.007960                        2   5
  287              dfftw_execute                         0.003999                      6   6
  288              map_backward                          0.003776                      4   6
  289                map_gather                            0.001042                    2   7
  290                m_alltoallv_z                         0.001720                    2   7
  291                map_scatter                           0.001010                    2   7
  292      densta                                1.751994                              1   2

 Flat profile

 set_dd_paw                             34.335146          18
 raccmu_                                17.074419       21630
 total_time                             15.566584           1
 init_acc                               12.115461           1
 eddav                                  11.739577          20
 lapack                                 10.146295       21630
 m_sumb_d                                6.270476       68223
 redis_pw                                5.337044      119756
 phaser                                  3.609926         742
 acc_init_cublas                         2.440228           1
 densta                                  2.374697          21
 m_alltoall_d                            2.280167      316820
 eccp                                    1.301996       11200
 redis_proj                              1.009159      151844
 fft3d                                   0.977467      132414
 rpromu_acc                              0.943636       17850
 fftwav                                  0.920927       89154
 orth1                                   0.890574       64974
 setdij_                                 0.848574          44
 hamiltmu                                0.805386       21630
 acc_init_cusolver                       0.787115           1
 m_bcast_z                               0.695039       23870
 racc0mu_acc                             0.636525       21630
 w1_copy                                 0.633139      129780
 overl                                   0.619481       75348
 fft3d_mpi                               0.467288       43819
 soft_charge                             0.445400          16
 rpro_isp                                0.438755         182
 setup_precond                           0.410001       11200
 m_bcast_d                               0.382297       43301
 set_charge                              0.373910          16
 augmentation_charge                     0.357600          17
 overl_mu                                0.341880       21630
 rspher_all                              0.298703          14
 ggemm                                   0.286500       27230
 m_alltoallv_z                           0.256983         627
 pw_charge                               0.253894        6554
 newband                                 0.205866       22190
 vhamil                                  0.198279       43260
 kinhamil                                0.194144       43260
 fftext_mpi                              0.184253       43260
 apply_precond                           0.174981       32060
 potlok                                  0.165578          18
 acc_cufft_makeplan                      0.159773          19
 depsum                                  0.148505          16
 dfftw_execute                           0.135611         276
 fftwav_mpi                              0.119660       89154
 sphpro_fast                             0.071710           2
 map_scatter                             0.071572         627
 elmin                                   0.069923           1
 proall                                  0.058339           1
 map_gather                              0.057479         627
 brmix                                   0.046349          16
 setg0                                   0.041916          18
 fftbas_plan_mpi                         0.024416         559
 lincom                                  0.024026         588
 force_and_stress                        0.020701           1
 orthch                                  0.020240           1
 broyd                                   0.018004          16
 w1_projall                              0.016165       16030
 stufak                                  0.014874           1
 choleski                                0.008359          28
 brget                                   0.007438         738
 forhar                                  0.006793           2
 map_backward                            0.005295         586
 pothar                                  0.004671          19
 truncate_high_frequency_w1              0.004662       54460
 inisym                                  0.004382           1
 strnlr                                  0.004183           1
 map_forward                             0.004009         532
 strelo                                  0.003950           1
 forloc                                  0.003441           1
 strehar                                 0.003353           1
 fft_gq                                  0.002861          16
 brsav                                   0.002067         203
 fornlr                                  0.001483           1
 strkin                                  0.001143           1
 brpre                                   0.000958          32
 brgrid                                  0.000440           1
 fewald                                  0.000330           1
 fftbrc_mpi                              0.000321         559
 chggra                                  0.000305           1
 rsp                                     0.000299           1
 vectorpot                               0.000104          17
 set_dd_magatom                          0.000070          18
 fordep                                  0.000054           1
 crpa_reader                             0.000025           1
 posmap                                  0.000024           2
 rcp                                     0.000019           1
 acc_cufft_makeplans                     0.000014           3
 rotate_active_occupied_orbital          0.000000           1
 redis_pw_over_bands                     0.000000           1
 potlok_metagga                          0.000000          17
  summed up times     140.9856629371643

 Accumulative profile

 total_time                            140.985663           1
 elmin                                 100.179215           1
 eddav                                  65.671273          20
 set_dd_paw                             34.396040          18
 hamiltmu                               19.755485       21630
 raccmu_                                18.052824       21630
 init_acc                               12.115461           1
 lapack                                 10.146295       21630
 redis_pw                                6.421513      119756
 m_sumb_d                                6.270476       68223
 force_and_stress                        4.845551           1
 phaser                                  3.609926         742
 newband                                 2.801677       22190
 set_charge                              2.536694          16
 acc_init_cublas                         2.440228           1
 densta                                  2.374697          21
 m_alltoall_d                            2.280167      316820
 redis_proj                              2.204857      151844
 fftwav_mpi                              1.709974       89154
 strnlr                                  1.679711           1
 fftwav                                  1.590313       89154
 soft_charge                             1.432497          16
 fft3d_mpi                               1.331056       43819
 eccp                                    1.301996       11200
 rpro_isp                                1.147174         182
 fft3d                                   0.977467      132414
 rpromu_acc                              0.943636       17850
 orth1                                   0.890574       64974
 setdij_                                 0.856738          44
 acc_init_cusolver                       0.787115           1
 kinhamil                                0.698996       43260
 m_bcast_z                               0.695039       23870
 racc0mu_acc                             0.636525       21630
 w1_copy                                 0.633139      129780
 overl                                   0.619481       75348
 fornlr                                  0.557945           1
 fftbrc_mpi                              0.555686         559
 fftbas_plan_mpi                         0.555366         559
 augmentation_charge                     0.532662          17
 fftext_mpi                              0.504852       43260
 potlok                                  0.499371          18
 w1_projall                              0.485816       16030
 fft_gq                                  0.418600          16
 setup_precond                           0.410001       11200
 m_bcast_d                               0.382297       43301
 overl_mu                                0.341880       21630
 rspher_all                              0.298703          14
 ggemm                                   0.286500       27230
 orthch                                  0.258869           1
 m_alltoallv_z                           0.256983         627
 pw_charge                               0.253894        6554
 map_forward                             0.243556         532
 vhamil                                  0.198279       43260
 apply_precond                           0.174981       32060
 acc_cufft_makeplans                     0.159787           3
 acc_cufft_makeplan                      0.159773          19
 proall                                  0.158371           1
 depsum                                  0.155756          16
 map_backward                            0.151783         586
 dfftw_execute                           0.135611         276
 brmix                                   0.121061          16
 fordep                                  0.113263           1
 sphpro_fast                             0.074191           2
 map_scatter                             0.071572         627
 map_gather                              0.057479         627
 setg0                                   0.041916          18
 broyd                                   0.030545          16
 lincom                                  0.024026         588
 stufak                                  0.014874           1
 choleski                                0.008359          28
 brget                                   0.007438         738
 forhar                                  0.006841           2
 pothar                                  0.005123          19
 truncate_high_frequency_w1              0.004662       54460
 inisym                                  0.004406           1
 strelo                                  0.004080           1
 forloc                                  0.003498           1
 strehar                                 0.003357           1
 brsav                                   0.002067         203
 chggra                                  0.001231           1
 strkin                                  0.001152           1
 brpre                                   0.000958          32
 fewald                                  0.000759           1
 brgrid                                  0.000440           1
 rsp                                     0.000299           1
 vectorpot                               0.000104          17
 set_dd_magatom                          0.000070          18
 crpa_reader                             0.000025           1
 posmap                                  0.000024           2
 rcp                                     0.000019           1
 rotate_active_occupied_orbital          0.000000           1
 redis_pw_over_bands                     0.000000           1
 potlok_metagga                          0.000000          17

Profiling took   0.272184  0.133896  0.003195  0.003112 seconds
Profiling took   0.163944 seconds