 vasp.6.3.2 27Jun22 (build Jul  3 2023 11:46:21) complex
 executed on    LinuxNV_CrayMPICH date 2024.05.14  20:14:21

 INCAR:
   ADDGRID = True
   ALGO = Normal
   EDIFF = 0.0005
   ENCUT = 520.0
   IBRION = -1
   ICHARG = 0
   ISIF = 3
   ISMEAR = -5
   ISPIN = 2
   KPOINT_BSE = -1 0 0 0
   LAECHG = True
   LASPH = True
   LCHARG = True
   LELF = True
   LORBIT = 11
   LREAL = Auto
   LVHAR = True
   LWAVE = False
   MAGMOM = 2*0.6 1*7.0 7*0.6
   NELM = 1000
   NUPDOWN = 10
   NSW = 0
   PREC = accurate
   SIGMA = 0.05

 POTCAR:    PAW_PBE Sr_sv 07Sep2000
 POTCAR:    PAW_PBE Gd 23Dec2003
 POTCAR:    PAW_PBE Ru_pv 28Jan2005
 POTCAR:    PAW_PBE O 08Apr2002
 POTCAR:    PAW_PBE Sr_sv 07Sep2000
   VRHFIN =Sr: 4s4p5s

   TITEL  = PAW_PBE Sr_sv 07Sep2000
   POMASS =   87.620; ZVAL   =   10.000    mass and valenz
   ENMAX  =  229.353; ENMIN  =  172.014 eV

   TITEL  = PAW_PBE Gd 23Dec2003
   POMASS =  157.250; ZVAL   =   18.000    mass and valenz
   ENMAX  =  256.472; ENMIN  =  192.354 eV

   TITEL  = PAW_PBE Ru_pv 28Jan2005
   POMASS =  101.070; ZVAL   =   14.000    mass and valenz
   ENMAX  =  240.049; ENMIN  =  180.037 eV

   TITEL  = PAW_PBE O 08Apr2002
   POMASS =   16.000; ZVAL   =    6.000    mass and valenz
   ENMAX  =  400.000; ENMIN  =  300.000 eV

 Optimization of the real space projectors (new method)

 maximal supplied QI-value         = 15.12
 optimisation between [QCUT,QGAM] = [ 11.64, 23.28] = [ 37.95,151.78] Ry
 Optimized for a Real-space Cutoff    1.58 Angstroem

   l    n(q)    QCUT    max X(q) W(low)/X(q) W(high)/X(q)  e(spline)
   0     11    11.641    11.565    0.25E-04    0.45E-05    0.87E-07
   0     11    11.641    10.214    0.38E-04    0.85E-05    0.18E-06
   1     11    11.641   189.983    0.18E-03    0.75E-04    0.37E-06
   1     11    11.641   193.105    0.18E-03    0.75E-04    0.37E-06
   2     10    11.641   115.941    0.51E-04    0.22E-03    0.56E-06
   2     10    11.641    76.444    0.49E-04    0.21E-03    0.55E-06
 Optimization of the real space projectors (new method)

[...]

   l    n(q)    QCUT    max X(q) W(low)/X(q) W(high)/X(q)  e(spline)
   1     10    11.641     3.180    0.30E-04    0.36E-05    0.54E-07
   1     10    11.641     5.351    0.12E-03    0.51E-04    0.30E-06
   2      9    11.641    66.565    0.22E-03    0.78E-04    0.20E-06
   2      9    11.641    63.466    0.22E-03    0.79E-04    0.20E-06
   0     10    11.641    85.644    0.61E-04    0.23E-04    0.12E-06
   0     10    11.641    44.119    0.56E-04    0.21E-04    0.11E-06
 Optimization of the real space projectors (new method)

 maximal supplied QI-value         = 24.76
 optimisation between [QCUT,QGAM] = [ 11.64, 23.27] = [ 37.91,151.63] Ry
 Optimized for a Real-space Cutoff    1.14 Angstroem

   l    n(q)    QCUT    max X(q) W(low)/X(q) W(high)/X(q)  e(spline)
   0      8    11.635    20.381    0.10E-03    0.33E-03    0.24E-06
   0      8    11.635    15.268    0.11E-03    0.35E-03    0.26E-06
   1      7    11.635     5.964    0.24E-03    0.31E-03    0.30E-06
   1      7    11.635     5.382    0.22E-03    0.25E-03    0.26E-06
  PAW_PBE Sr_sv 07Sep2000               :
  PAW_PBE Gd 23Dec2003                  :
  PAW_PBE Ru_pv 28Jan2005               :
  PAW_PBE O 08Apr2002                   :

 POSCAR: Sr2 Gd1 Ru1 O6
  positions in direct lattice
 exchange correlation table for  LEXCH =        8
   RHO(1)=    0.500       N(1)  =     2000
   RHO(2)=  100.500       N(2)  =     4000

 VTST: version 4.2, (08/11/21)

 CHAIN: initializing optimizer

 OPT: Using VASP Dynamics algorithm
 CHAIN: Read ICHAIN             0

 POSCAR: Sr2 Gd1 Ru1 O6
  positions in direct lattice

 ion  position               nearest neighbor table
   1  0.752  0.752  0.734-   5 2.54   8 2.62   9 2.62   7 2.63  10 2.63   6 3.00   6 3.00  10 3.23
                             7 3.23   9 3.32   8 3.32   5 3.39   4 3.52   3 3.56   4 3.59   4 3.59
   2  0.248  0.248  0.266-   6 2.54   7 2.62  10 2.62   9 2.63   8 2.63   5 3.00   5 3.00   8 3.23
                             9 3.23   7 3.32  10 3.32   6 3.39   4 3.52   3 3.56   4 3.59   4 3.59
   3  0.000  0.000  0.000-   7 2.26   8 2.26   9 2.26  10 2.26   5 2.27   6 2.27   1 3.56   2 3.56
                             1 3.60   1 3.60   2 3.60   2 3.60   2 3.64   1 3.64
   4  0.500  0.500  0.500-   7 1.99   8 1.99   9 1.99  10 1.99   5 1.99   6 1.99   1 3.52   2 3.52
                             2 3.59   2 3.59   1 3.59   1 3.59   2 3.72   1 3.72
   5  0.731  0.731  0.183-   4 1.99   3 2.27   1 2.54   2 3.00   2 3.00   1 3.39
   6  0.269  0.269  0.817-   4 1.99   3 2.27   2 2.54   1 3.00   1 3.00   2 3.39
   7  0.312  0.785  0.683-   4 1.99   3 2.26   2 2.62   1 2.63   1 3.23   2 3.32
   8  0.215  0.688  0.317-   4 1.99   3 2.26   1 2.62   2 2.63   2 3.23   1 3.32
   9  0.688  0.215  0.317-   4 1.99   3 2.26   1 2.62   2 2.63   2 3.23   1 3.32
  10  0.785  0.312  0.683-   4 1.99   3 2.26   2 2.62   1 2.63   1 3.23   2 3.32

  LATTYP: Found a base centered monoclinic cell.
 ALAT       =    10.0937780000
 B/A-ratio  =     0.5821897410
 C/A-ratio  =     0.5864369867
 COS(beta)  =    -0.5725070410

  Lattice vectors:

 A1 = (  -2.9382470000,  -5.0468890000,   0.0000000000)
 A2 = (   2.9382470000,  -5.0468890000,   0.0000000000)
 A3 = (   0.0000000000,   3.3888780000,   4.8532860000)

Analysis of symmetry for initial positions (statically):
 Subroutine PRICEL returns:
 Original cell was already a primitive cell.

 Routine SETGRP: Setting up the symmetry group for a
 base centered monoclinic supercell.

 Subroutine GETGRP returns: Found  4 space group operations
 (whereof  4 operations were pure point group operations)
 out of a pool of  4 trial point group operations.

The static configuration has the point symmetry C_2h.

Analysis of symmetry for dynamics (positions and initial velocities):
 Subroutine PRICEL returns:
 Original cell was already a primitive cell.

[...]

The dynamic configuration has the point symmetry C_2h.

Analysis of structural, dynamic, and magnetic symmetry:
 Subroutine PRICEL returns:
 Original cell was already a primitive cell.

 Routine SETGRP: Setting up the symmetry group for a
 base centered monoclinic supercell.

 Subroutine GETGRP returns: Found  4 space group operations
 (whereof  4 operations were pure point group operations)
 out of a pool of  4 trial point group operations.

The overall configuration has the point symmetry C_2h.

 Subroutine INISYM returns: Found  4 space group operations
 (whereof  4 operations are pure point group operations),
 and found     1 'primitive' translations

                                     Primitive cell

  volume of cell :     143.9388

  direct lattice vectors                    reciprocal lattice vectors
     2.938247000  5.046889000  0.000000000     0.170169492  0.099070933 -0.069177729
    -2.938247000  5.046889000  0.000000000    -0.170169492  0.099070933 -0.069177729
     0.000000000  3.388878000  4.853286000     0.000000000 -0.000000000  0.206045966

  length of vectors
     5.839895890  5.839895890  5.919364754     0.208706167  0.208706167  0.206045966

  position of ions in fractional coordinates (direct lattice)
     0.751514000  0.751514000  0.734474000
     0.248486000  0.248486000  0.265526000
     0.000000000  0.000000000  0.000000000
     0.500000000  0.500000000  0.500000000
     0.731090000  0.731090000  0.182788000
     0.268910000  0.268910000  0.817212000
     0.311876000  0.784638000  0.683266000
     0.215362000  0.688124000  0.316734000
     0.688124000  0.215362000  0.316734000
     0.784638000  0.311876000  0.683266000

  ion indices of the primitive-cell ions
   primitive index   ion index
                 1           1
                 2           2
                 3           3
                 4           4
                 5           5
                 6           6
                 7           7
                 8           8
                 9           9
                10          10

 KPOINTS: Kpoints from vasprun.xml

Automatic generation of k-mesh.
 Grid dimensions read from file:
 generate k-points for:    5    5    5

 Generating k-lattice:

  Cartesian coordinates                     Fractional coordinates (reciprocal lattice)
     0.034033898  0.019814187 -0.013835546     0.200000000  0.000000000  0.000000000
    -0.034033898  0.019814187 -0.013835546     0.000000000  0.200000000  0.000000000
     0.000000000 -0.000000000  0.041209193     0.000000000  0.000000000  0.200000000

  Length of vectors
     0.041741233  0.041741233  0.041209193

  Shift w.r.t. Gamma in fractional coordinates (k-lattice)
     0.000000000  0.000000000  0.000000000

 TETIRR: Found    189 inequivalent tetrahedra from      750

 Subroutine IBZKPT returns following result:

 Found     39 irreducible k-points:

 Following reciprocal coordinates:
            Coordinates               Weight
  0.000000  0.000000  0.000000      1.000000
  0.200000  0.000000  0.000000      4.000000
  0.400000  0.000000  0.000000      4.000000
  0.200000  0.200000  0.000000      2.000000
  0.400000  0.200000  0.000000      4.000000
 -0.400000  0.200000  0.000000      4.000000
 -0.200000  0.200000  0.000000      2.000000
  0.400000  0.400000  0.000000      2.000000
 -0.400000  0.400000  0.000000      2.000000
  0.000000  0.000000  0.200000      2.000000
  0.200000  0.000000  0.200000      4.000000
  0.400000  0.000000  0.200000      4.000000
 -0.400000  0.000000  0.200000      4.000000
 -0.200000  0.000000  0.200000      4.000000
  0.200000  0.200000  0.200000      2.000000
  0.400000  0.200000  0.200000      4.000000
 -0.400000  0.200000  0.200000      4.000000
 -0.200000  0.200000  0.200000      4.000000
  0.400000  0.400000  0.200000      2.000000
 -0.400000  0.400000  0.200000      4.000000
 -0.200000  0.400000  0.200000      4.000000
 -0.400000 -0.400000  0.200000      2.000000
 -0.200000 -0.400000  0.200000      4.000000
 -0.200000 -0.200000  0.200000      2.000000
  0.000000  0.000000  0.400000      2.000000
  0.200000  0.000000  0.400000      4.000000
  0.400000  0.000000  0.400000      4.000000
 -0.400000  0.000000  0.400000      4.000000
 -0.200000  0.000000  0.400000      4.000000
  0.200000  0.200000  0.400000      2.000000
  0.400000  0.200000  0.400000      4.000000
 -0.400000  0.200000  0.400000      4.000000
 -0.200000  0.200000  0.400000      4.000000
  0.400000  0.400000  0.400000      2.000000
 -0.400000  0.400000  0.400000      4.000000
 -0.200000  0.400000  0.400000      4.000000
 -0.400000 -0.400000  0.400000      2.000000
 -0.200000 -0.400000  0.400000      4.000000
 -0.200000 -0.200000  0.400000      2.000000

 Following cartesian coordinates:
            Coordinates               Weight
  0.000000  0.000000  0.000000      1.000000
  0.034034  0.019814 -0.013836      4.000000
  0.068068  0.039628 -0.027671      4.000000
 -0.000000  0.039628 -0.027671      2.000000
  0.034034  0.059443 -0.041507      4.000000
 -0.102102 -0.019814  0.013836      4.000000
 -0.068068  0.000000  0.000000      2.000000
  0.000000  0.079257 -0.055342      2.000000
 -0.136136  0.000000  0.000000      2.000000
  0.000000  0.000000  0.041209      2.000000
  0.034034  0.019814  0.027374      4.000000
[...]
  318                map_forward                           0.000203                    4   7
  319                  map_gather                            0.000043                  2   8
  320                  m_alltoallv_z                         0.000027                  2   8
  321                  map_scatter                           0.000104                  2   8
  322                map_backward                          0.000088                    2   7
  323                  map_gather                            0.000020                  1   8
  324                  m_alltoallv_z                         0.000012                  1   8
  325                  map_scatter                           0.000040                  1   8
  326          m_sumb_d                              0.000009                          2   4
  327          pothar                                0.000075                          1   4
  328            m_sumb_d                              0.000005                        1   5
  329        brmix                                 0.003281                            1   3
  330          m_sumb_d                              0.000180                          6   4
  331          brpre                                 0.000017                          2   4
  332          setg0                                 0.000790                          1   4
  333          broyd                                 0.001429                          1   4
  334            m_sumb_d                              0.000193                       28   5
  335            brget                                 0.000338                      114   5
  336            brsav                                 0.000079                       26   5
  337        m_bcast_d                             0.000016                            2   3
  338      potlok                                0.030224                              2   2
  339        fft3d_mpi                             0.019130                           36   3
  340          fftbrc_mpi                            0.015711                         36   4
  341            fftbas_plan_mpi                       0.015691                       36   5
  342              map_forward                           0.004544                     40   6
  343                map_gather                            0.001549                   24   7
  344                m_alltoallv_z                         0.001451                   24   7
  345                map_scatter                           0.001356                   24   7
  346              map_backward                          0.003669                     32   6
  347                map_gather                            0.001290                   16   7
  348                m_alltoallv_z                         0.001057                   16   7
  349                map_scatter                           0.001134                   16   7
  350              dfftw_execute                         0.005646                     30   6
  351        m_sumb_d                              0.000025                            5   3
  352        pothar                                0.001116                            2   3
  353          m_sumb_d                              0.000069                          2   4
  354        m_bcast_d                             0.001831                            4   3
  355      potlok_metagga                        0.000000                              1   2
  356      set_dd_magatom                        0.000004                              1   2
  357      set_dd_paw                            1.140034                              1   2
  358        m_sumb_d                              0.456249                            7   3
  359      augmentation_charge                   0.105601                              1   2
  360        fft3d_mpi                             0.033116                            2   3
  361          fftbrc_mpi                            0.029309                          2   4
  362            fftbas_plan_mpi                       0.029307                        2   5
  363              dfftw_execute                         0.019045                      6   6
  364              map_backward                          0.009995                      4   6
  365                map_gather                            0.002467                    2   7
  366                m_alltoallv_z                         0.004997                    2   7
  367                map_scatter                           0.002523                    2   7
  368      fftwav_mpi                            2.734498                           3510   2
  369        fftwav                                2.730157                         3510   3
  370          fft3d                                 2.620190                       3510   4
  371      densta                                3.094023                              1   2

 Flat profile

 raccmu_                                30.623451       65502
 eddav                                  30.035353          26
 lapack                                 29.333387       65502
 m_sumb_d                               29.291827      201003
 set_dd_paw                             16.255843          24
 redis_pw                               15.496425      337689
 init_acc                               11.962278           1
 total_time                              9.727135           1
 phaser                                  7.053500        2535
 m_alltoall_d                            6.454424      885363
 fft3d                                   6.027053      372789
 densta                                  4.651750          27
 setdij_                                 3.367482          50
 redis_proj                              2.960285      428646
 eccp                                    2.769277       30420
 fftwav                                  2.574317      251490
 rpromu_acc                              2.132149       53334
 orth1                                   2.111771      196662
 racc0mu_acc                             1.885671       65502
 dfftw_execute                           1.818112        1020
 w1_copy                                 1.790433      363897
 overl                                   1.768655      212256
 augmentation_charge                     1.727707          24
 hamiltmu                                1.693829       65502
 m_bcast_z                               1.516714       70182
 soft_charge                             1.287135          23
 setup_precond                           1.113995       30420
 m_bcast_d                               1.040335      131057
 overl_mu                                1.018665       65502
 ggemm                                   0.872951       81726
 rpro_isp                                0.858495         507
 acc_init_cublas                         0.606332           1
 pw_charge                               0.600849       20592
 m_alltoallv_z                           0.573847        1077
 kinhamil                                0.559379      121299
 vhamil                                  0.557920      121299
 newband                                 0.524884       67530
 fftext_mpi                              0.523527      121299
 apply_precond                           0.502817       90879
 depsum                                  0.425180          23
 fft3d_mpi                               0.335525      122262
 fftwav_mpi                              0.334281      251490
 map_scatter                             0.274158        1077
 map_gather                              0.243979        1077
 rspher_all                              0.167700          14
 set_charge                              0.158891          23
 sphpro_fast                             0.115801           2
 potlok                                  0.098419          24
 fftbas_plan_mpi                         0.075158         963
 lincom                                  0.073994        2106
 elmin                                   0.067174           1
 acc_init_cusolver                       0.063163           1
 acc_cufft_makeplan                      0.058696          19
 w1_projall                              0.055587       49278
 proall                                  0.053736           1
 orthch                                  0.024102           1
 brmix                                   0.020010          22
 setg0                                   0.017627          24
 force_and_stress                        0.013569           1
 truncate_high_frequency_w1              0.012450      151719
 choleski                                0.010684          78
 strnlr                                  0.010623           1
 broyd                                   0.007359          22
 map_backward                            0.005090         998
 map_forward                             0.004653         928
 stufak                                  0.004240           1
 brget                                   0.003866        1347
 inisym                                  0.003804           1
 fornlr                                  0.003634           1
 pothar                                  0.002765          25
 forhar                                  0.002558           2
 strelo                                  0.001753           1
 forloc                                  0.001333           1
 strehar                                 0.001218           1
 brsav                                   0.001007         345
 fft_gq                                  0.000806          23
 strkin                                  0.000702           1
 fftbrc_mpi                              0.000635         963
 brpre                                   0.000453          44
 fewald                                  0.000352           1
 chggra                                  0.000238           1
 rsp                                     0.000207           1
 brgrid                                  0.000178           1
 set_dd_magatom                          0.000106          24
 vectorpot                               0.000098          23
 fordep                                  0.000056           1
 crpa_reader                             0.000027           1
 rcp                                     0.000021           1
 posmap                                  0.000016           2
 acc_cufft_makeplans                     0.000012           3
 rotate_active_occupied_orbital          0.000000           1
 redis_pw_over_bands                     0.000000           1
 potlok_metagga                          0.000000          23
  summed up times     238.4276530742645

 Accumulative profile

 total_time                            238.427653           1
 elmin                                 199.029855           1
 eddav                                 164.307187          26
 hamiltmu                               37.776423       65502
 raccmu_                                33.527786       65502
 lapack                                 29.333387       65502
 m_sumb_d                               29.291827      201003
 set_dd_paw                             27.402126          24
 redis_pw                               18.629887      337689
 init_acc                               11.962278           1
 fftwav_mpi                              8.057602      251490
 fftwav                                  7.723321      251490
 force_and_stress                        7.722073           1
 phaser                                  7.053500        2535
 newband                                 6.731540       67530
 m_alltoall_d                            6.454424      885363
 set_charge                              6.289078          23
 redis_proj                              6.281247      428646
 fft3d                                   6.027053      372789
 setdij_                                 5.472982          50
 densta                                  4.651750          27
 fft3d_mpi                               4.209205      122262
 soft_charge                             3.261585          23
 fftbrc_mpi                              2.995632         963
 fftbas_plan_mpi                         2.994997         963
 eccp                                    2.769277       30420
 strnlr                                  2.605379           1
 augmentation_charge                     2.517318          24
 rpromu_acc                              2.132149       53334
 orth1                                   2.111771      196662
 rpro_isp                                2.051541         507
 kinhamil                                1.996887      121299
 racc0mu_acc                             1.885671       65502
 dfftw_execute                           1.818112        1020
 w1_copy                                 1.790433      363897
 overl                                   1.768655      212256
 m_bcast_z                               1.516714       70182
 w1_projall                              1.450119       49278
 fftext_mpi                              1.437508      121299
 setup_precond                           1.113995       30420
 m_bcast_d                               1.040335      131057
 overl_mu                                1.018665       65502
 fornlr                                  0.876382           1
 ggemm                                   0.872951       81726
 map_forward                             0.681971         928
 fordep                                  0.652973           1
 acc_init_cublas                         0.606332           1
 pw_charge                               0.600849       20592
 m_alltoallv_z                           0.573847        1077
 vhamil                                  0.557920      121299
 apply_precond                           0.502817       90879
 depsum                                  0.427902          23
 map_backward                            0.419756         998
 potlok                                  0.337138          24
 orthch                                  0.305795           1
 map_scatter                             0.274158        1077
 map_gather                              0.243979        1077
 proall                                  0.222789           1
 rspher_all                              0.167700          14
 sphpro_fast                             0.120070           2
 lincom                                  0.073994        2106
 acc_init_cusolver                       0.063163           1
 acc_cufft_makeplans                     0.058708           3
 acc_cufft_makeplan                      0.058696          19
 brmix                                   0.054260          22
 fft_gq                                  0.039031          23
 setg0                                   0.017627          24
 broyd                                   0.014885          22
 truncate_high_frequency_w1              0.012450      151719
 choleski                                0.010684          78
 stufak                                  0.004240           1
 brget                                   0.003866        1347
 inisym                                  0.003820           1
 pothar                                  0.003022          25
 forhar                                  0.002570           2
 strelo                                  0.001763           1
 forloc                                  0.001498           1
 strehar                                 0.001245           1
 brsav                                   0.001007         345
 chggra                                  0.000797           1
 strkin                                  0.000707           1
 fewald                                  0.000656           1
 brpre                                   0.000453          44
 rsp                                     0.000207           1
 brgrid                                  0.000178           1
 set_dd_magatom                          0.000106          24
 vectorpot                               0.000098          23
 crpa_reader                             0.000027           1
 rcp                                     0.000021           1
 posmap                                  0.000016           2
 rotate_active_occupied_orbital          0.000000           1
 redis_pw_over_bands                     0.000000           1
 potlok_metagga                          0.000000          23

Profiling took   0.801053  0.381994  0.003393  0.003298 seconds
Profiling took   0.515562 seconds