 vasp.6.3.2 27Jun22 (build Jul  3 2023 11:46:21) complex
 executed on    LinuxNV_CrayMPICH date 2024.04.20  14:44:09

 INCAR:
   ADDGRID = True
   ALGO = Fast
   EDIFF = 0.0001
   ENCUT = 520.0
   IBRION = -1
   ISIF = 3
   ISMEAR = -5
   ISPIN = 2
   ISYM = 0
   LAECHG = True
   LASPH = True
   LCHARG = True
   LORBIT = 11
   LREAL = Auto
   LVHAR = True
   LWAVE = False
   MAGMOM = 1*7.0 5*0.6
   NELM = 1000
   NSW = 0
   PREC = Accurate
   SIGMA = 0.05

 POTCAR:    PAW_PBE Gd 23Dec2003
 POTCAR:    PAW_PBE B 06Sep2000
 POTCAR:    PAW_PBE Ru_pv 28Jan2005
 POTCAR:    PAW_PBE Gd 23Dec2003
   VRHFIN =Gd : [core=Xe4]

   TITEL  = PAW_PBE Gd 23Dec2003
   POMASS =  157.250; ZVAL   =   18.000    mass and valenz
   ENMAX  =  256.472; ENMIN  =  192.354 eV

   TITEL  = PAW_PBE B 06Sep2000
   POMASS =   10.811; ZVAL   =    3.000    mass and valenz
   ENMAX  =  318.614; ENMIN  =  238.960 eV

   TITEL  = PAW_PBE Ru_pv 28Jan2005
   POMASS =  101.070; ZVAL   =   14.000    mass and valenz
   ENMAX  =  240.049; ENMIN  =  180.037 eV

 Optimization of the real space projectors (new method)

 maximal supplied QI-value         = 13.42
 optimisation between [QCUT,QGAM] = [ 11.67, 23.35] = [ 38.16,152.62] Ry
 Optimized for a Real-space Cutoff    1.63 Angstroem

   l    n(q)    QCUT    max X(q) W(low)/X(q) W(high)/X(q)  e(spline)
   0     11    11.673    10.501    0.14E-04    0.17E-05    0.21E-07
   0     11    11.673     9.148    0.21E-04    0.32E-05    0.45E-07
   1     11    11.673     4.035    0.33E-05    0.11E-04    0.84E-07
   1     11    11.673     4.388    0.11E-04    0.47E-04    0.34E-06
   2     10    11.673    20.656    0.12E-04    0.28E-04    0.54E-06
   2     10    11.673    12.651    0.11E-04    0.26E-04    0.51E-06
   3     10    11.673    61.921    0.19E-03    0.22E-03    0.23E-06
   3     10    11.673    48.328    0.20E-03    0.23E-03    0.23E-06
 Optimization of the real space projectors (new method)

[...]

   l    n(q)    QCUT    max X(q) W(low)/X(q) W(high)/X(q)  e(spline)
   0      8    11.497    53.033    0.18E-03    0.30E-03    0.10E-06
   0      8    11.497    34.740    0.17E-03    0.29E-03    0.10E-06
   1      8    11.497    30.949    0.20E-03    0.12E-03    0.21E-06
   1      8    11.497    19.518    0.18E-03    0.11E-03    0.19E-06
 Optimization of the real space projectors (new method)

 maximal supplied QI-value         = 15.12
 optimisation between [QCUT,QGAM] = [ 11.64, 23.28] = [ 37.95,151.78] Ry
 Optimized for a Real-space Cutoff    1.49 Angstroem

   l    n(q)    QCUT    max X(q) W(low)/X(q) W(high)/X(q)  e(spline)
   1     10    11.641     3.180    0.30E-04    0.36E-05    0.54E-07
   1     10    11.641     5.351    0.12E-03    0.51E-04    0.30E-06
   2      9    11.641    66.565    0.22E-03    0.78E-04    0.20E-06
   2      9    11.641    63.466    0.22E-03    0.79E-04    0.20E-06
   0     10    11.641    85.644    0.61E-04    0.23E-04    0.12E-06
   0     10    11.641    44.119    0.56E-04    0.21E-04    0.11E-06
  PAW_PBE Gd 23Dec2003                  :
  PAW_PBE B 06Sep2000                   :
  PAW_PBE Ru_pv 28Jan2005               :

 POSCAR: Gd1 B2 Ru3
  positions in direct lattice
 exchange correlation table for  LEXCH =        8
   RHO(1)=    0.500       N(1)  =     2000
   RHO(2)=  100.500       N(2)  =     4000

 VTST: version 4.2, (08/11/21)

 CHAIN: initializing optimizer

 OPT: Using VASP Dynamics algorithm
 CHAIN: Read ICHAIN             0

 POSCAR: Gd1 B2 Ru3
  positions in direct lattice

 ion  position               nearest neighbor table
   1  0.000  0.000  0.000-   4 3.15   6 3.15   4 3.15   6 3.15   6 3.15   6 3.15   4 3.15   4 3.15
                             5 3.15   5 3.15   5 3.15   5 3.15
   2  0.333  0.667  0.000-   4 2.20   6 2.20   4 2.20   6 2.20   5 2.20   5 2.20
   3  0.667  0.333  0.000-   4 2.20   6 2.20   4 2.20   6 2.20   5 2.20   5 2.20
   4  0.500  0.000  0.500-   2 2.20   3 2.20   2 2.20   3 2.20   5 2.77   5 2.77   6 2.77   6 2.77
                             1 3.15   1 3.15   1 3.15   1 3.15
   5  0.500  0.500  0.500-   2 2.20   3 2.20   2 2.20   3 2.20   4 2.77   6 2.77   4 2.77   6 2.77
                             1 3.15   1 3.15   1 3.15   1 3.15
   6  0.000  0.500  0.500-   2 2.20   3 2.20   2 2.20   3 2.20   5 2.77   5 2.77   4 2.77   4 2.77
                             1 3.15   1 3.15   1 3.15   1 3.15

IMPORTANT INFORMATION: All symmetrisations will be switched off!
NOSYMM: (Re-)initialisation of all symmetry stuff for point group C_1.

                                     Primitive cell

  volume of cell :      80.3432

  direct lattice vectors                    reciprocal lattice vectors
     2.765459000 -4.789915000  0.000000000     0.180801813 -0.104385986  0.000000000
     2.765459000  4.789915000  0.000000000     0.180801813  0.104385986 -0.000000000
     0.000000000  0.000000000  3.032661000    -0.000000000  0.000000000  0.329743417

  length of vectors
     5.530917572  5.530917572  3.032661000     0.208771956  0.208771956  0.329743417

  position of ions in fractional coordinates (direct lattice)
     0.000000000  0.000000000  0.000000000
     0.333333000  0.666667000  0.000000000
     0.666667000  0.333333000  0.000000000
     0.500000000  0.000000000  0.500000000
     0.500000000  0.500000000  0.500000000
     0.000000000  0.500000000  0.500000000

  ion indices of the primitive-cell ions
   primitive index   ion index
                 1           1
                 2           2
                 3           3
                 4           4
                 5           5
                 6           6

 KPOINTS: Kpoints from vasprun.xml

Automatic generation of k-mesh.
 Grid dimensions read from file:
 generate k-points for:    5    5   10

 Generating k-lattice:

  Cartesian coordinates                     Fractional coordinates (reciprocal lattice)
     0.036160363 -0.020877197  0.000000000     0.200000000  0.000000000  0.000000000
     0.036160363  0.020877197 -0.000000000     0.000000000  0.200000000  0.000000000
    -0.000000000  0.000000000  0.032974342     0.000000000  0.000000000  0.100000000

  Length of vectors
     0.041754391  0.041754391  0.032974342

  Shift w.r.t. Gamma in fractional coordinates (k-lattice)
     0.000000000  0.000000000  0.000000000

 TETIRR: Found    748 inequivalent tetrahedra from     1500

 Subroutine IBZKPT returns following result:

 Found    126 irreducible k-points:

 Following reciprocal coordinates:
            Coordinates               Weight
  0.000000  0.000000  0.000000      1.000000
  0.200000  0.000000  0.000000      2.000000
  0.000000  0.200000  0.000000      2.000000
 -0.200000  0.200000  0.000000      2.000000
  0.400000  0.000000  0.000000      2.000000
  0.000000  0.400000  0.000000      2.000000
 -0.400000  0.400000  0.000000      2.000000
  0.200000  0.200000  0.000000      2.000000
 -0.200000  0.400000  0.000000      2.000000
 -0.400000  0.200000  0.000000      2.000000
  0.400000  0.200000  0.000000      2.000000
 -0.200000 -0.400000  0.000000      2.000000
  0.400000  0.400000  0.000000      2.000000
  0.000000  0.000000  0.100000      2.000000
  0.200000  0.000000  0.100000      2.000000
  0.000000  0.200000  0.100000      2.000000
 -0.200000  0.200000  0.100000      2.000000
 -0.200000  0.000000  0.100000      2.000000
  0.000000 -0.200000  0.100000      2.000000
  0.200000 -0.200000  0.100000      2.000000
  0.400000  0.000000  0.100000      2.000000
  0.000000  0.400000  0.100000      2.000000
 -0.400000  0.400000  0.100000      2.000000
 -0.400000  0.000000  0.100000      2.000000
  0.000000 -0.400000  0.100000      2.000000
  0.400000 -0.400000  0.100000      2.000000
  0.200000  0.200000  0.100000      2.000000
 -0.200000  0.400000  0.100000      2.000000
 -0.400000  0.200000  0.100000      2.000000
 -0.200000 -0.200000  0.100000      2.000000
  0.200000 -0.400000  0.100000      2.000000
  0.400000 -0.200000  0.100000      2.000000
  0.400000  0.200000  0.100000      2.000000
 -0.200000 -0.400000  0.100000      2.000000
  0.400000  0.400000  0.100000      2.000000
 -0.400000 -0.200000  0.100000      2.000000
  0.200000  0.400000  0.100000      2.000000
 -0.400000 -0.400000  0.100000      2.000000
  0.000000  0.000000  0.200000      2.000000
  0.200000  0.000000  0.200000      2.000000
  0.000000  0.200000  0.200000      2.000000
 -0.200000  0.200000  0.200000      2.000000
 -0.200000  0.000000  0.200000      2.000000
  0.000000 -0.200000  0.200000      2.000000
  0.200000 -0.200000  0.200000      2.000000
  0.400000  0.000000  0.200000      2.000000
  0.000000  0.400000  0.200000      2.000000
 -0.400000  0.400000  0.200000      2.000000
 -0.400000  0.000000  0.200000      2.000000
  0.000000 -0.400000  0.200000      2.000000
  0.400000 -0.400000  0.200000      2.000000
  0.200000  0.200000  0.200000      2.000000
 -0.200000  0.400000  0.200000      2.000000
 -0.400000  0.200000  0.200000      2.000000
 -0.200000 -0.200000  0.200000      2.000000
  0.200000 -0.400000  0.200000      2.000000
  0.400000 -0.200000  0.200000      2.000000
  0.400000  0.200000  0.200000      2.000000
 -0.200000 -0.400000  0.200000      2.000000
  0.400000  0.400000  0.200000      2.000000
[...]
  0.200000  0.400000  0.400000      2.000000
 -0.400000 -0.400000  0.400000      2.000000
  0.000000  0.000000  0.500000      1.000000
  0.200000  0.000000  0.500000      2.000000
  0.000000  0.200000  0.500000      2.000000
 -0.200000  0.200000  0.500000      2.000000
  0.400000  0.000000  0.500000      2.000000
  0.000000  0.400000  0.500000      2.000000
 -0.400000  0.400000  0.500000      2.000000
  0.200000  0.200000  0.500000      2.000000
 -0.200000  0.400000  0.500000      2.000000
 -0.400000  0.200000  0.500000      2.000000
  0.400000  0.200000  0.500000      2.000000
 -0.200000 -0.400000  0.500000      2.000000
  0.400000  0.400000  0.500000      2.000000

 Following cartesian coordinates:
            Coordinates               Weight
  0.000000  0.000000  0.000000      1.000000
  0.036160 -0.020877  0.000000      2.000000
  0.036160  0.020877  0.000000      2.000000
  0.000000  0.041754  0.000000      2.000000
  0.072321 -0.041754  0.000000      2.000000
  0.072321  0.041754  0.000000      2.000000
  0.000000  0.083509  0.000000      2.000000
  0.072321  0.000000  0.000000      2.000000
  0.036160  0.062632  0.000000      2.000000
 -0.036160  0.062632  0.000000      2.000000
  0.108481 -0.020877  0.000000      2.000000
 -0.108481 -0.020877  0.000000      2.000000
  0.144641  0.000000  0.000000      2.000000
  0.000000  0.000000  0.032974      2.000000
  0.036160 -0.020877  0.032974      2.000000
  0.036160  0.020877  0.032974      2.000000
  0.000000  0.041754  0.032974      2.000000
 -0.036160  0.020877  0.032974      2.000000
 -0.036160 -0.020877  0.032974      2.000000
  0.000000 -0.041754  0.032974      2.000000
  0.072321 -0.041754  0.032974      2.000000
  0.072321  0.041754  0.032974      2.000000
  0.000000  0.083509  0.032974      2.000000
 -0.072321  0.041754  0.032974      2.000000
 -0.072321 -0.041754  0.032974      2.000000
  0.000000 -0.083509  0.032974      2.000000
  0.072321  0.000000  0.032974      2.000000
[...]
  375          broyd                                 0.002843                          1   4
  376            m_sumb_d                              0.000336                       50   5
  377            brget                                 0.000494                      224   5
  378            brsav                                 0.000104                       48   5
  379        m_bcast_d                             0.000016                            2   3
  380      potlok                                0.015103                              2   2
  381        fft3d_mpi                             0.009943                           36   3
  382          fftbrc_mpi                            0.008548                         36   4
  383            fftbas_plan_mpi                       0.008528                       36   5
  384              map_forward                           0.002450                     40   6
  385                map_gather                            0.000808                   24   7
  386                m_alltoallv_z                         0.000658                   24   7
  387                map_scatter                           0.000809                   24   7
  388              map_backward                          0.002063                     32   6
  389                map_gather                            0.000637                   16   7
  390                m_alltoallv_z                         0.000601                   16   7
  391                map_scatter                           0.000669                   16   7
  392              dfftw_execute                         0.002463                     30   6
  393        m_sumb_d                              0.000026                            5   3
  394        pothar                                0.000488                            2   3
  395          m_sumb_d                              0.000041                          2   4
  396        m_bcast_d                             0.000793                            4   3
  397      potlok_metagga                        0.000000                              1   2
  398      set_dd_magatom                        0.000005                              1   2
  399      set_dd_paw                            1.405801                              1   2
  400        m_sumb_d                              0.930842                            7   3
  401      augmentation_charge                   0.056426                              1   2
  402        fft3d_mpi                             0.016881                            2   3
  403          fftbrc_mpi                            0.015715                          2   4
  404            fftbas_plan_mpi                       0.015713                        2   5
  405              dfftw_execute                         0.011394                      6   6
  406              map_backward                          0.004014                      4   6
  407                map_gather                            0.000926                    2   7
  408                m_alltoallv_z                         0.002196                    2   7
  409                map_scatter                           0.000887                    2   7
  410      densta                                7.468300                              1   2

 Flat profile

 m_sumb_d                              143.719208      146629
 eccp                                  111.014866     1479366
 w1_gemv                                82.695747     3555686
 raccmu_                                78.408287      287736
 i2                                     72.929755      259364
 eccp_nl                                63.657058     1179990
 set_dd_paw                             50.433275         106
 phaser                                 38.649824       28854
 densta                                 35.868721         109
 eddiag                                 33.909100         103
 cnorma                                 31.124037     1179990
 overl1                                 29.501297     1777843
 eddrmm                                 28.994161         103
 redis_pw                               28.128688      325323
 fft3d                                  21.562873     3056284
 m_alltoall_d                           20.724277     3528819
 fftwav                                 17.814845     1822971
 w1_dscal                               16.396100     2727732
 soft_charge                            15.538980         104
 w1_copy                                14.900278     2843381
 w1_gaxpy                               14.454014     2764426
 apply_precond                          14.117064     3086659
 eddav                                  12.562874           5
 lapack                                 12.126667       28372
 hamilt_local                           11.679924      285516
 init_acc                               11.436582           1
 rpromu_acc                             10.886745      290004
 setup_precond                          10.567048      299376
 racc0mu_acc                             9.785195      287736
 w1_daxpy                                9.503889     1790772
 newband                                 7.889641      314952
 w1_dot                                  7.695697      284604
 hamiltmu                                6.425335      287736
 total_time                              6.067524           1
 redis_proj                              5.855486      337248
 pw_charge                               5.741992      231399
 kinhamil                                5.356242     1233313
 zhegv                                   5.285216      610782
 vhamil                                  5.201375     1233313
 setdij_                                 5.127264         132
 fftext_mpi                              4.967233     1233313
 depsum                                  4.571397         104
 augmentation_charge                     4.389600         105
 overl_mu                                4.378118      287736
 orthch                                  3.767579         104
 choleski                                3.108444       26208
 dfftw_execute                           3.023700        2916
 fftwav_mpi                              2.610521     1822971
 acc_init_cublas                         2.422745           1
 i3                                      2.339019      259364
 orth1                                   2.235622      189444
 rpro_isp                                2.179244        1638
 overl                                   1.244783      141282
 lincom                                  0.967824       53424
 m_alltoallv_z                           0.863443        4147
 m_bcast_z                               0.801977       39460
 acc_init_cusolver                       0.792636           1
 fft3d_mpi                               0.757997     1237040
 m_bcast_d                               0.466602       56961
 ggemm                                   0.366430       35932
 map_scatter                             0.325529        4147
 map_gather                              0.325064        4147
 i1                                      0.283639      259364
 w1_projall                              0.270639      280176
 potlok                                  0.240801         106
 sphpro_fast                             0.207991           2
 elmin                                   0.207648           1
 fftbas_plan_mpi                         0.206452        3727
 broyd                                   0.156377         104
 acc_cufft_makeplan                      0.139052          19
 truncate_high_frequency_w1              0.094714     1247173
 rspher_all                              0.091937          14
 proall                                  0.058562           1
 brget                                   0.041565       19664
 brmix                                   0.041175         104
 setg0                                   0.033383         106
 strnlr                                  0.031086           1
 map_forward                             0.019551        3524
 map_backward                            0.018419        3930
 set_charge                              0.013079         104
 force_and_stress                        0.012907           1
 brsav                                   0.010781        5410
 fornlr                                  0.010594           1
 pothar                                  0.007734         107
 shift_bands_between_low_high            0.002636       25956
 fftbrc_mpi                              0.002326        3727
 fft_gq                                  0.001856         104
 stufak                                  0.001607           1
 brpre                                   0.001440         208
 strkin                                  0.000783           1
 forhar                                  0.000768           2
 strelo                                  0.000753           1
 strehar                                 0.000720           1
 set_dd_magatom                          0.000464         106
 forloc                                  0.000443           1
 vectorpot                               0.000441         105
 fewald                                  0.000334           1
 chggra                                  0.000214           1
 rsp                                     0.000124           1
 brgrid                                  0.000091           1
 fordep                                  0.000050           1
 crpa_reader                             0.000026           1
 acc_cufft_makeplans                     0.000012           3
 rcp                                     0.000012           1
 potlok_metagga                          0.000008         105
 rotate_active_occupied_orbital          0.000000           1
 redis_pw_over_bands                     0.000000           1
  summed up times     1162.855846881866

 Accumulative profile

 total_time                           1162.855847           1
 elmin                                1121.239059           1
 eddrmm                                724.207349         103
 i2                                    254.015196      259364
 i3                                    205.986738      259364
 set_dd_paw                            149.112872         106
 m_sumb_d                              143.719208      146629
 hamiltmu                              117.771365      287736
 w1_gemv                               112.197043     3555686
 eccp                                  111.014866     1479366
 cnorma                                 94.781095     1179990
 raccmu_                                92.571600      287736
 eddiag                                 83.223088         103
 eccp_nl                                63.657058     1179990
 eddav                                  59.553569           5
 newband                                50.014439      314952
 set_charge                             39.441351         104
 phaser                                 38.649824       28854
 redis_pw                               37.584514      325323
 densta                                 35.868721         109
 fftwav_mpi                             33.879984     1822971
 orthch                                 33.598155         104
 fftwav                                 31.269463     1822971
 overl1                                 29.501297     1777843
 soft_charge                            28.532286         104
 fft3d                                  21.562873     3056284
 m_alltoall_d                           20.724277     3528819
 kinhamil                               18.799800     1233313
 redis_proj                             17.123937      337248
 hamilt_local                           16.906670      285516
 w1_dscal                               16.396100     2727732
 w1_copy                                14.900278     2843381
 w1_gaxpy                               14.454014     2764426
 apply_precond                          14.117064     3086659
 fft3d_mpi                              13.650735     1237040
 fftext_mpi                             13.443558     1233313
 lapack                                 12.126667       28372
 init_acc                               11.436582           1
 rpromu_acc                             10.886745      290004
 setup_precond                          10.567048      299376
 force_and_stress                       10.169368           1
 racc0mu_acc                             9.785195      287736
 w1_projall                              9.597245      280176
 w1_daxpy                                9.503889     1790772
 setdij_                                 7.722349         132
 w1_dot                                  7.695697      284604
 augmentation_charge                     6.265638         105
 pw_charge                               5.741992      231399
 zhegv                                   5.285216      610782
 vhamil                                  5.201375     1233313
 strnlr                                  5.147149           1
 rpro_isp                                4.811129        1638
 fftbrc_mpi                              4.784484        3727
 fftbas_plan_mpi                         4.782158        3727
 depsum                                  4.686774         104
 overl_mu                                4.378118      287736
 i1                                      4.282669      259364
 choleski                                3.108444       26208
 dfftw_execute                           3.023700        2916
 acc_init_cublas                         2.422745           1
 orth1                                   2.235622      189444
 fornlr                                  1.706334           1
 overl                                   1.244783      141282
 lincom                                  0.967824       53424
 m_alltoallv_z                           0.863443        4147
 potlok                                  0.836678         106
 m_bcast_z                               0.801977       39460
 map_forward                             0.799469        3524
 acc_init_cusolver                       0.792636           1
 map_backward                            0.752537        3930
 m_bcast_d                               0.466602       56961
 proall                                  0.387765           1
 ggemm                                   0.366430       35932
 fordep                                  0.350372           1
 map_scatter                             0.325529        4147
 map_gather                              0.325064        4147
 brmix                                   0.318297         104
 broyd                                   0.238136         104
 sphpro_fast                             0.213733           2
 acc_cufft_makeplans                     0.139065           3
 acc_cufft_makeplan                      0.139052          19
 truncate_high_frequency_w1              0.094714     1247173
 rspher_all                              0.091937          14
 fft_gq                                  0.083363         104
 brget                                   0.041565       19664
 setg0                                   0.033383         106
 brsav                                   0.010781        5410
 pothar                                  0.008622         107
 shift_bands_between_low_high            0.002636       25956
 stufak                                  0.001607           1
 brpre                                   0.001440         208
 strelo                                  0.000947           1
 fewald                                  0.000816           1
 strkin                                  0.000794           1
 forhar                                  0.000790           2
 chggra                                  0.000739           1
 strehar                                 0.000734           1
 set_dd_magatom                          0.000464         106
 forloc                                  0.000456           1
 vectorpot                               0.000441         105
 rsp                                     0.000124           1
 brgrid                                  0.000091           1
 crpa_reader                             0.000026           1
 rcp                                     0.000012           1
 potlok_metagga                          0.000008         105
 rotate_active_occupied_orbital          0.000000           1
 redis_pw_over_bands                     0.000000           1

Profiling took   4.898135  3.423816  0.003321  0.003234 seconds
Profiling took   4.096390 seconds