 vasp.6.3.2 27Jun22 (build Jul  3 2023 11:46:21) complex
 executed on    LinuxNV_CrayMPICH date 2024.04.22  02:59:16

 INCAR:
   ADDGRID = True
   ALGO = Normal
   EDIFF = 0.00025
   ENCUT = 520.0
   IBRION = -1
   ICHARG = 0
   ISIF = 3
   ISMEAR = 0
   ISPIN = 2
   KPOINT_BSE = -1 0 0 0
   LAECHG = True
   LASPH = True
   LCHARG = True
   LELF = True
   LORBIT = 11
   LREAL = Auto
   LVHAR = True
   LWAVE = False
   MAGMOM = 1*7.0 2*5.0 2*0.6
   NELM = 1000
   NSW = 0
   PREC = accurate
   SIGMA = 0.05

 POTCAR:    PAW_PBE Gd 23Dec2003
 POTCAR:    PAW_PBE Mn_pv 02Aug2007
 POTCAR:    PAW_PBE Si 05Jan2001
 POTCAR:    PAW_PBE Gd 23Dec2003
   VRHFIN =Gd : [core=Xe4]

   TITEL  = PAW_PBE Gd 23Dec2003
   POMASS =  157.250; ZVAL   =   18.000    mass and valenz
   ENMAX  =  256.472; ENMIN  =  192.354 eV

   TITEL  = PAW_PBE Mn_pv 02Aug2007
   POMASS =   54.938; ZVAL   =   13.000    mass and valenz
   ENMAX  =  269.864; ENMIN  =  202.398 eV

   TITEL  = PAW_PBE Si 05Jan2001
   POMASS =   28.085; ZVAL   =    4.000    mass and valenz
   ENMAX  =  245.345; ENMIN  =  184.009 eV

 Optimization of the real space projectors (new method)

 maximal supplied QI-value         = 13.42
 optimisation between [QCUT,QGAM] = [ 11.67, 23.35] = [ 38.16,152.62] Ry
 Optimized for a Real-space Cutoff    1.63 Angstroem

   l    n(q)    QCUT    max X(q) W(low)/X(q) W(high)/X(q)  e(spline)
   0     11    11.673    10.501    0.14E-04    0.17E-05    0.21E-07
   0     11    11.673     9.148    0.21E-04    0.32E-05    0.45E-07
   1     11    11.673     4.035    0.33E-05    0.11E-04    0.84E-07
   1     11    11.673     4.388    0.11E-04    0.47E-04    0.34E-06
   2     10    11.673    20.656    0.12E-04    0.28E-04    0.54E-06
   2     10    11.673    12.651    0.11E-04    0.26E-04    0.51E-06
   3     10    11.673    61.921    0.19E-03    0.22E-03    0.23E-06
   3     10    11.673    48.328    0.20E-03    0.23E-03    0.23E-06
 Optimization of the real space projectors (new method)

[...]

   l    n(q)    QCUT    max X(q) W(low)/X(q) W(high)/X(q)  e(spline)
   1     10    11.539     3.658    0.56E-04    0.12E-03    0.13E-06
   1     10    11.539     5.612    0.11E-03    0.23E-03    0.24E-06
   2      9    11.539    55.373    0.45E-04    0.92E-04    0.22E-06
   2      9    11.539    50.863    0.47E-04    0.95E-04    0.22E-06
   0     10    11.539    79.536    0.46E-04    0.27E-04    0.11E-06
   0     10    11.539    38.668    0.38E-04    0.25E-04    0.10E-06
 Optimization of the real space projectors (new method)

 maximal supplied QI-value         = 19.84
 optimisation between [QCUT,QGAM] = [ 11.51, 23.22] = [ 37.09,150.92] Ry
 Optimized for a Real-space Cutoff    1.21 Angstroem

   l    n(q)    QCUT    max X(q) W(low)/X(q) W(high)/X(q)  e(spline)
   0      8    11.508   159.560    0.71E-04    0.15E-03    0.51E-07
   0      8    11.508   115.863    0.70E-04    0.15E-03    0.51E-07
   1      8    11.508    88.339    0.16E-03    0.38E-04    0.82E-07
   1      8    11.508    48.592    0.15E-03    0.36E-04    0.79E-07
  PAW_PBE Gd 23Dec2003                  :
  PAW_PBE Mn_pv 02Aug2007               :
  PAW_PBE Si 05Jan2001                  :

 POSCAR: Gd1 Mn2 Si2
  positions in direct lattice
 exchange correlation table for  LEXCH =        8
   RHO(1)=    0.500       N(1)  =     2000
   RHO(2)=  100.500       N(2)  =     4000

 VTST: version 4.2, (08/11/21)

 CHAIN: initializing optimizer

 OPT: Using VASP Dynamics algorithm
 CHAIN: Read ICHAIN             0

 POSCAR: Gd1 Mn2 Si2
  positions in direct lattice

 ion  position               nearest neighbor table
   1  0.000  0.000  0.000-   4 3.05   4 3.05   5 3.05   5 3.05   4 3.05   5 3.05   4 3.05   5 3.05
                             2 3.19   3 3.19   2 3.19   3 3.19   2 3.19   2 3.19   3 3.19   3 3.19
   2  0.750  0.250  0.500-   5 2.32   5 2.32   4 2.32   4 2.32   3 2.77   3 2.77   3 2.77   3 2.77
                             1 3.19   1 3.19   1 3.19   1 3.19
   3  0.250  0.750  0.500-   5 2.32   4 2.32   4 2.32   5 2.32   2 2.77   2 2.77   2 2.77   2 2.77
                             1 3.19   1 3.19   1 3.19   1 3.19
   4  0.627  0.627  0.000-   3 2.32   2 2.32   3 2.32   2 2.32   5 2.55   1 3.05   1 3.05   1 3.05
                             1 3.05
   5  0.373  0.373  0.000-   2 2.32   3 2.32   2 2.32   3 2.32   4 2.55   1 3.05   1 3.05   1 3.05
                             1 3.05

  LATTYP: Found a body centered tetragonal cell.
 ALAT       =     3.9238960000
 C/A-ratio  =     2.5690461725

  Lattice vectors:

 A1 = (  -1.9619480000,   1.9619480000,   5.0403350000)
 A2 = (   1.9619480000,  -1.9619480000,   5.0403350000)
 A3 = (   1.9619480000,   1.9619480000,  -5.0403350000)

Analysis of symmetry for initial positions (statically):
 Subroutine PRICEL returns:
 Original cell was already a primitive cell.

 Routine SETGRP: Setting up the symmetry group for a
 body centered tetragonal supercell.

 Subroutine GETGRP returns: Found 16 space group operations
 (whereof 16 operations were pure point group operations)
 out of a pool of 16 trial point group operations.

The static configuration has the point symmetry D_4h.

Analysis of symmetry for dynamics (positions and initial velocities):
 Subroutine PRICEL returns:
 Original cell was already a primitive cell.

[...]

The dynamic configuration has the point symmetry D_4h.

Analysis of structural, dynamic, and magnetic symmetry:
 Subroutine PRICEL returns:
 Original cell was already a primitive cell.

 Routine SETGRP: Setting up the symmetry group for a
 body centered tetragonal supercell.

 Subroutine GETGRP returns: Found 16 space group operations
 (whereof 16 operations were pure point group operations)
 out of a pool of 16 trial point group operations.

The overall configuration has the point symmetry D_4h.

 Subroutine INISYM returns: Found 16 space group operations
 (whereof 16 operations are pure point group operations),
 and found     1 'primitive' translations

                                     Primitive cell

  volume of cell :      77.6058

  direct lattice vectors                    reciprocal lattice vectors
    -1.961948000  1.961948000  5.040335000    -0.000000000  0.254848752  0.099199756
     1.961948000 -1.961948000  5.040335000     0.254848752 -0.000000000  0.099199756
     1.961948000  1.961948000 -5.040335000     0.254848752  0.254848752 -0.000000000

  length of vectors
     5.753560360  5.753560360  5.753560360     0.273474822  0.273474822  0.360410562

  position of ions in fractional coordinates (direct lattice)
     0.000000000  0.000000000  0.000000000
     0.750000000  0.250000000  0.500000000
     0.250000000  0.750000000  0.500000000
     0.626712000  0.626712000  1.000000000
     0.373288000  0.373288000  1.000000000

  ion indices of the primitive-cell ions
   primitive index   ion index
                 1           1
                 2           2
                 3           3
                 4           4
                 5           5

 KPOINTS: Kpoints from vasprun.xml

Automatic generation of k-mesh.
 Grid dimensions read from file:
 generate k-points for:    6    6    6

 Generating k-lattice:

  Cartesian coordinates                     Fractional coordinates (reciprocal lattice)
    -0.000000000  0.042474792  0.016533293     0.166666667 -0.000000000 -0.000000000
     0.042474792 -0.000000000  0.016533293     0.000000000  0.166666667 -0.000000000
     0.042474792  0.042474792 -0.000000000     0.000000000 -0.000000000  0.166666667

  Length of vectors
     0.045579137  0.045579137  0.060068427

  Shift w.r.t. Gamma in fractional coordinates (k-lattice)
     0.000000000  0.000000000  0.000000000

 Subroutine IBZKPT returns following result:

 Found     30 irreducible k-points:

 Following reciprocal coordinates:
            Coordinates               Weight
  0.000000  0.000000  0.000000      1.000000
  0.166667  0.000000  0.000000      8.000000
  0.333333  0.000000  0.000000      8.000000
  0.500000  0.000000  0.000000      4.000000
  0.166667  0.166667  0.000000      8.000000
  0.333333  0.166667  0.000000     16.000000
  0.500000  0.166667  0.000000     16.000000
 -0.333333  0.166667  0.000000     16.000000
 -0.166667  0.166667  0.000000      4.000000
  0.333333  0.333333  0.000000      8.000000
  0.500000  0.333333  0.000000     16.000000
 -0.333333  0.333333  0.000000      4.000000
  0.500000  0.500000  0.000000      2.000000
  0.166667  0.166667  0.166667      8.000000
  0.333333  0.166667  0.166667      8.000000
 -0.166667  0.166667  0.166667      4.000000
  0.333333  0.333333  0.166667      4.000000
 -0.333333  0.333333  0.166667      8.000000
 -0.166667  0.333333  0.166667      8.000000
  0.500000  0.500000  0.166667      4.000000
 -0.333333  0.500000  0.166667     16.000000
 -0.166667  0.500000  0.166667      8.000000
 -0.333333 -0.333333  0.166667      8.000000
 -0.166667 -0.333333  0.166667      8.000000
 -0.166667 -0.166667  0.166667      2.000000
 -0.333333  0.333333  0.333333      4.000000
  0.500000  0.500000  0.333333      4.000000
 -0.333333  0.500000  0.333333      8.000000
 -0.333333 -0.333333  0.333333      2.000000
  0.500000  0.500000  0.500000      1.000000

 Following cartesian coordinates:
            Coordinates               Weight
  0.000000  0.000000  0.000000      1.000000
  0.000000  0.042475  0.016533      8.000000
  0.000000  0.084950  0.033067      8.000000
  0.000000  0.127424  0.049600      4.000000
  0.042475  0.042475  0.033067      8.000000
  0.042475  0.084950  0.049600     16.000000
  0.042475  0.127424  0.066133     16.000000
  0.042475 -0.084950 -0.016533     16.000000
  0.042475 -0.042475  0.000000      4.000000
  0.084950  0.084950  0.066133      8.000000
  0.084950  0.127424  0.082666     16.000000
  0.084950 -0.084950  0.000000      4.000000
  0.127424  0.127424  0.099200      2.000000
  0.084950  0.084950  0.033067      8.000000
  0.084950  0.127424  0.049600      8.000000
  0.084950  0.000000  0.000000      4.000000
  0.127424  0.127424  0.066133      4.000000
  0.127424 -0.042475  0.000000      8.000000
  0.127424  0.000000  0.016533      8.000000
  0.169899  0.169899  0.099200      4.000000
  0.169899 -0.042475  0.016533     16.000000
  0.169899  0.000000  0.033067      8.000000
 -0.042475 -0.042475 -0.066133      8.000000
 -0.042475  0.000000 -0.049600      8.000000
  0.000000  0.000000 -0.033067      2.000000
  0.169899  0.000000  0.000000      4.000000
  0.212374  0.212374  0.099200      4.000000
  0.212374  0.000000  0.016533      8.000000
  0.000000  0.000000 -0.066133      2.000000
  0.254849  0.254849  0.099200      1.000000

 SYSTEM =  unknown system
 POSCAR =  Gd1 Mn2 Si2

 Startparameter for this run:
   NWRITE =      2    write-flag & timer
   PREC   = accura    normal or accurate (medium, high low for compatibility)
   ISTART =      0    job   : 0-new  1-cont  2-samecut
   ICHARG =      0    charge: 1-file 2-atom 10-const
   ISPIN  =      2    spin polarized calculation?
   LNONCOLLINEAR =      F non collinear calculations
   LSORBIT =      F    spin-orbit coupling
   INIWAV =      1    electr: 0-lowe 1-rand  2-diag
   LASPH  =      T    aspherical Exc in radial PAW
 Electronic Relaxation 1
[...]
  320                  map_gather                            0.000044                  2   8
  321                  m_alltoallv_z                         0.000027                  2   8
  322                  map_scatter                           0.000115                  2   8
  323                map_backward                          0.000092                    2   7
  324                  map_gather                            0.000020                  1   8
  325                  m_alltoallv_z                         0.000013                  1   8
  326                  map_scatter                           0.000044                  1   8
  327          m_sumb_d                              0.000007                          2   4
  328          pothar                                0.000076                          1   4
  329            m_sumb_d                              0.000006                        1   5
  330        brmix                                 0.005556                            1   3
  331          m_sumb_d                              0.000028                          6   4
  332          brpre                                 0.000017                          2   4
  333          setg0                                 0.000794                          1   4
  334          broyd                                 0.003833                          1   4
  335            m_sumb_d                              0.000388                       48   5
  336            brget                                 0.000663                      214   5
  337            brsav                                 0.000142                       46   5
  338        m_bcast_d                             0.000017                            2   3
  339      potlok                                0.027477                              2   2
  340        fft3d_mpi                             0.018664                           36   3
  341          fftbrc_mpi                            0.016001                         36   4
  342            fftbas_plan_mpi                       0.015977                       36   5
  343              map_forward                           0.004740                     40   6
  344                map_gather                            0.001501                   24   7
  345                m_alltoallv_z                         0.001691                   24   7
  346                map_scatter                           0.001364                   24   7
  347              map_backward                          0.004181                     32   6
  348                map_gather                            0.001261                   16   7
  349                m_alltoallv_z                         0.001575                   16   7
  350                map_scatter                           0.001156                   16   7
  351              dfftw_execute                         0.005419                     30   6
  352        m_sumb_d                              0.000026                            5   3
  353        pothar                                0.001121                            2   3
  354          m_sumb_d                              0.000076                          2   4
  355        m_bcast_d                             0.001837                            4   3
  356      potlok_metagga                        0.000000                              1   2
  357      set_dd_magatom                        0.000004                              1   2
  358      set_dd_paw                            1.137310                              1   2
  359        m_sumb_d                              0.936648                            7   3
  360      augmentation_charge                   0.124948                              1   2
  361        fft3d_mpi                             0.031505                            2   3
  362          fftbrc_mpi                            0.027921                          2   4
  363            fftbas_plan_mpi                       0.027918                        2   5
  364              dfftw_execute                         0.018514                      6   6
  365              map_backward                          0.009145                      4   6
  366                map_gather                            0.002367                    2   7
  367                m_alltoallv_z                         0.004270                    2   7
  368                map_scatter                           0.002499                    2   7
  369      fftwav_mpi                            1.417333                           1800   2
  370        fftwav                                1.415123                         1800   3
  371          fft3d                                 1.362065                       1800   4
  372      densta                                0.001170                              1   2
  373        m_sumb_d                              0.000500                           38   3

 Flat profile

 m_sumb_d                              295.593617      899949
 raccmu_                               274.435135      285101
 eddav                                 134.596135         251
 lapack                                127.352125      285101
 redis_pw                               61.979774     1590246
 set_dd_paw                             50.488873         249
 phaser                                 50.126703       15450
 m_alltoall_d                           28.873739     4145014
 setdij_                                24.581831         275
 augmentation_charge                    23.242292         249
 fft3d                                  14.173462     1675152
 eccp                                   13.800561      150600
 redis_proj                             13.439186     2009908
 init_acc                               11.993839           1
 dfftw_execute                          11.962186        6420
 fftwav                                 10.413013     1104950
 total_time                              9.983685           1
 orth1                                   9.146575      855423
 soft_charge                             8.395329         248
 w1_copy                                 8.354818     1710606
 overl                                   8.316878      989864
 racc0mu_acc                             8.290444      285101
 rpromu_acc                              6.515752      212141
 hamiltmu                                6.263532      285101
 m_bcast_z                               5.885623      287501
 setup_precond                           5.390636      150600
 m_bcast_d                               4.830449      570705
 overl_mu                                4.346324      285101
 ggemm                                   3.660183      360401
 m_alltoallv_z                           3.231238        9627
 pw_charge                               2.928323      105546
 vhamil                                  2.624900      570202
 kinhamil                                2.620275      570202
 fftext_mpi                              2.459975      570202
 depsum                                  2.448972         248
 acc_init_cublas                         2.438406           1
 apply_precond                           2.315549      419602
 newband                                 2.307621      300161
 fft3d_mpi                               2.238442      578815
 set_charge                              2.068507         248
 map_scatter                             1.885589        9627
 map_gather                              1.625376        9627
 fftwav_mpi                              1.455983     1104950
 potlok                                  0.868789         249
 acc_init_cusolver                       0.788337           1
 broyd                                   0.588843         247
 rpro_isp                                0.485878         390
 lincom                                  0.460437       15120
 elmin                                   0.454231           1
 fftbas_plan_mpi                         0.449836        8613
 brmix                                   0.238572         247
 w1_projall                              0.211509      209801
 rspher_all                              0.210108          14
 setg0                                   0.196822         249
 brget                                   0.165673       54369
 acc_cufft_makeplan                      0.127174          19
 densta                                  0.111629         252
 truncate_high_frequency_w1              0.057782      720802
 map_backward                            0.051662        9098
 map_forward                             0.046715        8128
 brsav                                   0.045079       15552
 proall                                  0.042360           1
 sphpro_fast                             0.042287           2
 pothar                                  0.019660         250
 fft_gq                                  0.014413         248
 orthch                                  0.012847           1
 choleski                                0.011014          60
 force_and_stress                        0.009699           1
 strnlr                                  0.008038           1
 fftbrc_mpi                              0.005124        8613
 brpre                                   0.005033         494
 inisym                                  0.004349           1
 fornlr                                  0.002740           1
 stufak                                  0.002471           1
 forhar                                  0.001929           2
 strelo                                  0.001769           1
 strehar                                 0.001219           1
 set_dd_magatom                          0.001073         249
 vectorpot                               0.001045         248
 forloc                                  0.001017           1
 fewald                                  0.000338           1
 strkin                                  0.000305           1
 chggra                                  0.000243           1
 brgrid                                  0.000162           1
 rsp                                     0.000093           1
 fordep                                  0.000042           1
 crpa_reader                             0.000027           1
 posmap                                  0.000021           2
 potlok_metagga                          0.000018         248
 rcp                                     0.000017           1
 acc_cufft_makeplans                     0.000010           3
 rotate_active_occupied_orbital          0.000000           1
 redis_pw_over_bands                     0.000000           1
  summed up times     1274.830293178558

 Accumulative profile

 total_time                           1274.830293           1
 elmin                                1237.937601           1
 eddav                                 869.798285         251
 hamiltmu                              305.304053      285101
 m_sumb_d                              295.593617      899949
 raccmu_                               287.071903      285101
 set_dd_paw                            282.646403         249
 lapack                                127.352125      285101
 redis_pw                               76.225772     1590246
 set_charge                             52.087260         248
 phaser                                 50.126703       15450
 setdij_                                35.954782         275
 newband                                32.446809      300161
 augmentation_charge                    31.503719         249
 m_alltoall_d                           28.873739     4145014
 redis_proj                             28.066926     2009908
 fft3d_mpi                              25.588253      578815
 fftwav_mpi                             21.950372     1104950
 fftwav                                 20.494388     1104950
 fftbrc_mpi                             19.257725        8613
 fftbas_plan_mpi                        19.252600        8613
 soft_charge                            15.840424         248
 fft3d                                  14.173462     1675152
 eccp                                   13.800561      150600
 init_acc                               11.993839           1
 dfftw_execute                          11.962186        6420
 kinhamil                                9.343718      570202
 orth1                                   9.146575      855423
 w1_copy                                 8.354818     1710606
 overl                                   8.316878      989864
 racc0mu_acc                             8.290444      285101
 force_and_stress                        7.232506           1
 fftext_mpi                              6.723442      570202
 rpromu_acc                              6.515752      212141
 w1_projall                              6.307721      209801
 m_bcast_z                               5.885623      287501
 setup_precond                           5.390636      150600
 m_bcast_d                               4.830449      570705
 overl_mu                                4.346324      285101
 ggemm                                   3.660183      360401
 map_backward                            3.558417        9098
 map_forward                             3.282162        8128
 m_alltoallv_z                           3.231238        9627
 pw_charge                               2.928323      105546
 vhamil                                  2.624900      570202
 depsum                                  2.467972         248
 acc_init_cublas                         2.438406           1
 apply_precond                           2.315549      419602
 potlok                                  2.126103         249
 map_scatter                             1.885589        9627
 strnlr                                  1.870956           1
 map_gather                              1.625376        9627
 brmix                                   1.350365         247
 rpro_isp                                1.140596         390
 broyd                                   0.899979         247
 acc_init_cusolver                       0.788337           1
 fordep                                  0.780922           1
 fornlr                                  0.623590           1
 lincom                                  0.460437       15120
 fft_gq                                  0.427019         248
 orthch                                  0.302621           1
 rspher_all                              0.210108          14
 setg0                                   0.196822         249
 proall                                  0.176826           1
 brget                                   0.165673       54369
 densta                                  0.163502         252
 acc_cufft_makeplans                     0.127184           3
 acc_cufft_makeplan                      0.127174          19
 truncate_high_frequency_w1              0.057782      720802
 brsav                                   0.045079       15552
 sphpro_fast                             0.043386           2
 pothar                                  0.021912         250
 choleski                                0.011014          60
 brpre                                   0.005033         494
 inisym                                  0.004370           1
 stufak                                  0.002471           1
 forhar                                  0.001944           2
 strelo                                  0.001777           1
 strehar                                 0.001232           1
 set_dd_magatom                          0.001073         249
 vectorpot                               0.001045         248
 forloc                                  0.001031           1
 chggra                                  0.000821           1
 fewald                                  0.000546           1
 strkin                                  0.000315           1
 brgrid                                  0.000162           1
 rsp                                     0.000093           1
 crpa_reader                             0.000027           1
 posmap                                  0.000021           2
 potlok_metagga                          0.000018         248
 rcp                                     0.000017           1
 rotate_active_occupied_orbital          0.000000           1
 redis_pw_over_bands                     0.000000           1

Profiling took   3.565774  1.747060  0.003191  0.003103 seconds
Profiling took   2.250107 seconds