 vasp.6.3.2 27Jun22 (build Jul  3 2023 11:46:21) complex
 executed on    LinuxNV_CrayMPICH date 2024.04.21  22:36:18

 INCAR:
   ADDGRID = True
   ALGO = Normal
   EDIFF = 0.0002
   ENCUT = 520.0
   IBRION = -1
   ICHARG = 0
   ISIF = 3
   ISMEAR = -5
   ISPIN = 2
   KPOINT_BSE = -1 0 0 0
   LAECHG = True
   LASPH = True
   LCHARG = True
   LELF = True
   LORBIT = 11
   LREAL = Auto
   LVHAR = True
   LWAVE = False
   MAGMOM = 1*7.0 3*0.6
   NELM = 1000
   NSW = 0
   PREC = accurate
   SIGMA = 0.05

 POTCAR:    PAW_PBE Gd 23Dec2003
 POTCAR:    PAW_PBE Mg_pv 13Apr2007
 POTCAR:    PAW_PBE Au 04Oct2007
 POTCAR:    PAW_PBE Gd 23Dec2003
   VRHFIN =Gd : [core=Xe4]

   TITEL  = PAW_PBE Gd 23Dec2003
   POMASS =  157.250; ZVAL   =   18.000    mass and valenz
   ENMAX  =  256.472; ENMIN  =  192.354 eV

   TITEL  = PAW_PBE Mg_pv 13Apr2007
   POMASS =   24.305; ZVAL   =    8.000    mass and valenz
   ENMAX  =  403.929; ENMIN  =  302.947 eV

   TITEL  = PAW_PBE Au 04Oct2007
   POMASS =  196.966; ZVAL   =   11.000    mass and valenz
   ENMAX  =  229.943; ENMIN  =  172.457 eV

 Optimization of the real space projectors (new method)

 maximal supplied QI-value         = 13.42
 optimisation between [QCUT,QGAM] = [ 11.67, 23.35] = [ 38.16,152.62] Ry
 Optimized for a Real-space Cutoff    1.63 Angstroem

   l    n(q)    QCUT    max X(q) W(low)/X(q) W(high)/X(q)  e(spline)
   0     11    11.673    10.501    0.14E-04    0.17E-05    0.21E-07
   0     11    11.673     9.148    0.21E-04    0.32E-05    0.45E-07
   1     11    11.673     4.035    0.33E-05    0.11E-04    0.84E-07
   1     11    11.673     4.388    0.11E-04    0.47E-04    0.34E-06
   2     10    11.673    20.656    0.12E-04    0.28E-04    0.54E-06
   2     10    11.673    12.651    0.11E-04    0.26E-04    0.51E-06
   3     10    11.673    61.921    0.19E-03    0.22E-03    0.23E-06
   3     10    11.673    48.328    0.20E-03    0.23E-03    0.23E-06
 Optimization of the real space projectors (new method)

[...]

   l    n(q)    QCUT    max X(q) W(low)/X(q) W(high)/X(q)  e(spline)
   1      8    11.527     2.974    0.44E-04    0.56E-04    0.12E-06
   1      8    11.527     4.279    0.12E-03    0.12E-03    0.26E-06
   0      9    11.527    16.381    0.46E-04    0.64E-04    0.78E-07
   0      9    11.527     5.611    0.26E-04    0.43E-04    0.55E-07
   2      8    11.527     4.652    0.22E-03    0.72E-04    0.47E-07
 Optimization of the real space projectors (new method)

 maximal supplied QI-value         = 15.12
 optimisation between [QCUT,QGAM] = [ 11.64, 23.28] = [ 37.95,151.78] Ry
 Optimized for a Real-space Cutoff    1.49 Angstroem

   l    n(q)    QCUT    max X(q) W(low)/X(q) W(high)/X(q)  e(spline)
   2      9    11.641    60.898    0.24E-03    0.10E-03    0.19E-06
   2      9    11.641    58.894    0.25E-03    0.10E-03    0.19E-06
   0     10    11.641   109.617    0.73E-04    0.33E-04    0.11E-06
   0     10    11.641    75.026    0.71E-04    0.32E-04    0.11E-06
   1     10    11.641    16.344    0.27E-04    0.97E-04    0.16E-06
   1     10    11.641    10.160    0.23E-04    0.77E-04    0.13E-06
  PAW_PBE Gd 23Dec2003                  :
  PAW_PBE Mg_pv 13Apr2007               :
  PAW_PBE Au 04Oct2007                  :

 POSCAR: Gd1 Mg1 Au2
  positions in direct lattice
 exchange correlation table for  LEXCH =        8
   RHO(1)=    0.500       N(1)  =     2000
   RHO(2)=  100.500       N(2)  =     4000

 VTST: version 4.2, (08/11/21)

 CHAIN: initializing optimizer

 OPT: Using VASP Dynamics algorithm
 CHAIN: Read ICHAIN             0

 POSCAR: Gd1 Mg1 Au2
  positions in direct lattice

 ion  position               nearest neighbor table
   1  0.500  0.500  0.500-   4 3.03   3 3.03   4 3.03   3 3.03   4 3.03   3 3.03   3 3.03   4 3.03

   2  0.000  0.000  0.000-   3 3.03   4 3.03   3 3.03   3 3.03   4 3.03   4 3.03   4 3.03   3 3.03

   3  0.750  0.750  0.750-   1 3.03   2 3.03   1 3.03   1 3.03   2 3.03   2 3.03   2 3.03   1 3.03
                             4 3.50   4 3.50   4 3.50   4 3.50   4 3.50   4 3.50
   4  0.250  0.250  0.250-   2 3.03   1 3.03   2 3.03   1 3.03   2 3.03   1 3.03   1 3.03   2 3.03
                             3 3.50   3 3.50   3 3.50   3 3.50   3 3.50   3 3.50

  LATTYP: Found a face centered cubic cell.
 ALAT       =     7.0063540000

  Lattice vectors:

 A1 = (   0.0000000000,   3.5031770000,   3.5031770000)
 A2 = (   3.5031770000,   0.0000000000,   3.5031770000)
 A3 = (   3.5031770000,   3.5031770000,   0.0000000000)

Analysis of symmetry for initial positions (statically):
 Subroutine PRICEL returns:
 Original cell was already a primitive cell.

 Routine SETGRP: Setting up the symmetry group for a
 face centered cubic supercell.

 Subroutine GETGRP returns: Found 48 space group operations
 (whereof 48 operations were pure point group operations)
 out of a pool of 48 trial point group operations.

The static configuration has the point symmetry O_h .

Analysis of symmetry for dynamics (positions and initial velocities):
 Subroutine PRICEL returns:
 Original cell was already a primitive cell.

[...]

The dynamic configuration has the point symmetry O_h .

Analysis of structural, dynamic, and magnetic symmetry:
 Subroutine PRICEL returns:
 Original cell was already a primitive cell.

 Routine SETGRP: Setting up the symmetry group for a
 face centered cubic supercell.

 Subroutine GETGRP returns: Found 48 space group operations
 (whereof 48 operations were pure point group operations)
 out of a pool of 48 trial point group operations.

The overall configuration has the point symmetry O_h .

 Subroutine INISYM returns: Found 48 space group operations
 (whereof 48 operations are pure point group operations),
 and found     1 'primitive' translations

                                     Primitive cell

  volume of cell :      85.9837

  direct lattice vectors                    reciprocal lattice vectors
     0.000000000  3.503177000  3.503177000    -0.142727587  0.142727587  0.142727587
     3.503177000  0.000000000  3.503177000     0.142727587 -0.142727587  0.142727587
     3.503177000  3.503177000  0.000000000     0.142727587  0.142727587 -0.142727587

  length of vectors
     4.954240425  4.954240425  4.954240425     0.247211432  0.247211432  0.247211432

  position of ions in fractional coordinates (direct lattice)
     0.500000000  0.500000000  0.500000000
     0.000000000  0.000000000  0.000000000
     0.750000000  0.750000000  0.750000000
     0.250000000  0.250000000  0.250000000

  ion indices of the primitive-cell ions
   primitive index   ion index
                 1           1
                 2           2
                 3           3
                 4           4

 KPOINTS: Kpoints from vasprun.xml

Automatic generation of k-mesh.
 Grid dimensions read from file:
 generate k-points for:    6    6    6

 Generating k-lattice:

  Cartesian coordinates                     Fractional coordinates (reciprocal lattice)
    -0.023787931  0.023787931  0.023787931     0.166666667  0.000000000  0.000000000
     0.023787931 -0.023787931  0.023787931     0.000000000  0.166666667 -0.000000000
     0.023787931  0.023787931 -0.023787931    -0.000000000 -0.000000000  0.166666667

  Length of vectors
     0.041201905  0.041201905  0.041201905

  Shift w.r.t. Gamma in fractional coordinates (k-lattice)
     0.000000000  0.000000000  0.000000000

 TETIRR: Found     35 inequivalent tetrahedra from     1296

 Subroutine IBZKPT returns following result:

 Found     16 irreducible k-points:

 Following reciprocal coordinates:
            Coordinates               Weight
  0.000000  0.000000  0.000000      1.000000
  0.166667  0.000000  0.000000      8.000000
  0.333333  0.000000  0.000000      8.000000
  0.500000  0.000000  0.000000      4.000000
  0.166667  0.166667  0.000000      6.000000
  0.333333  0.166667  0.000000     24.000000
  0.500000  0.166667  0.000000     24.000000
 -0.333333  0.166667  0.000000     24.000000
 -0.166667  0.166667  0.000000     12.000000
  0.333333  0.333333  0.000000      6.000000
  0.500000  0.333333  0.000000     24.000000
 -0.333333  0.333333  0.000000     12.000000
  0.500000  0.500000  0.000000      3.000000
  0.500000  0.333333  0.166667     24.000000
 -0.333333  0.333333  0.166667     24.000000
 -0.333333  0.500000  0.166667     12.000000

 Following cartesian coordinates:
            Coordinates               Weight
  0.000000  0.000000  0.000000      1.000000
 -0.023788  0.023788  0.023788      8.000000
 -0.047576  0.047576  0.047576      8.000000
 -0.071364  0.071364  0.071364      4.000000
  0.000000  0.000000  0.047576      6.000000
 -0.023788  0.023788  0.071364     24.000000
 -0.047576  0.047576  0.095152     24.000000
  0.071364 -0.071364 -0.023788     24.000000
  0.047576 -0.047576  0.000000     12.000000
  0.000000  0.000000  0.095152      6.000000
 -0.023788  0.023788  0.118940     24.000000
  0.095152 -0.095152  0.000000     12.000000
  0.000000  0.000000  0.142728      3.000000
  0.000000  0.047576  0.095152     24.000000
  0.118940 -0.071364 -0.023788     24.000000
  0.142728 -0.095152  0.000000     12.000000

 SYSTEM =  unknown system
 POSCAR =  Gd1 Mg1 Au2

 Startparameter for this run:
   NWRITE =      2    write-flag & timer
   PREC   = accura    normal or accurate (medium, high low for compatibility)
   ISTART =      0    job   : 0-new  1-cont  2-samecut
   ICHARG =      0    charge: 1-file 2-atom 10-const
   ISPIN  =      2    spin polarized calculation?
   LNONCOLLINEAR =      F non collinear calculations
   LSORBIT =      F    spin-orbit coupling
   INIWAV =      1    electr: 0-lowe 1-rand  2-diag
   LASPH  =      T    aspherical Exc in radial PAW
 Electronic Relaxation 1
   ENCUT  =  520.0 eV  38.22 Ry    6.18 a.u.   9.21  9.21  9.21*2*pi/ulx,y,z
   ENINI  =  520.0     initial cutoff
   ENAUG  =  758.8 eV  augmentation charge cutoff
   NELM   =   1000;   NELMIN=  2; NELMDL= -5     # of ELM steps
   EDIFF  = 0.2E-03   stopping-criterion for ELM
   LREAL  =      T    real-space projection
   NLSPLINE    = F    spline interpolate recip. space projectors
   LCOMPAT=      F    compatible to vasp.4.4
   GGA_COMPAT  = T    GGA compatible to vasp.4.4-vasp.4.6
   LMAXPAW     = -100 max onsite density
   LMAXMIX     =    2 max onsite mixed and CHGCAR
   VOSKOWN=      0    Vosko Wilk Nusair interpolation
   ROPT   =   -0.00025  -0.00025  -0.00025
 Ionic relaxation
   EDIFFG = 0.2E-02   stopping-criterion for IOM
   NSW    =      0    number of steps for IOM
   NBLOCK =      1;   KBLOCK =      1    inner block; outer block
   IBRION =     -1    ionic relax: 0-MD 1-quasi-New 2-CG
   NFREE  =      0    steps in history (QN), initial steepest desc. (CG)
   ISIF   =      3    stress and relaxation
   IWAVPR =     10    prediction:  0-non 1-charg 2-wave 3-comb
   ISYM   =      2    0-nonsym 1-usesym 2-fastsym
   LCORR  =      T    Harris-Foulkes like correction to forces

   POTIM  = 0.5000    time-step for ionic-motion
   TEIN   =    0.0    initial temperature
   TEBEG  =    0.0;   TEEND  =   0.0 temperature during run
   SMASS  =  -3.00    Nose mass-parameter (am)
   estimated Nose-frequenzy (Omega)   =  0.10E-29 period in steps = 0.13E+47 mass=  -0.561E-27a.u.
[...]
  318                map_forward                           0.000168                    4   7
  319                  map_gather                            0.000042                  2   8
  320                  m_alltoallv_z                         0.000025                  2   8
  321                  map_scatter                           0.000075                  2   8
  322                map_backward                          0.000094                    2   7
  323                  map_gather                            0.000019                  1   8
  324                  m_alltoallv_z                         0.000011                  1   8
  325                  map_scatter                           0.000050                  1   8
  326          m_sumb_d                              0.000010                          2   4
  327          pothar                                0.000073                          1   4
  328            m_sumb_d                              0.000007                        1   5
  329        brmix                                 0.004806                            1   3
  330          m_sumb_d                              0.000033                          6   4
  331          brpre                                 0.000015                          2   4
  332          setg0                                 0.000498                          1   4
  333          broyd                                 0.003699                          1   4
  334            m_sumb_d                              0.000275                       51   5
  335            brget                                 0.000653                      229   5
  336            brsav                                 0.000132                       49   5
  337        m_bcast_d                             0.000016                            2   3
  338      potlok                                0.018987                              2   2
  339        fft3d_mpi                             0.012501                           36   3
  340          fftbrc_mpi                            0.010763                         36   4
  341            fftbas_plan_mpi                       0.010745                       36   5
  342              map_forward                           0.003165                     40   6
  343                map_gather                            0.001029                   24   7
  344                m_alltoallv_z                         0.001036                   24   7
  345                map_scatter                           0.000916                   24   7
  346              map_backward                          0.002669                     32   6
  347                map_gather                            0.000786                   16   7
  348                m_alltoallv_z                         0.000907                   16   7
  349                map_scatter                           0.000802                   16   7
  350              dfftw_execute                         0.003320                     30   6
  351        m_sumb_d                              0.000025                            5   3
  352        pothar                                0.000698                            2   3
  353          m_sumb_d                              0.000059                          2   4
  354        m_bcast_d                             0.001139                            4   3
  355      potlok_metagga                        0.000001                              1   2
  356      set_dd_magatom                        0.000004                              1   2
  357      set_dd_paw                            0.938394                              1   2
  358        m_sumb_d                              0.480126                            7   3
  359      augmentation_charge                   0.075178                              1   2
  360        fft3d_mpi                             0.016499                            2   3
  361          fftbrc_mpi                            0.014590                          2   4
  362            fftbas_plan_mpi                       0.014587                        2   5
  363              dfftw_execute                         0.008896                      6   6
  364              map_backward                          0.005533                      4   6
  365                map_gather                            0.001402                    2   7
  366                m_alltoallv_z                         0.002861                    2   7
  367                map_scatter                           0.001264                    2   7
  368      fftwav_mpi                            0.347223                            768   2
  369        fftwav                                0.346026                          768   3
  370          fft3d                                 0.330403                        768   4
  371      densta                                0.228527                              1   2

 Flat profile

 m_sumb_d                               79.925465      212813
 set_dd_paw                             63.042455         137
 lapack                                 29.868147       65775
 eddav                                  29.623816         139
 raccmu_                                24.042026       65775
 redis_pw                               11.601518      368026
 init_acc                               11.066929           1
 setdij_                                 8.757322         163
 augmentation_charge                     7.891359         137
 total_time                              7.255815           1
 m_alltoall_d                            6.819111      957714
 phaser                                  6.653498        4656
 dfftw_execute                           3.685562        3732
 fft3d                                   3.286642      392147
 eccp                                    3.098862       35584
 redis_proj                              3.093220      464024
 fftwav                                  2.517387      260597
 acc_init_cublas                         2.398458           1
 soft_charge                             2.210868         136
 orth1                                   2.123005      197357
 w1_copy                                 1.928644      394650
 racc0mu_acc                             1.907303       65775
 overl                                   1.881208      227548
 densta                                  1.855625         140
 rpromu_acc                              1.532271       48815
 hamiltmu                                1.468227       65775
 m_bcast_z                               1.324909       66799
 setup_precond                           1.293621       35584
 m_alltoallv_z                           1.278374        5371
 m_bcast_d                               1.085177      131829
 overl_mu                                1.016225       65775
 ggemm                                   0.861713       83567
 acc_init_cusolver                       0.789323           1
 fft3d_mpi                               0.757895      136355
 pw_charge                               0.748578       28985
 set_charge                              0.711939         136
 kinhamil                                0.602376      131550
 vhamil                                  0.600873      131550
 newband                                 0.571869       70223
 fftext_mpi                              0.565094      131550
 depsum                                  0.564816         136
 map_gather                              0.564697        5371
 map_scatter                             0.544982        5371
 apply_precond                           0.527057       95966
 potlok                                  0.373303         137
 fftwav_mpi                              0.348972      260597
 broyd                                   0.264023         135
 fftbas_plan_mpi                         0.238094        4805
 rpro_isp                                0.227147         208
 elmin                                   0.223834           1
 lincom                                  0.134946        4480
 acc_cufft_makeplan                      0.113316          19
 rspher_all                              0.102717          14
 brmix                                   0.076103         135
 brget                                   0.072756       27165
 setg0                                   0.062725         137
 w1_projall                              0.049918       47983
 proall                                  0.040854           1
 map_backward                            0.025789        5066
 map_forward                             0.024564        4544
 sphpro_fast                             0.020496           2
 brsav                                   0.019314        7577
 truncate_high_frequency_w1              0.013661      167134
 pothar                                  0.010356         138
 orthch                                  0.007578           1
 force_and_stress                        0.007431           1
 choleski                                0.006420          32
 inisym                                  0.004984           1
 strnlr                                  0.004101           1
 fft_gq                                  0.003483         136
 fftbrc_mpi                              0.002807        4805
 brpre                                   0.002326         270
 stufak                                  0.001915           1
 fornlr                                  0.001451           1
 forhar                                  0.001278           2
 strelo                                  0.001153           1
 strehar                                 0.000861           1
 forloc                                  0.000691           1
 set_dd_magatom                          0.000611         137
 vectorpot                               0.000580         136
 fewald                                  0.000348           1
 chggra                                  0.000219           1
 strkin                                  0.000201           1
 brgrid                                  0.000106           1
 rsp                                     0.000050           1
 fordep                                  0.000044           1
 posmap                                  0.000035           2
 crpa_reader                             0.000030           1
 rcp                                     0.000020           1
 potlok_metagga                          0.000015         136
 acc_cufft_makeplans                     0.000010           3
 rotate_active_occupied_orbital          0.000000           1
 redis_pw_over_bands                     0.000000           1
  summed up times     336.4358971118927

 Accumulative profile

 total_time                            336.435897           1
 elmin                                 308.255981           1
 eddav                                 153.182531         139
 set_dd_paw                            127.616446         137
 m_sumb_d                               79.925465      212813
 hamiltmu                               31.165271       65775
 lapack                                 29.868147       65775
 raccmu_                                26.965554       65775
 set_charge                             15.752795         136
 redis_pw                               14.921749      368026
 setdij_                                12.588093         163
 init_acc                               11.066929           1
 augmentation_charge                    10.215100         137
 fft3d_mpi                               8.046666      136355
 newband                                 7.503355       70223
 m_alltoall_d                            6.819111      957714
 phaser                                  6.653498        4656
 redis_proj                              6.592101      464024
 fftbrc_mpi                              6.364867        4805
 fftbas_plan_mpi                         6.362061        4805
 fftwav_mpi                              5.229098      260597
 fftwav                                  4.880126      260597
 soft_charge                             4.230622         136
 force_and_stress                        3.905287           1
 dfftw_execute                           3.685562        3732
 fft3d                                   3.286642      392147
 eccp                                    3.098862       35584
 acc_init_cublas                         2.398458           1
 kinhamil                                2.130617      131550
 orth1                                   2.123005      197357
 w1_copy                                 1.928644      394650
 racc0mu_acc                             1.907303       65775
 overl                                   1.881208      227548
 densta                                  1.855625         140
 rpromu_acc                              1.532271       48815
 fftext_mpi                              1.528241      131550
 w1_projall                              1.447034       47983
 m_bcast_z                               1.324909       66799
 setup_precond                           1.293621       35584
 m_alltoallv_z                           1.278374        5371
 map_forward                             1.238647        4544
 map_backward                            1.199759        5066
 potlok                                  1.089441         137
 m_bcast_d                               1.085177      131829
 overl_mu                                1.016225       65775
 ggemm                                   0.861713       83567
 acc_init_cusolver                       0.789323           1
 pw_charge                               0.748578       28985
 strnlr                                  0.618309           1
 vhamil                                  0.600873      131550
 depsum                                  0.572472         136
 map_gather                              0.564697        5371
 map_scatter                             0.544982        5371
 brmix                                   0.533197         135
 apply_precond                           0.527057       95966
 fordep                                  0.464446           1
 rpro_isp                                0.462235         208
 broyd                                   0.387239         135
 orthch                                  0.208629           1
 fornlr                                  0.206960           1
 fft_gq                                  0.138770         136
 lincom                                  0.134946        4480
 acc_cufft_makeplans                     0.113326           3
 acc_cufft_makeplan                      0.113316          19
 rspher_all                              0.102717          14
 proall                                  0.080439           1
 brget                                   0.072756       27165
 setg0                                   0.062725         137
 sphpro_fast                             0.021033           2
 brsav                                   0.019314        7577
 truncate_high_frequency_w1              0.013661      167134
 pothar                                  0.011600         138
 choleski                                0.006420          32
 inisym                                  0.005019           1
 brpre                                   0.002326         270
 stufak                                  0.001915           1
 forhar                                  0.001300           2
 strelo                                  0.001165           1
 strehar                                 0.000865           1
 chggra                                  0.000743           1
 forloc                                  0.000704           1
 set_dd_magatom                          0.000611         137
 vectorpot                               0.000580         136
 fewald                                  0.000472           1
 strkin                                  0.000218           1
 brgrid                                  0.000106           1
 rsp                                     0.000050           1
 posmap                                  0.000035           2
 crpa_reader                             0.000030           1
 rcp                                     0.000020           1
 potlok_metagga                          0.000015         136
 rotate_active_occupied_orbital          0.000000           1
 redis_pw_over_bands                     0.000000           1

Profiling took   0.828577  0.405383  0.003231  0.003141 seconds
Profiling took   0.498040 seconds