 vasp.6.3.2 27Jun22 (build Jul  3 2023 11:46:21) complex
 executed on    LinuxNV_CrayMPICH date 2024.04.21  19:42:29

 INCAR:
   ADDGRID = True
   ALGO = Normal
   EDIFF = 0.0007
   ENCUT = 520.0
   IBRION = -1
   ICHARG = 0
   ISIF = 3
   ISMEAR = -5
   ISPIN = 2
   KPOINT_BSE = -1 0 0 0
   LAECHG = True
   LASPH = True
   LCHARG = True
   LELF = True
   LORBIT = 11
   LREAL = Auto
   LVHAR = True
   LWAVE = False
   MAGMOM = 2*7.0 12*0.6
   NELM = 1000
   NSW = 0
   PREC = accurate
   SIGMA = 0.05

 POTCAR:    PAW_PBE Eu 23Dec2003
 POTCAR:    PAW_PBE Ga_d 06Jul2010
 POTCAR:    PAW_PBE Ge_d 03Jul2007
 POTCAR:    PAW_PBE Eu 23Dec2003
   VRHFIN =Eu : [core=Kr4d]

   TITEL  = PAW_PBE Eu 23Dec2003
   POMASS =  151.965; ZVAL   =   17.000    mass and valenz
   ENMAX  =  249.668; ENMIN  =  187.251 eV

   TITEL  = PAW_PBE Ga_d 06Jul2010
   POMASS =   69.723; ZVAL   =   13.000    mass and valenz
   ENMAX  =  282.691; ENMIN  =  212.018 eV

   TITEL  = PAW_PBE Ge_d 03Jul2007
   POMASS =   72.610; ZVAL   =   14.000    mass and valenz
   ENMAX  =  310.294; ENMIN  =  232.720 eV

 Optimization of the real space projectors (new method)

 maximal supplied QI-value         = 13.42
 optimisation between [QCUT,QGAM] = [ 11.67, 23.35] = [ 38.16,152.62] Ry
 Optimized for a Real-space Cutoff    1.63 Angstroem

   l    n(q)    QCUT    max X(q) W(low)/X(q) W(high)/X(q)  e(spline)
   0     11    11.673    10.400    0.14E-04    0.18E-05    0.24E-07
   0     11    11.673    10.768    0.21E-04    0.32E-05    0.49E-07
   1     11    11.673     4.094    0.40E-05    0.13E-04    0.93E-07
   1     11    11.673     4.009    0.11E-04    0.46E-04    0.33E-06
   2     10    11.673    29.030    0.79E-04    0.60E-04    0.70E-06
   2     10    11.673    19.941    0.80E-04    0.60E-04    0.71E-06
   3     10    11.673    88.889    0.23E-03    0.29E-03    0.30E-06
   3     10    11.673    76.102    0.23E-03    0.30E-03    0.30E-06
 Optimization of the real space projectors (new method)

[...]

   l    n(q)    QCUT    max X(q) W(low)/X(q) W(high)/X(q)  e(spline)
   2      9    11.539     7.143    0.65E-04    0.19E-03    0.15E-06
   2      9    11.539     5.586    0.13E-03    0.40E-03    0.26E-06
   0      9    11.539    12.382    0.18E-04    0.19E-04    0.34E-07
   0      9    11.539     6.622    0.35E-04    0.38E-04    0.71E-07
   1      9    11.539     7.935    0.18E-03    0.22E-03    0.17E-06
   1      9    11.539     2.425    0.15E-03    0.19E-03    0.16E-06
 Optimization of the real space projectors (new method)

 maximal supplied QI-value         = 16.25
 optimisation between [QCUT,QGAM] = [ 11.54, 23.24] = [ 37.28,151.24] Ry
 Optimized for a Real-space Cutoff    1.53 Angstroem

   l    n(q)    QCUT    max X(q) W(low)/X(q) W(high)/X(q)  e(spline)
   2     10    11.539     8.936    0.13E-03    0.18E-03    0.23E-06
   2     10    11.539     8.183    0.16E-03    0.22E-03    0.28E-06
   0     11    11.539    62.777    0.61E-04    0.20E-04    0.15E-06
   0     11    11.539    50.556    0.58E-04    0.19E-04    0.14E-06
   1     10    11.539    38.422    0.20E-04    0.75E-05    0.16E-06
   1     10    11.539    22.623    0.19E-04    0.69E-05    0.15E-06
  PAW_PBE Eu 23Dec2003                  :
  PAW_PBE Ga_d 06Jul2010                :
  PAW_PBE Ge_d 03Jul2007                :

 POSCAR: Eu2 Ga4 Ge8
  positions in direct lattice
 exchange correlation table for  LEXCH =        8
   RHO(1)=    0.500       N(1)  =     2000
   RHO(2)=  100.500       N(2)  =     4000

 VTST: version 4.2, (08/11/21)

 CHAIN: initializing optimizer

 OPT: Using VASP Dynamics algorithm
 CHAIN: Read ICHAIN             0

 POSCAR: Eu2 Ga4 Ge8
  positions in direct lattice

 ion  position               nearest neighbor table
   1  0.792  0.208  0.250-
   2  0.208  0.792  0.750-
   3  0.063  0.937  0.154-   5 2.49   7 2.50  11 2.53  11 2.53
   4  0.937  0.063  0.846-   6 2.49   8 2.50  12 2.53  12 2.53
   5  0.063  0.937  0.346-   3 2.49   9 2.50  13 2.53  13 2.53
   6  0.937  0.063  0.654-   4 2.49  10 2.50  14 2.53  14 2.53
   7  0.252  0.748  0.050-   3 2.50  11 2.53   8 2.55   8 2.55
   8  0.748  0.252  0.950-   4 2.50  12 2.53   7 2.55   7 2.55
   9  0.252  0.748  0.450-   5 2.50  13 2.53  10 2.55  10 2.55
  10  0.748  0.252  0.550-   6 2.50  14 2.53   9 2.55   9 2.55
  11  0.474  0.526  0.095-   3 2.53   3 2.53  12 2.53   7 2.53
  12  0.526  0.474  0.905-   4 2.53   4 2.53  11 2.53   8 2.53
  13  0.474  0.526  0.405-   5 2.53   5 2.53  14 2.53   9 2.53
  14  0.526  0.474  0.595-   6 2.53   6 2.53  13 2.53  10 2.53

  LATTYP: Found a base centered orthorhombic cell.
 ALAT       =     4.3888320000
 B/A-ratio  =     2.5304349768
 C/A-ratio  =     2.9681849294

  Lattice vectors:

 A1 = (   2.1944160000,  -5.5528270000,   0.0000000000)
 A2 = (   2.1944160000,   5.5528270000,   0.0000000000)
 A3 = (   0.0000000000,   0.0000000000,  13.0268650000)

Analysis of symmetry for initial positions (statically):
 Subroutine PRICEL returns:
 Original cell was already a primitive cell.

 Routine SETGRP: Setting up the symmetry group for a
 base centered orthorhombic supercell.

 Subroutine GETGRP returns: Found  8 space group operations
 (whereof  4 operations were pure point group operations)
 out of a pool of  8 trial point group operations.

The static configuration has the point symmetry C_2h.
 The point group associated with its full space group is D_2h.

Analysis of symmetry for dynamics (positions and initial velocities):
 Subroutine PRICEL returns:
 Original cell was already a primitive cell.

[...]

The dynamic configuration has the point symmetry C_2h.
 The point group associated with its full space group is D_2h.

Analysis of structural, dynamic, and magnetic symmetry:
 Subroutine PRICEL returns:
 Original cell was already a primitive cell.

 Routine SETGRP: Setting up the symmetry group for a
 base centered orthorhombic supercell.

 Subroutine GETGRP returns: Found  8 space group operations
 (whereof  4 operations were pure point group operations)
 out of a pool of  8 trial point group operations.

The overall configuration has the point symmetry C_2h.
 The point group associated with its full space group is D_2h.

 Subroutine INISYM returns: Found  8 space group operations
 (whereof  4 operations are pure point group operations),
 and found     1 'primitive' translations

                                     Primitive cell

  volume of cell :     317.4702

  direct lattice vectors                    reciprocal lattice vectors
     2.194416000 -5.552827000  0.000000000     0.227851055 -0.090044224  0.000000000
     2.194416000  5.552827000  0.000000000     0.227851055  0.090044224 -0.000000000
     0.000000000  0.000000000 13.026865000    -0.000000000  0.000000000  0.076764440

  length of vectors
     5.970707602  5.970707602 13.026865000     0.244998093  0.244998093  0.076764440

  position of ions in fractional coordinates (direct lattice)
     0.792264000  0.207736000  0.250000000
     0.207736000  0.792264000  0.750000000
     0.063058000  0.936942000  0.154421000
     0.936942000  0.063058000  0.845579000
     0.063058000  0.936942000  0.345579000
     0.936942000  0.063058000  0.654421000
     0.251956000  0.748044000  0.049843000
     0.748044000  0.251956000  0.950157000
     0.251956000  0.748044000  0.450157000
     0.748044000  0.251956000  0.549843000
     0.474070000  0.525930000  0.094595000
     0.525930000  0.474070000  0.905405000
     0.474070000  0.525930000  0.405405000
     0.525930000  0.474070000  0.594595000

  ion indices of the primitive-cell ions
   primitive index   ion index
                 1           1
                 2           2
                 3           3
                 4           4
                 5           5
                 6           6
                 7           7
                 8           8
                 9           9
                10          10
                11          11
                12          12
                13          13
                14          14

 KPOINTS: Kpoints from vasprun.xml

Automatic generation of k-mesh.
 Grid dimensions read from file:
 generate k-points for:    5    5    2

 Generating k-lattice:

  Cartesian coordinates                     Fractional coordinates (reciprocal lattice)
     0.045570211 -0.018008845  0.000000000     0.200000000 -0.000000000  0.000000000
     0.045570211  0.018008845 -0.000000000    -0.000000000  0.200000000  0.000000000
    -0.000000000  0.000000000  0.038382220     0.000000000  0.000000000  0.500000000

  Length of vectors
     0.048999619  0.048999619  0.038382220

  Shift w.r.t. Gamma in fractional coordinates (k-lattice)
     0.000000000  0.000000000  0.000000000

 TETIRR: Found     75 inequivalent tetrahedra from      300

 Subroutine IBZKPT returns following result:

 Found     18 irreducible k-points:

 Following reciprocal coordinates:
            Coordinates               Weight
  0.000000  0.000000  0.000000      1.000000
  0.200000  0.000000  0.000000      4.000000
  0.400000  0.000000  0.000000      4.000000
  0.200000  0.200000  0.000000      2.000000
  0.400000  0.200000  0.000000      4.000000
 -0.400000  0.200000  0.000000      4.000000
 -0.200000  0.200000  0.000000      2.000000
  0.400000  0.400000  0.000000      2.000000
 -0.400000  0.400000  0.000000      2.000000
  0.000000  0.000000  0.500000      1.000000
  0.200000  0.000000  0.500000      4.000000
  0.400000  0.000000  0.500000      4.000000
  0.200000  0.200000  0.500000      2.000000
  0.400000  0.200000  0.500000      4.000000
 -0.400000  0.200000  0.500000      4.000000
 -0.200000  0.200000  0.500000      2.000000
  0.400000  0.400000  0.500000      2.000000
 -0.400000  0.400000  0.500000      2.000000

 Following cartesian coordinates:
            Coordinates               Weight
  0.000000  0.000000  0.000000      1.000000
  0.045570 -0.018009  0.000000      4.000000
  0.091140 -0.036018  0.000000      4.000000
  0.091140  0.000000  0.000000      2.000000
  0.136711 -0.018009  0.000000      4.000000
 -0.045570  0.054027  0.000000      4.000000
  0.000000  0.036018  0.000000      2.000000
  0.182281  0.000000  0.000000      2.000000
  0.000000  0.072035  0.000000      2.000000
  0.000000  0.000000  0.038382      1.000000
  0.045570 -0.018009  0.038382      4.000000
  0.091140 -0.036018  0.038382      4.000000
  0.091140  0.000000  0.038382      2.000000
  0.136711 -0.018009  0.038382      4.000000
 -0.045570  0.054027  0.038382      4.000000
  0.000000  0.036018  0.038382      2.000000
  0.182281  0.000000  0.038382      2.000000
  0.000000  0.072035  0.038382      2.000000

 SYSTEM =  unknown system
 POSCAR =  Eu2 Ga4 Ge8

 Startparameter for this run:
   NWRITE =      2    write-flag & timer
   PREC   = accura    normal or accurate (medium, high low for compatibility)
   ISTART =      0    job   : 0-new  1-cont  2-samecut
   ICHARG =      0    charge: 1-file 2-atom 10-const
   ISPIN  =      2    spin polarized calculation?
   LNONCOLLINEAR =      F non collinear calculations
   LSORBIT =      F    spin-orbit coupling
   INIWAV =      1    electr: 0-lowe 1-rand  2-diag
   LASPH  =      T    aspherical Exc in radial PAW
 Electronic Relaxation 1
[...]
  318                map_forward                           0.000282                    4   7
  319                  map_gather                            0.000050                  2   8
  320                  m_alltoallv_z                         0.000027                  2   8
  321                  map_scatter                           0.000173                  2   8
  322                map_backward                          0.000111                    2   7
  323                  map_gather                            0.000026                  1   8
  324                  m_alltoallv_z                         0.000012                  1   8
  325                  map_scatter                           0.000051                  1   8
  326          m_sumb_d                              0.000010                          2   4
  327          pothar                                0.000091                          1   4
  328            m_sumb_d                              0.000014                        1   5
  329        brmix                                 0.014099                            1   3
  330          m_sumb_d                              0.000090                          6   4
  331          brpre                                 0.000041                          2   4
  332          setg0                                 0.001752                          1   4
  333          broyd                                 0.010080                          1   4
  334            brget                                 0.002234                      326   5
  335            brsav                                 0.001030                      163   5
  336            m_sumb_d                              0.001152                       47   5
  337        m_bcast_d                             0.000029                            2   3
  338      potlok                                0.053597                              2   2
  339        fft3d_mpi                             0.035312                           36   3
  340          fftbrc_mpi                            0.028614                         36   4
  341            fftbas_plan_mpi                       0.028591                       36   5
  342              map_forward                           0.008062                     40   6
  343                map_gather                            0.002475                   24   7
  344                m_alltoallv_z                         0.003079                   24   7
  345                map_scatter                           0.002301                   24   7
  346              map_backward                          0.006545                     32   6
  347                map_gather                            0.002321                   16   7
  348                m_alltoallv_z                         0.001926                   16   7
  349                map_scatter                           0.002015                   16   7
  350              dfftw_execute                         0.011894                     30   6
  351        m_sumb_d                              0.000031                            5   3
  352        pothar                                0.002414                            2   3
  353          m_sumb_d                              0.000115                          2   4
  354        m_bcast_d                             0.003725                            4   3
  355      potlok_metagga                        0.000000                              1   2
  356      set_dd_magatom                        0.000005                              1   2
  357      set_dd_paw                            2.677551                              1   2
  358        m_sumb_d                              0.942536                            7   3
  359      augmentation_charge                   0.203226                              1   2
  360        fft3d_mpi                             0.083094                            2   3
  361          fftbrc_mpi                            0.074160                          2   4
  362            fftbas_plan_mpi                       0.074156                        2   5
  363              dfftw_execute                         0.046617                      6   6
  364              map_backward                          0.027227                      4   6
  365                map_gather                            0.008943                    2   7
  366                m_alltoallv_z                         0.010052                    2   7
  367                map_scatter                           0.008220                    2   7
  368      fftwav_mpi                            6.411389                           3564   2
  369        fftwav                                6.406777                         3564   3
  370          fft3d                                 6.014532                       3564   4
  371      densta                                1.752813                              1   2

 Flat profile

 m_sumb_d                              171.586190      644016
 set_dd_paw                            169.787042          98
 raccmu_                               138.053847      210354
 eddav                                 108.239783         100
 lapack                                 91.552079      210354
 redis_pw                               46.287012     1098798
 m_alltoall_d                           20.711735     2948834
 phaser                                 19.550633        3834
 fft3d                                  18.857786     1198762
 total_time                             16.477940           1
 setdij_                                14.178514         124
 eccp                                   12.896710      118800
 augmentation_charge                    11.867504          98
 init_acc                               11.096721           1
 dfftw_execute                          11.006948        2796
 redis_proj                              9.480942     1383476
 densta                                  9.166621         101
 orth1                                   8.430487      631242
 fftwav                                  8.349087      795320
 hamiltmu                                7.914028      210354
 racc0mu_acc                             6.121110      210354
 w1_copy                                 5.881824     1210326
 overl                                   5.750365      688120
 rpromu_acc                              5.348319      153366
 soft_charge                             4.931012          97
 m_bcast_z                               4.926021      215106
 setup_precond                           4.342846      118800
 ggemm                                   3.936171      271554
 m_bcast_d                               3.523075      420909
 pw_charge                               3.381493       88228
 overl_mu                                3.274180      210354
 m_alltoallv_z                           2.648582        3889
 acc_init_cublas                         2.439563           1
 fft3d_mpi                               2.297040      406921
 map_scatter                             2.144322        3889
 map_gather                              2.099419        3889
 vhamil                                  1.879985      403442
 depsum                                  1.850417          97
 kinhamil                                1.839696      403442
 newband                                 1.780528      213954
 fftext_mpi                              1.766652      403442
 apply_precond                           1.540736      284642
 set_charge                              1.333515          97
 fftwav_mpi                              1.093476      795320
 rpro_isp                                0.861394         234
 acc_init_cusolver                       0.794389           1
 potlok                                  0.544514          98
 broyd                                   0.375692          96
 rspher_all                              0.337631          14
 brmix                                   0.244279          96
 elmin                                   0.234838           1
 fftbas_plan_mpi                         0.234215        3479
 sphpro_fast                             0.163736           2
 setg0                                   0.155650          98
 w1_projall                              0.153440      149154
 lincom                                  0.130905        3636
 brget                                   0.126282       17795
 acc_cufft_makeplan                      0.118719          19
 proall                                  0.070635           1
 truncate_high_frequency_w1              0.041037      522242
 brsav                                   0.033979        4916
 orthch                                  0.032404           1
 map_backward                            0.029642        3662
 force_and_stress                        0.022425           1
 map_forward                             0.020938        3296
 choleski                                0.014411          36
 fft_gq                                  0.012478          97
 stufak                                  0.010609           1
 pothar                                  0.010560          99
 strnlr                                  0.006359           1
 inisym                                  0.004488           1
 brpre                                   0.003926         192
 forhar                                  0.003556           2
 strelo                                  0.002914           1
 fftbrc_mpi                              0.002242        3479
 fornlr                                  0.002216           1
 strehar                                 0.002197           1
 forloc                                  0.001842           1
 strkin                                  0.001413           1
 set_dd_magatom                          0.000481          98
 vectorpot                               0.000425          97
 rsp                                     0.000396           1
 fewald                                  0.000347           1
 brgrid                                  0.000295           1
 chggra                                  0.000251           1
 fordep                                  0.000102           1
 posmap                                  0.000032           2
 crpa_reader                             0.000027           1
 rcp                                     0.000021           1
 acc_cufft_makeplans                     0.000012           3
 potlok_metagga                          0.000008          97
 rotate_active_occupied_orbital          0.000000           1
 redis_pw_over_bands                     0.000000           1
  summed up times     986.4303069114685

 Accumulative profile

 total_time                            986.430307           1
 elmin                                 927.804309           1
 eddav                                 607.207690         100
 set_dd_paw                            262.127795          98
 m_sumb_d                              171.586190      644016
 hamiltmu                              164.607242      210354
 raccmu_                               147.449137      210354
 lapack                                 91.552079      210354
 redis_pw                               56.588332     1098798
 set_charge                             37.000409          97
 newband                                28.554940      213954
 setdij_                                24.911356         124
 fftwav_mpi                             24.665525      795320
 fft3d_mpi                              24.118172      406921
 fftwav                                 23.572049      795320
 m_alltoall_d                           20.711735     2948834
 augmentation_charge                    20.109973          98
 redis_proj                             19.891356     1383476
 phaser                                 19.550633        3834
 fft3d                                  18.857786     1198762
 fftbrc_mpi                             18.186309        3479
 fftbas_plan_mpi                        18.184066        3479
 soft_charge                            13.657371          97
 eccp                                   12.896710      118800
 force_and_stress                       12.128330           1
 init_acc                               11.096721           1
 dfftw_execute                          11.006948        2796
 densta                                  9.166621         101
 orth1                                   8.430487      631242
 kinhamil                                7.364091      403442
 racc0mu_acc                             6.121110      210354
 w1_copy                                 5.881824     1210326
 overl                                   5.750365      688120
 fftext_mpi                              5.524395      403442
 rpromu_acc                              5.348319      153366
 m_bcast_z                               4.926021      215106
 w1_projall                              4.463569      149154
 setup_precond                           4.342846      118800
 ggemm                                   3.936171      271554
 map_backward                            3.531121        3662
 m_bcast_d                               3.523075      420909
 map_forward                             3.411782        3296
 pw_charge                               3.381493       88228
 overl_mu                                3.274180      210354
 strnlr                                  2.823726           1
 m_alltoallv_z                           2.648582        3889
 acc_init_cublas                         2.439563           1
 rpro_isp                                2.406504         234
 map_scatter                             2.144322        3889
 map_gather                              2.099419        3889
 vhamil                                  1.879985      403442
 depsum                                  1.870833          97
 apply_precond                           1.540736      284642
 potlok                                  1.294318          98
 fordep                                  1.210414           1
 brmix                                   1.066618          96
 fornlr                                  0.945712           1
 acc_init_cusolver                       0.794389           1
 broyd                                   0.646354          96
 fft_gq                                  0.378605          97
 rspher_all                              0.337631          14
 orthch                                  0.330844           1
 proall                                  0.228257           1
 sphpro_fast                             0.169656           2
 setg0                                   0.155650          98
 lincom                                  0.130905        3636
 brget                                   0.126282       17795
 acc_cufft_makeplans                     0.118731           3
 acc_cufft_makeplan                      0.118719          19
 truncate_high_frequency_w1              0.041037      522242
 brsav                                   0.033979        4916
 choleski                                0.014411          36
 pothar                                  0.011586          99
 stufak                                  0.010609           1
 inisym                                  0.004520           1
 brpre                                   0.003926         192
 forhar                                  0.003612           2
 strelo                                  0.003096           1
 forloc                                  0.002581           1
 strehar                                 0.002200           1
 fewald                                  0.001718           1
 strkin                                  0.001417           1
 chggra                                  0.000992           1
 set_dd_magatom                          0.000481          98
 vectorpot                               0.000425          97
 rsp                                     0.000396           1
 brgrid                                  0.000295           1
 posmap                                  0.000032           2
 crpa_reader                             0.000027           1
 rcp                                     0.000021           1
 potlok_metagga                          0.000008          97
 rotate_active_occupied_orbital          0.000000           1
 redis_pw_over_bands                     0.000000           1

Profiling took   2.596324  1.251353  0.003209  0.003106 seconds
Profiling took   1.722314 seconds