 vasp.6.3.2 27Jun22 (build Jul  3 2023 11:46:21) complex
 executed on    LinuxNV_CrayMPICH date 2024.04.22  03:39:11

 INCAR:
   ADDGRID = True
   ALGO = Normal
   EDIFF = 5e-05
   ENCUT = 520.0
   IBRION = -1
   ISIF = 3
   ISMEAR = -5
   ISPIN = 2
   LAECHG = True
   LASPH = True
   LCHARG = True
   LORBIT = 11
   LREAL = Auto
   LVHAR = True
   LWAVE = False
   MAGMOM = 1*7.0 2*5.0 2*0.6
   NELM = 1000
   NSW = 0
   PREC = Accurate
   SIGMA = 0.05

 POTCAR:    PAW_PBE Gd 23Dec2003
 POTCAR:    PAW_PBE Mn_pv 02Aug2007
 POTCAR:    PAW_PBE Si 05Jan2001
 POTCAR:    PAW_PBE Gd 23Dec2003
   VRHFIN =Gd : [core=Xe4]

   TITEL  = PAW_PBE Gd 23Dec2003
   POMASS =  157.250; ZVAL   =   18.000    mass and valenz
   ENMAX  =  256.472; ENMIN  =  192.354 eV

   TITEL  = PAW_PBE Mn_pv 02Aug2007
   POMASS =   54.938; ZVAL   =   13.000    mass and valenz
   ENMAX  =  269.864; ENMIN  =  202.398 eV

   TITEL  = PAW_PBE Si 05Jan2001
   POMASS =   28.085; ZVAL   =    4.000    mass and valenz
   ENMAX  =  245.345; ENMIN  =  184.009 eV

 Optimization of the real space projectors (new method)

 maximal supplied QI-value         = 13.42
 optimisation between [QCUT,QGAM] = [ 11.67, 23.35] = [ 38.16,152.62] Ry
 Optimized for a Real-space Cutoff    1.63 Angstroem

   l    n(q)    QCUT    max X(q) W(low)/X(q) W(high)/X(q)  e(spline)
   0     11    11.673    10.501    0.14E-04    0.17E-05    0.21E-07
   0     11    11.673     9.148    0.21E-04    0.32E-05    0.45E-07
   1     11    11.673     4.035    0.33E-05    0.11E-04    0.84E-07
   1     11    11.673     4.388    0.11E-04    0.47E-04    0.34E-06
   2     10    11.673    20.656    0.12E-04    0.28E-04    0.54E-06
   2     10    11.673    12.651    0.11E-04    0.26E-04    0.51E-06
   3     10    11.673    61.921    0.19E-03    0.22E-03    0.23E-06
   3     10    11.673    48.328    0.20E-03    0.23E-03    0.23E-06
 Optimization of the real space projectors (new method)

[...]

   l    n(q)    QCUT    max X(q) W(low)/X(q) W(high)/X(q)  e(spline)
   1     10    11.539     3.658    0.56E-04    0.12E-03    0.13E-06
   1     10    11.539     5.612    0.11E-03    0.23E-03    0.24E-06
   2      9    11.539    55.373    0.45E-04    0.92E-04    0.22E-06
   2      9    11.539    50.863    0.47E-04    0.95E-04    0.22E-06
   0     10    11.539    79.536    0.46E-04    0.27E-04    0.11E-06
   0     10    11.539    38.668    0.38E-04    0.25E-04    0.10E-06
 Optimization of the real space projectors (new method)

 maximal supplied QI-value         = 19.84
 optimisation between [QCUT,QGAM] = [ 11.51, 23.22] = [ 37.09,150.92] Ry
 Optimized for a Real-space Cutoff    1.21 Angstroem

   l    n(q)    QCUT    max X(q) W(low)/X(q) W(high)/X(q)  e(spline)
   0      8    11.508   159.560    0.71E-04    0.15E-03    0.51E-07
   0      8    11.508   115.863    0.70E-04    0.15E-03    0.51E-07
   1      8    11.508    88.339    0.16E-03    0.38E-04    0.82E-07
   1      8    11.508    48.592    0.15E-03    0.36E-04    0.79E-07
  PAW_PBE Gd 23Dec2003                  :
  PAW_PBE Mn_pv 02Aug2007               :
  PAW_PBE Si 05Jan2001                  :

 POSCAR: Gd1 Mn2 Si2
  positions in direct lattice
 exchange correlation table for  LEXCH =        8
   RHO(1)=    0.500       N(1)  =     2000
   RHO(2)=  100.500       N(2)  =     4000

 VTST: version 4.2, (08/11/21)

 CHAIN: initializing optimizer

 OPT: Using VASP Dynamics algorithm
 CHAIN: Read ICHAIN             0

 POSCAR: Gd1 Mn2 Si2
  positions in direct lattice

 ion  position               nearest neighbor table
   1  0.000  0.000  0.000-   4 3.05   4 3.05   5 3.05   5 3.05   4 3.05   5 3.05   4 3.05   5 3.05
                             2 3.19   3 3.19   2 3.19   3 3.19   2 3.19   2 3.19   3 3.19   3 3.19
   2  0.750  0.250  0.500-   5 2.32   5 2.32   4 2.32   4 2.32   3 2.77   3 2.77   3 2.77   3 2.77
                             1 3.19   1 3.19   1 3.19   1 3.19
   3  0.250  0.750  0.500-   5 2.32   4 2.32   4 2.32   5 2.32   2 2.77   2 2.77   2 2.77   2 2.77
                             1 3.19   1 3.19   1 3.19   1 3.19
   4  0.627  0.627  0.000-   3 2.32   2 2.32   3 2.32   2 2.32   5 2.55   1 3.05   1 3.05   1 3.05
                             1 3.05
   5  0.373  0.373  0.000-   2 2.32   3 2.32   2 2.32   3 2.32   4 2.55   1 3.05   1 3.05   1 3.05
                             1 3.05

  LATTYP: Found a body centered tetragonal cell.
 ALAT       =     3.9238960000
 C/A-ratio  =     2.5690461725

  Lattice vectors:

 A1 = (  -1.9619480000,   1.9619480000,   5.0403350000)
 A2 = (   1.9619480000,  -1.9619480000,   5.0403350000)
 A3 = (   1.9619480000,   1.9619480000,  -5.0403350000)

Analysis of symmetry for initial positions (statically):
 Subroutine PRICEL returns:
 Original cell was already a primitive cell.

 Routine SETGRP: Setting up the symmetry group for a
 body centered tetragonal supercell.

 Subroutine GETGRP returns: Found 16 space group operations
 (whereof 16 operations were pure point group operations)
 out of a pool of 16 trial point group operations.

The static configuration has the point symmetry D_4h.

Analysis of symmetry for dynamics (positions and initial velocities):
 Subroutine PRICEL returns:
 Original cell was already a primitive cell.

[...]

The dynamic configuration has the point symmetry D_4h.

Analysis of structural, dynamic, and magnetic symmetry:
 Subroutine PRICEL returns:
 Original cell was already a primitive cell.

 Routine SETGRP: Setting up the symmetry group for a
 body centered tetragonal supercell.

 Subroutine GETGRP returns: Found 16 space group operations
 (whereof 16 operations were pure point group operations)
 out of a pool of 16 trial point group operations.

The overall configuration has the point symmetry D_4h.

 Subroutine INISYM returns: Found 16 space group operations
 (whereof 16 operations are pure point group operations),
 and found     1 'primitive' translations

                                     Primitive cell

  volume of cell :      77.6058

  direct lattice vectors                    reciprocal lattice vectors
    -1.961948000  1.961948000  5.040335000    -0.000000000  0.254848752  0.099199756
     1.961948000 -1.961948000  5.040335000     0.254848752 -0.000000000  0.099199756
     1.961948000  1.961948000 -5.040335000     0.254848752  0.254848752 -0.000000000

  length of vectors
     5.753560360  5.753560360  5.753560360     0.273474822  0.273474822  0.360410562

  position of ions in fractional coordinates (direct lattice)
     0.000000000  0.000000000  0.000000000
     0.750000000  0.250000000  0.500000000
     0.250000000  0.750000000  0.500000000
     0.626712000  0.626712000  1.000000000
     0.373288000  0.373288000  1.000000000

  ion indices of the primitive-cell ions
   primitive index   ion index
                 1           1
                 2           2
                 3           3
                 4           4
                 5           5

 KPOINTS: Kpoints from vasprun.xml

Automatic generation of k-mesh.
 Grid dimensions read from file:
 generate k-points for:    6    6    6

 Generating k-lattice:

  Cartesian coordinates                     Fractional coordinates (reciprocal lattice)
    -0.000000000  0.042474792  0.016533293     0.166666667 -0.000000000 -0.000000000
     0.042474792 -0.000000000  0.016533293     0.000000000  0.166666667 -0.000000000
     0.042474792  0.042474792 -0.000000000     0.000000000 -0.000000000  0.166666667

  Length of vectors
     0.045579137  0.045579137  0.060068427

  Shift w.r.t. Gamma in fractional coordinates (k-lattice)
     0.500000000  0.500000000  0.500000000

 TETIRR: Found    278 inequivalent tetrahedra from     1296

 Subroutine IBZKPT returns following result:

 Found     28 irreducible k-points:

 Following reciprocal coordinates:
            Coordinates               Weight
  0.083333  0.083333  0.083333      8.000000
  0.250000  0.083333  0.083333     16.000000
  0.416667  0.083333  0.083333      8.000000
 -0.083333  0.083333  0.083333      4.000000
  0.250000  0.250000  0.083333      8.000000
  0.416667  0.250000  0.083333     16.000000
 -0.416667  0.250000  0.083333      8.000000
 -0.250000  0.250000  0.083333      8.000000
 -0.083333  0.250000  0.083333      8.000000
  0.416667  0.416667  0.083333      4.000000
 -0.416667  0.416667  0.083333      8.000000
 -0.250000  0.416667  0.083333     16.000000
 -0.083333  0.416667  0.083333      8.000000
 -0.416667 -0.416667  0.083333      8.000000
 -0.250000 -0.416667  0.083333     16.000000
 -0.083333 -0.416667  0.083333      8.000000
 -0.250000 -0.250000  0.083333      8.000000
 -0.083333 -0.250000  0.083333      8.000000
 -0.083333 -0.083333  0.083333      2.000000
  0.250000  0.250000  0.250000      2.000000
 -0.250000  0.250000  0.250000      4.000000
 -0.416667  0.416667  0.250000      8.000000
 -0.250000  0.416667  0.250000      8.000000
 -0.416667 -0.416667  0.250000      8.000000
 -0.250000 -0.416667  0.250000      8.000000
 -0.250000 -0.250000  0.250000      2.000000
 -0.416667  0.416667  0.416667      4.000000
 -0.416667 -0.416667  0.416667      2.000000

 Following cartesian coordinates:
            Coordinates               Weight
  0.042475  0.042475  0.016533      8.000000
  0.042475  0.084950  0.033067     16.000000
  0.042475  0.127424  0.049600      8.000000
  0.042475  0.000000  0.000000      4.000000
  0.084950  0.084950  0.049600      8.000000
  0.084950  0.127424  0.066133     16.000000
  0.084950 -0.084950 -0.016533      8.000000
  0.084950 -0.042475  0.000000      8.000000
  0.084950  0.000000  0.016533      8.000000
  0.127424  0.127424  0.082666      4.000000
  0.127424 -0.084950  0.000000      8.000000
  0.127424 -0.042475  0.016533     16.000000
  0.127424  0.000000  0.033067      8.000000
 -0.084950 -0.084950 -0.082666      8.000000
 -0.084950 -0.042475 -0.066133     16.000000
 -0.084950  0.000000 -0.049600      8.000000
 -0.042475 -0.042475 -0.049600      8.000000
 -0.042475  0.000000 -0.033067      8.000000
  0.000000  0.000000 -0.016533      2.000000
  0.127424  0.127424  0.049600      2.000000
  0.127424  0.000000  0.000000      4.000000
  0.169899 -0.042475  0.000000      8.000000
  0.169899  0.000000  0.016533      8.000000
 -0.042475 -0.042475 -0.082666      8.000000
 -0.042475  0.000000 -0.066133      8.000000
  0.000000  0.000000 -0.049600      2.000000
  0.212374  0.000000  0.000000      4.000000
  0.000000  0.000000 -0.082666      2.000000

 SYSTEM =  unknown system
 POSCAR =  Gd1 Mn2 Si2

 Startparameter for this run:
   NWRITE =      2    write-flag & timer
   PREC   = accura    normal or accurate (medium, high low for compatibility)
   ISTART =      0    job   : 0-new  1-cont  2-samecut
   ICHARG =      2    charge: 1-file 2-atom 10-const
   ISPIN  =      2    spin polarized calculation?
   LNONCOLLINEAR =      F non collinear calculations
   LSORBIT =      F    spin-orbit coupling
   INIWAV =      1    electr: 0-lowe 1-rand  2-diag
   LASPH  =      T    aspherical Exc in radial PAW
 Electronic Relaxation 1
   ENCUT  =  520.0 eV  38.22 Ry    6.18 a.u.  10.70 10.70 10.70*2*pi/ulx,y,z
   ENINI  =  520.0     initial cutoff
   ENAUG  =  569.1 eV  augmentation charge cutoff
[...]
  287          fft3d_mpi                             0.000468                          3   4
  288            fftbrc_mpi                            0.000371                        3   5
  289              fftbas_plan_mpi                       0.000371                      3   6
  290                map_forward                           0.000199                    4   7
  291                  map_gather                            0.000043                  2   8
  292                  m_alltoallv_z                         0.000027                  2   8
  293                  map_scatter                           0.000101                  2   8
  294                map_backward                          0.000085                    2   7
  295                  map_gather                            0.000020                  1   8
  296                  m_alltoallv_z                         0.000011                  1   8
  297                  map_scatter                           0.000038                  1   8
  298          m_sumb_d                              0.000009                          2   4
  299          pothar                                0.000092                          1   4
  300            m_sumb_d                              0.000019                        1   5
  301        brmix                                 0.003277                            1   3
  302          m_sumb_d                              0.000032                          6   4
  303          brpre                                 0.000019                          2   4
  304          setg0                                 0.000774                          1   4
  305          broyd                                 0.001541                          1   4
  306            m_sumb_d                              0.000175                       29   5
  307            brget                                 0.000383                      119   5
  308            brsav                                 0.000082                       27   5
  309        m_bcast_d                             0.000017                            2   3
  310      potlok                                0.027783                              2   2
  311        fft3d_mpi                             0.018929                           36   3
  312          fftbrc_mpi                            0.016192                         36   4
  313            fftbas_plan_mpi                       0.016181                       36   5
  314              map_forward                           0.004563                     40   6
  315                map_gather                            0.001557                   24   7
  316                m_alltoallv_z                         0.001472                   24   7
  317                map_scatter                           0.001349                   24   7
  318              map_backward                          0.004022                     32   6
  319                map_gather                            0.001261                   16   7
  320                m_alltoallv_z                         0.001447                   16   7
  321                map_scatter                           0.001116                   16   7
  322              dfftw_execute                         0.005615                     30   6
  323        m_sumb_d                              0.000028                            5   3
  324        pothar                                0.001121                            2   3
  325          m_sumb_d                              0.000073                          2   4
  326        m_bcast_d                             0.001835                            4   3
  327      potlok_metagga                        0.000000                              1   2
  328      set_dd_magatom                        0.000005                              1   2
  329      set_dd_paw                            1.120407                              1   2
  330        m_sumb_d                              0.919072                            7   3
  331      augmentation_charge                   0.129963                              1   2
  332        fft3d_mpi                             0.032466                            2   3
  333          fftbrc_mpi                            0.028051                          2   4
  334            fftbas_plan_mpi                       0.028048                        2   5
  335              dfftw_execute                         0.018417                      6   6
  336              map_backward                          0.009363                      4   6
  337                map_gather                            0.002495                    2   7
  338                m_alltoallv_z                         0.004392                    2   7
  339                map_scatter                           0.002465                    2   7
  340      densta                                0.760949                              1   2

 Flat profile

 m_sumb_d                               29.698741       91342
 raccmu_                                28.465133       29150
 eddav                                  13.843785          27
 lapack                                 13.427913       29150
 init_acc                               12.583634           1
 total_time                              9.676172           1
 redis_pw                                6.195071      162916
 phaser                                  6.149681        1876
 set_dd_paw                              5.045609          25
 setdij_                                 4.554594          51
 acc_init_cublas                         3.439059           1
 densta                                  3.132178          28
 m_alltoall_d                            3.080261      426020
 augmentation_charge                     2.266199          24
 dfftw_execute                           1.857842         972
 eccp                                    1.404291       15120
 redis_proj                              1.383350      206152
 fft3d                                   1.305829      176075
 fftwav                                  1.150738      117775
 acc_init_cusolver                       1.032543           1
 rpromu_acc                              1.013177       23774
 orth1                                   0.964282       87562
 w1_copy                                 0.854564      174900
 racc0mu_acc                             0.852506       29150
 overl                                   0.840408      101536
 soft_charge                             0.735033          23
 hamiltmu                                0.689128       29150
 m_bcast_z                               0.654066       31390
 m_alltoallv_z                           0.576642        1069
 setup_precond                           0.550760       15120
 m_bcast_d                               0.472791       58355
 rpro_isp                                0.455967         364
 overl_mu                                0.451857       29150
 ggemm                                   0.387635       36710
 fft3d_mpi                               0.323199       59273
 map_scatter                             0.279278        1069
 vhamil                                  0.268123       58300
 newband                                 0.266419       30662
 kinhamil                                0.264668       58300
 map_gather                              0.252245        1069
 acc_cufft_makeplan                      0.251784          19
 pw_charge                               0.248868        9015
 fftext_mpi                              0.247461       58300
 apply_precond                           0.232986       43180
 depsum                                  0.211814          23
 rspher_all                              0.210222          14
 set_charge                              0.189544          23
 fftwav_mpi                              0.153060      117775
 potlok                                  0.095229          25
 fftbas_plan_mpi                         0.077781         973
 elmin                                   0.057196           1
 lincom                                  0.047459        1568
 proall                                  0.044235           1
 sphpro_fast                             0.040543           2
 w1_projall                              0.024121       21590
 brmix                                   0.021202          23
 setg0                                   0.018234          25
 broyd                                   0.014599          23
 orthch                                  0.011846           1
 choleski                                0.010498          56
 force_and_stress                        0.010442           1
 strnlr                                  0.007696           1
 truncate_high_frequency_w1              0.006080       73420
 map_backward                            0.005299        1014
 map_forward                             0.004854         932
 inisym                                  0.004354           1
 brget                                   0.004096        1466
 pothar                                  0.002867          26
 fornlr                                  0.002677           1
 stufak                                  0.002526           1
 forhar                                  0.001934           2
 strelo                                  0.001626           1
 strehar                                 0.001254           1
 fft_gq                                  0.001241          23
 brsav                                   0.001041         372
 forloc                                  0.001032           1
 fftbrc_mpi                              0.000623         973
 brpre                                   0.000475          46
 fewald                                  0.000325           1
 strkin                                  0.000297           1
 chggra                                  0.000234           1
 brgrid                                  0.000158           1
 set_dd_magatom                          0.000116          25
 vectorpot                               0.000099          24
 rsp                                     0.000092           1
 fordep                                  0.000042           1
 crpa_reader                             0.000028           1
 posmap                                  0.000020           2
 acc_cufft_makeplans                     0.000013           3
 rcp                                     0.000011           1
 potlok_metagga                          0.000002          24
 rotate_active_occupied_orbital          0.000000           1
 redis_pw_over_bands                     0.000000           1
  summed up times     163.1156070232391

 Accumulative profile

 total_time                            163.115607           1
 elmin                                 125.933096           1
 eddav                                  89.554307          27
 hamiltmu                               31.676631       29150
 raccmu_                                29.769496       29150
 m_sumb_d                               29.698741       91342
 set_dd_paw                             28.242866          25
 lapack                                 13.427913       29150
 init_acc                               12.583634           1
 redis_pw                                7.668520      162916
 force_and_stress                        7.101543           1
 setdij_                                 6.718534          51
 phaser                                  6.149681        1876
 set_charge                              4.703321          23
 fft3d_mpi                               3.798289       59273
 acc_init_cublas                         3.439059           1
 newband                                 3.309868       30662
 densta                                  3.132178          28
 m_alltoall_d                            3.080261      426020
 augmentation_charge                     3.055371          24
 fftbrc_mpi                              3.054564         973
 fftbas_plan_mpi                         3.053941         973
 redis_proj                              2.990161      206152
 fftwav_mpi                              2.189101      117775
 fftwav                                  2.036041      117775
 dfftw_execute                           1.857842         972
 strnlr                                  1.761328           1
 eccp                                    1.404291       15120
 soft_charge                             1.347880          23
 fft3d                                   1.305829      176075
 rpro_isp                                1.063349         364
 acc_init_cusolver                       1.032543           1
 rpromu_acc                              1.013177       23774
 orth1                                   0.964282       87562
 kinhamil                                0.949883       58300
 w1_copy                                 0.854564      174900
 racc0mu_acc                             0.852506       29150
 overl                                   0.840408      101536
 fordep                                  0.787132           1
 map_forward                             0.701449         932
 fftext_mpi                              0.685215       58300
 m_bcast_z                               0.654066       31390
 w1_projall                              0.647514       21590
 fornlr                                  0.592617           1
 m_alltoallv_z                           0.576642        1069
 setup_precond                           0.550760       15120
 m_bcast_d                               0.472791       58355
 overl_mu                                0.451857       29150
 map_backward                            0.416869        1014
 ggemm                                   0.387635       36710
 potlok                                  0.356479          25
 orthch                                  0.284501           1
 map_scatter                             0.279278        1069
 vhamil                                  0.268123       58300
 map_gather                              0.252245        1069
 acc_cufft_makeplans                     0.251798           3
 acc_cufft_makeplan                      0.251784          19
 pw_charge                               0.248868        9015
 apply_precond                           0.232986       43180
 depsum                                  0.213485          23
 rspher_all                              0.210222          14
 proall                                  0.168423           1
 brmix                                   0.063385          23
 lincom                                  0.047459        1568
 sphpro_fast                             0.041694           2
 fft_gq                                  0.039710          23
 broyd                                   0.022468          23
 setg0                                   0.018234          25
 choleski                                0.010498          56
 truncate_high_frequency_w1              0.006080       73420
 inisym                                  0.004374           1
 brget                                   0.004096        1466
 pothar                                  0.003147          26
 stufak                                  0.002526           1
 forhar                                  0.001960           2
 strelo                                  0.001735           1
 strehar                                 0.001262           1
 forloc                                  0.001119           1
 brsav                                   0.001041         372
 chggra                                  0.000803           1
 fewald                                  0.000480           1
 brpre                                   0.000475          46
 strkin                                  0.000308           1
 brgrid                                  0.000158           1
 set_dd_magatom                          0.000116          25
 vectorpot                               0.000099          24
 rsp                                     0.000092           1
 crpa_reader                             0.000028           1
 posmap                                  0.000020           2
 rcp                                     0.000011           1
 potlok_metagga                          0.000002          24
 rotate_active_occupied_orbital          0.000000           1
 redis_pw_over_bands                     0.000000           1

Profiling took   0.370952  0.179659  0.003355  0.003275 seconds
Profiling took   0.232766 seconds