 vasp.6.3.2 27Jun22 (build Jul  3 2023 11:46:21) complex
 executed on    LinuxNV_CrayMPICH date 2024.04.22  03:28:49

 INCAR:
   ADDGRID = True
   ALGO = Normal
   EDIFF = 0.0002
   ENCUT = 520.0
   IBRION = -1
   ICHARG = 0
   ISIF = 3
   ISMEAR = -5
   ISPIN = 2
   ISTART = 1
   KPOINT_BSE = -1 0 0 0
   LAECHG = True
   LASPH = True
   LCHARG = True
   LELF = True
   LORBIT = 11
   LREAL = Auto
   LVHAR = True
   LWAVE = False
   MAGMOM = 2*7.0 2*0.6
   NELM = 1000
   NSW = 0
   PREC = accurate
   SIGMA = 0.05

 POTCAR:    PAW_PBE Gd 23Dec2003
 POTCAR:    PAW_PBE Pd 04Jan2005
 POTCAR:    PAW_PBE Rh_pv 25Jan2005
 POTCAR:    PAW_PBE Gd 23Dec2003
   VRHFIN =Gd : [core=Xe4]

   TITEL  = PAW_PBE Gd 23Dec2003
   POMASS =  157.250; ZVAL   =   18.000    mass and valenz
   ENMAX  =  256.472; ENMIN  =  192.354 eV

   TITEL  = PAW_PBE Pd 04Jan2005
   POMASS =  106.420; ZVAL   =   10.000    mass and valenz
   ENMAX  =  250.925; ENMIN  =  188.194 eV

   TITEL  = PAW_PBE Rh_pv 25Jan2005
   POMASS =  102.906; ZVAL   =   15.000    mass and valenz
   ENMAX  =  247.408; ENMIN  =  185.556 eV

 Optimization of the real space projectors (new method)

 maximal supplied QI-value         = 13.42
 optimisation between [QCUT,QGAM] = [ 11.67, 23.35] = [ 38.16,152.62] Ry
 Optimized for a Real-space Cutoff    1.63 Angstroem

   l    n(q)    QCUT    max X(q) W(low)/X(q) W(high)/X(q)  e(spline)
   0     11    11.673    10.501    0.14E-04    0.17E-05    0.21E-07
   0     11    11.673     9.148    0.21E-04    0.32E-05    0.45E-07
   1     11    11.673     4.035    0.33E-05    0.11E-04    0.84E-07
   1     11    11.673     4.388    0.11E-04    0.47E-04    0.34E-06
   2     10    11.673    20.656    0.12E-04    0.28E-04    0.54E-06
   2     10    11.673    12.651    0.11E-04    0.26E-04    0.51E-06
   3     10    11.673    61.921    0.19E-03    0.22E-03    0.23E-06
   3     10    11.673    48.328    0.20E-03    0.23E-03    0.23E-06
 Optimization of the real space projectors (new method)

[...]

   l    n(q)    QCUT    max X(q) W(low)/X(q) W(high)/X(q)  e(spline)
   2      9    11.633    59.108    0.81E-04    0.17E-04    0.26E-06
   2      9    11.633    58.101    0.82E-04    0.18E-04    0.27E-06
   0     10    11.633   102.235    0.26E-04    0.16E-04    0.21E-06
   0     10    11.633    58.388    0.23E-04    0.15E-04    0.20E-06
   1     10    11.633    22.191    0.10E-03    0.20E-03    0.14E-06
   1     10    11.633    15.590    0.86E-04    0.17E-03    0.12E-06
 Optimization of the real space projectors (new method)

 maximal supplied QI-value         = 15.68
 optimisation between [QCUT,QGAM] = [ 11.61, 23.21] = [ 37.72,150.90] Ry
 Optimized for a Real-space Cutoff    1.45 Angstroem

   l    n(q)    QCUT    max X(q) W(low)/X(q) W(high)/X(q)  e(spline)
   1     10    11.607     3.143    0.27E-04    0.48E-04    0.10E-06
   1     10    11.607     5.034    0.71E-04    0.17E-03    0.32E-06
   2      9    11.607    64.180    0.22E-03    0.59E-04    0.28E-06
   2      9    11.607    61.342    0.22E-03    0.61E-04    0.29E-06
   0     10    11.607    55.593    0.52E-04    0.32E-04    0.17E-06
   0     10    11.607    26.178    0.47E-04    0.29E-04    0.15E-06
  PAW_PBE Gd 23Dec2003                  :
  PAW_PBE Pd 04Jan2005                  :
  PAW_PBE Rh_pv 25Jan2005               :

 POSCAR: Gd2 Pd1 Rh1
  positions in direct lattice
 exchange correlation table for  LEXCH =        8
   RHO(1)=    0.500       N(1)  =     2000
   RHO(2)=  100.500       N(2)  =     4000

 VTST: version 4.2, (08/11/21)

 CHAIN: initializing optimizer

 OPT: Using VASP Dynamics algorithm
 CHAIN: Read ICHAIN             0

 POSCAR: Gd2 Pd1 Rh1
  positions in direct lattice

 ion  position               nearest neighbor table
   1  0.750  0.750  0.750-   4 3.04   4 3.04   3 3.04   4 3.04   3 3.04   3 3.04   4 3.04   3 3.04
                             2 3.52   2 3.52   2 3.52   2 3.52   2 3.52   2 3.52
   2  0.250  0.250  0.250-   3 3.04   3 3.04   3 3.04   4 3.04   4 3.04   4 3.04   3 3.04   4 3.04
                             1 3.52   1 3.52   1 3.52   1 3.52   1 3.52   1 3.52
   3  0.000  0.000  0.000-   1 3.04   1 3.04   1 3.04   2 3.04   2 3.04   2 3.04   1 3.04   2 3.04

   4  0.500  0.500  0.500-   2 3.04   2 3.04   1 3.04   2 3.04   1 3.04   1 3.04   2 3.04   1 3.04

  LATTYP: Found a face centered cubic cell.
 ALAT       =     7.0303540000

  Lattice vectors:

 A1 = (   0.0000000000,   3.5151770000,   3.5151770000)
 A2 = (   3.5151770000,   0.0000000000,   3.5151770000)
 A3 = (   3.5151770000,   3.5151770000,   0.0000000000)

Analysis of symmetry for initial positions (statically):
 Subroutine PRICEL returns:
 Original cell was already a primitive cell.

 Routine SETGRP: Setting up the symmetry group for a
 face centered cubic supercell.

 Subroutine GETGRP returns: Found 48 space group operations
 (whereof 48 operations were pure point group operations)
 out of a pool of 48 trial point group operations.

The static configuration has the point symmetry O_h .

Analysis of symmetry for dynamics (positions and initial velocities):
 Subroutine PRICEL returns:
 Original cell was already a primitive cell.

[...]

The dynamic configuration has the point symmetry O_h .

Analysis of structural, dynamic, and magnetic symmetry:
 Subroutine PRICEL returns:
 Original cell was already a primitive cell.

 Routine SETGRP: Setting up the symmetry group for a
 face centered cubic supercell.

 Subroutine GETGRP returns: Found 48 space group operations
 (whereof 48 operations were pure point group operations)
 out of a pool of 48 trial point group operations.

The overall configuration has the point symmetry O_h .

 Subroutine INISYM returns: Found 48 space group operations
 (whereof 48 operations are pure point group operations),
 and found     1 'primitive' translations

                                     Primitive cell

  volume of cell :      86.8704

  direct lattice vectors                    reciprocal lattice vectors
     0.000000000  3.515177000  3.515177000    -0.142240348  0.142240348  0.142240348
     3.515177000  0.000000000  3.515177000     0.142240348 -0.142240348  0.142240348
     3.515177000  3.515177000  0.000000000     0.142240348  0.142240348 -0.142240348

  length of vectors
     4.971210988  4.971210988  4.971210988     0.246367510  0.246367510  0.246367510

  position of ions in fractional coordinates (direct lattice)
     0.750000000  0.750000000  0.750000000
     0.250000000  0.250000000  0.250000000
     0.000000000  0.000000000  0.000000000
     0.500000000  0.500000000  0.500000000

  ion indices of the primitive-cell ions
   primitive index   ion index
                 1           1
                 2           2
                 3           3
                 4           4

 KPOINTS: Kpoints from vasprun.xml

Automatic generation of k-mesh.
 Grid dimensions read from file:
 generate k-points for:    6    6    6

 Generating k-lattice:

  Cartesian coordinates                     Fractional coordinates (reciprocal lattice)
    -0.023706725  0.023706725  0.023706725     0.166666667 -0.000000000 -0.000000000
     0.023706725 -0.023706725  0.023706725    -0.000000000  0.166666667  0.000000000
     0.023706725  0.023706725 -0.023706725     0.000000000  0.000000000  0.166666667

  Length of vectors
     0.041061252  0.041061252  0.041061252

  Shift w.r.t. Gamma in fractional coordinates (k-lattice)
     0.000000000  0.000000000  0.000000000

 TETIRR: Found     35 inequivalent tetrahedra from     1296

 Subroutine IBZKPT returns following result:

 Found     16 irreducible k-points:

 Following reciprocal coordinates:
            Coordinates               Weight
  0.000000  0.000000  0.000000      1.000000
  0.166667  0.000000  0.000000      8.000000
  0.333333  0.000000  0.000000      8.000000
  0.500000  0.000000  0.000000      4.000000
  0.166667  0.166667  0.000000      6.000000
  0.333333  0.166667  0.000000     24.000000
  0.500000  0.166667  0.000000     24.000000
 -0.333333  0.166667  0.000000     24.000000
 -0.166667  0.166667  0.000000     12.000000
  0.333333  0.333333  0.000000      6.000000
  0.500000  0.333333  0.000000     24.000000
 -0.333333  0.333333  0.000000     12.000000
  0.500000  0.500000  0.000000      3.000000
  0.500000  0.333333  0.166667     24.000000
 -0.333333  0.333333  0.166667     24.000000
 -0.333333  0.500000  0.166667     12.000000

 Following cartesian coordinates:
            Coordinates               Weight
  0.000000  0.000000  0.000000      1.000000
 -0.023707  0.023707  0.023707      8.000000
 -0.047413  0.047413  0.047413      8.000000
 -0.071120  0.071120  0.071120      4.000000
  0.000000  0.000000  0.047413      6.000000
 -0.023707  0.023707  0.071120     24.000000
 -0.047413  0.047413  0.094827     24.000000
  0.071120 -0.071120 -0.023707     24.000000
  0.047413 -0.047413  0.000000     12.000000
  0.000000  0.000000  0.094827      6.000000
 -0.023707  0.023707  0.118534     24.000000
  0.094827 -0.094827  0.000000     12.000000
  0.000000  0.000000  0.142240      3.000000
  0.000000  0.047413  0.094827     24.000000
  0.118534 -0.071120 -0.023707     24.000000
  0.142240 -0.094827  0.000000     12.000000

 SYSTEM =  unknown system
 POSCAR =  Gd2 Pd1 Rh1

 Startparameter for this run:
   NWRITE =      2    write-flag & timer
   PREC   = accura    normal or accurate (medium, high low for compatibility)
   ISTART =      0    job   : 0-new  1-cont  2-samecut
   ICHARG =      2    charge: 1-file 2-atom 10-const
   ISPIN  =      2    spin polarized calculation?
   LNONCOLLINEAR =      F non collinear calculations
   LSORBIT =      F    spin-orbit coupling
   INIWAV =      1    electr: 0-lowe 1-rand  2-diag
   LASPH  =      T    aspherical Exc in radial PAW
 Electronic Relaxation 1
   ENCUT  =  520.0 eV  38.22 Ry    6.18 a.u.   9.24  9.24  9.24*2*pi/ulx,y,z
   ENINI  =  520.0     initial cutoff
   ENAUG  =  537.2 eV  augmentation charge cutoff
   NELM   =   1000;   NELMIN=  2; NELMDL=  0     # of ELM steps
   EDIFF  = 0.2E-03   stopping-criterion for ELM
   LREAL  =      T    real-space projection
   NLSPLINE    = F    spline interpolate recip. space projectors
   LCOMPAT=      F    compatible to vasp.4.4
   GGA_COMPAT  = T    GGA compatible to vasp.4.4-vasp.4.6
   LMAXPAW     = -100 max onsite density
   LMAXMIX     =    2 max onsite mixed and CHGCAR
   VOSKOWN=      0    Vosko Wilk Nusair interpolation
   ROPT   =   -0.00025  -0.00025  -0.00025
 Ionic relaxation
   EDIFFG = 0.2E-02   stopping-criterion for IOM
   NSW    =      0    number of steps for IOM
   NBLOCK =      1;   KBLOCK =      1    inner block; outer block
   IBRION =     -1    ionic relax: 0-MD 1-quasi-New 2-CG
   NFREE  =      0    steps in history (QN), initial steepest desc. (CG)
   ISIF   =      3    stress and relaxation
   IWAVPR =     10    prediction:  0-non 1-charg 2-wave 3-comb
   ISYM   =      2    0-nonsym 1-usesym 2-fastsym
   LCORR  =      T    Harris-Foulkes like correction to forces

   POTIM  = 0.5000    time-step for ionic-motion
   TEIN   =    0.0    initial temperature
   TEBEG  =    0.0;   TEEND  =   0.0 temperature during run
   SMASS  =  -3.00    Nose mass-parameter (am)
[...]
  290                map_forward                           0.000157                    4   7
  291                  map_gather                            0.000042                  2   8
  292                  m_alltoallv_z                         0.000025                  2   8
  293                  map_scatter                           0.000064                  2   8
  294                map_backward                          0.000082                    2   7
  295                  map_gather                            0.000018                  1   8
  296                  m_alltoallv_z                         0.000010                  1   8
  297                  map_scatter                           0.000040                  1   8
  298          m_sumb_d                              0.000011                          2   4
  299          pothar                                0.000072                          1   4
  300            m_sumb_d                              0.000004                        1   5
  301        brmix                                 0.001870                            1   3
  302          m_sumb_d                              0.000076                          6   4
  303          brpre                                 0.000016                          2   4
  304          setg0                                 0.000453                          1   4
  305          broyd                                 0.000791                          1   4
  306            m_sumb_d                              0.000092                       22   5
  307            brsav                                 0.000059                       21   5
  308            brget                                 0.000211                       84   5
  309        m_bcast_d                             0.000017                            2   3
  310      potlok                                0.018537                              2   2
  311        fft3d_mpi                             0.012276                           36   3
  312          fftbrc_mpi                            0.010327                         36   4
  313            fftbas_plan_mpi                       0.010306                       36   5
  314              map_forward                           0.003107                     40   6
  315                map_gather                            0.001041                   24   7
  316                m_alltoallv_z                         0.000980                   24   7
  317                map_scatter                           0.000911                   24   7
  318              map_backward                          0.002456                     32   6
  319                map_gather                            0.000878                   16   7
  320                m_alltoallv_z                         0.000631                   16   7
  321                map_scatter                           0.000773                   16   7
  322              dfftw_execute                         0.003176                     30   6
  323        m_sumb_d                              0.000024                            5   3
  324        pothar                                0.000671                            2   3
  325          m_sumb_d                              0.000034                          2   4
  326        m_bcast_d                             0.001113                            4   3
  327      potlok_metagga                        0.000001                              1   2
  328      set_dd_magatom                        0.000005                              1   2
  329      set_dd_paw                            0.927018                              1   2
  330        m_sumb_d                              0.456567                            7   3
  331      augmentation_charge                   0.082802                              1   2
  332        fft3d_mpi                             0.016975                            2   3
  333          fftbrc_mpi                            0.014573                          2   4
  334            fftbas_plan_mpi                       0.014570                        2   5
  335              dfftw_execute                         0.008873                      6   6
  336              map_backward                          0.005554                      4   6
  337                map_gather                            0.001396                    2   7
  338                m_alltoallv_z                         0.002947                    2   7
  339                map_scatter                           0.001206                    2   7
  340      fftwav_mpi                            0.475882                           1056   2
  341        fftwav                                0.474571                         1056   3
  342          fft3d                                 0.453735                       1056   4
  343      densta                                0.306125                              1   2

 Flat profile

 m_sumb_d                               11.833612       47343
 init_acc                               11.821331           1
 set_dd_paw                              8.431767          18
 total_time                              7.594735           1
 eddav                                   6.710309          20
 lapack                                  6.578291       14946
 raccmu_                                 5.866457       14946
 setdij_                                 2.762629          44
 redis_pw                                2.556901       75718
 acc_init_cublas                         2.459412           1
 m_alltoall_d                            1.510706      198766
 phaser                                  1.373456         848
 augmentation_charge                     1.146349          17
 fft3d                                   1.072410       84225
 dfftw_execute                           0.842524         864
 acc_init_cusolver                       0.796721           1
 redis_proj                              0.632376       95848
 eccp                                    0.624852        7040
 fftwav                                  0.582547       57087
 densta                                  0.546619          21
 rpromu_acc                              0.509374       12354
 orth1                                   0.492882       44902
 racc0mu_acc                             0.419372       14946
 m_alltoallv_z                           0.406715         843
 w1_copy                                 0.395124       81414
 overl                                   0.391620       47268
 hamiltmu                                0.336536       14946
 soft_charge                             0.314874          16
 m_bcast_z                               0.313086       16354
 rpro_isp                                0.279767         208
 setup_precond                           0.254773        7040
 m_bcast_d                               0.248448       29933
 overl_mu                                0.226979       14946
 ggemm                                   0.191842       18786
 fft3d_mpi                               0.161718       27893
 newband                                 0.146755       15586
 rspher_all                              0.130907          14
 vhamil                                  0.126610       27138
 kinhamil                                0.122654       27138
 acc_cufft_makeplan                      0.120711          19
 map_gather                              0.120557         843
 fftext_mpi                              0.114254       27138
 apply_precond                           0.111729       20098
 pw_charge                               0.110453        4219
 map_scatter                             0.110430         843
 depsum                                  0.092623          16
 set_charge                              0.084106          16
 fftwav_mpi                              0.077097       57087
 fftbas_plan_mpi                         0.055920         755
 potlok                                  0.055834          18
 proall                                  0.042266           1
 elmin                                   0.036913           1
 sphpro_fast                             0.026045           2
 lincom                                  0.020344         672
 w1_projall                              0.011379       11106
 brmix                                   0.009630          16
 choleski                                0.008651          32
 force_and_stress                        0.008551           1
 orthch                                  0.007767           1
 setg0                                   0.007484          18
 broyd                                   0.005877          16
 inisym                                  0.005289           1
 strnlr                                  0.004255           1
 map_backward                            0.003557         774
 map_forward                             0.003432         736
 truncate_high_frequency_w1              0.002671       34178
 pothar                                  0.001877          19
 brget                                   0.001774         738
 fornlr                                  0.001451           1
 stufak                                  0.001432           1
 forhar                                  0.001282           2
 strelo                                  0.001185           1
 strehar                                 0.000862           1
 forloc                                  0.000705           1
 fft_gq                                  0.000512          16
 brsav                                   0.000503         203
 fftbrc_mpi                              0.000461         755
 fewald                                  0.000325           1
 brpre                                   0.000271          32
 chggra                                  0.000228           1
 strkin                                  0.000211           1
 brgrid                                  0.000110           1
 set_dd_magatom                          0.000084          18
 vectorpot                               0.000075          17
 rsp                                     0.000048           1
 fordep                                  0.000047           1
 posmap                                  0.000041           2
 crpa_reader                             0.000027           1
 rcp                                     0.000015           1
 acc_cufft_makeplans                     0.000010           3
 potlok_metagga                          0.000002          17
 rotate_active_occupied_orbital          0.000000           1
 redis_pw_over_bands                     0.000000           1
  summed up times     82.48540210723877

 Accumulative profile

 total_time                             82.485402           1
 elmin                                  52.831697           1
 eddav                                  33.909702          20
 set_dd_paw                             16.786719          18
 m_sumb_d                               11.833612       47343
 init_acc                               11.821331           1
 hamiltmu                                7.415005       14946
 lapack                                  6.578291       14946
 raccmu_                                 6.512808       14946
 force_and_stress                        4.369920           1
 setdij_                                 3.822592          44
 redis_pw                                3.246449       75718
 acc_init_cublas                         2.459412           1
 set_charge                              2.144899          16
 fft3d_mpi                               1.899254       27893
 fftbrc_mpi                              1.543596         755
 fftbas_plan_mpi                         1.543135         755
 fftwav_mpi                              1.538115       57087
 newband                                 1.531653       15586
 m_alltoall_d                            1.510706      198766
 fftwav                                  1.461018       57087
 redis_proj                              1.453534       95848
 augmentation_charge                     1.445752          17
 phaser                                  1.373456         848
 fft3d                                   1.072410       84225
 dfftw_execute                           0.842524         864
 acc_init_cusolver                       0.796721           1
 strnlr                                  0.776200           1
 eccp                                    0.624852        7040
 rpro_isp                                0.616938         208
 soft_charge                             0.591924          16
 densta                                  0.546619          21
 fordep                                  0.520800           1
 rpromu_acc                              0.509374       12354
 orth1                                   0.492882       44902
 map_forward                             0.445549         736
 kinhamil                                0.439052       27138
 racc0mu_acc                             0.419372       14946
 m_alltoallv_z                           0.406715         843
 w1_copy                                 0.395124       81414
 overl                                   0.391620       47268
 w1_projall                              0.320260       11106
 fftext_mpi                              0.316398       27138
 m_bcast_z                               0.313086       16354
 potlok                                  0.306908          18
 fornlr                                  0.258562           1
 setup_precond                           0.254773        7040
 m_bcast_d                               0.248448       29933
 overl_mu                                0.226979       14946
 orthch                                  0.224552           1
 map_backward                            0.199142         774
 ggemm                                   0.191842       18786
 rspher_all                              0.130907          14
 vhamil                                  0.126610       27138
 acc_cufft_makeplans                     0.120721           3
 acc_cufft_makeplan                      0.120711          19
 map_gather                              0.120557         843
 apply_precond                           0.111729       20098
 pw_charge                               0.110453        4219
 map_scatter                             0.110430         843
 depsum                                  0.093558          16
 proall                                  0.089714           1
 brmix                                   0.027185          16
 sphpro_fast                             0.026748           2
 lincom                                  0.020344         672
 fft_gq                                  0.016993          16
 broyd                                   0.009150          16
 choleski                                0.008651          32
 setg0                                   0.007484          18
 inisym                                  0.005330           1
 truncate_high_frequency_w1              0.002671       34178
 pothar                                  0.002017          19
 brget                                   0.001774         738
 stufak                                  0.001432           1
 forhar                                  0.001296           2
 strelo                                  0.001196           1
 strehar                                 0.000865           1
 forloc                                  0.000811           1
 chggra                                  0.000731           1
 brsav                                   0.000503         203
 fewald                                  0.000435           1
 brpre                                   0.000271          32
 strkin                                  0.000225           1
 brgrid                                  0.000110           1
 set_dd_magatom                          0.000084          18
 vectorpot                               0.000075          17
 rsp                                     0.000048           1
 posmap                                  0.000041           2
 crpa_reader                             0.000027           1
 rcp                                     0.000015           1
 potlok_metagga                          0.000002          17
 rotate_active_occupied_orbital          0.000000           1
 redis_pw_over_bands                     0.000000           1

Profiling took   0.178209  0.090154  0.003192  0.003112 seconds
Profiling took   0.113229 seconds