 vasp.6.3.2 27Jun22 (build Jul  3 2023 11:46:21) complex
 executed on    LinuxNV_CrayMPICH date 2024.04.21  05:53:49

 INCAR:
   ADDGRID = True
   ALGO = Normal
   EDIFF = 0.0002
   ENCUT = 520.0
   IBRION = -1
   ICHARG = 0
   ISIF = 3
   ISMEAR = -5
   ISPIN = 2
   ISTART = 1
   KPOINT_BSE = -1 0 0 0
   LAECHG = True
   LASPH = True
   LCHARG = True
   LELF = True
   LORBIT = 11
   LREAL = Auto
   LVHAR = True
   LWAVE = False
   MAGMOM = 2*7.0 2*0.6
   NELM = 1000
   NSW = 0
   PREC = accurate
   SIGMA = 0.05

 POTCAR:    PAW_PBE Gd 23Dec2003
 POTCAR:    PAW_PBE Cu_pv 06Sep2000
 POTCAR:    PAW_PBE Os_pv 20Jan2003
 POTCAR:    PAW_PBE Gd 23Dec2003
   VRHFIN =Gd : [core=Xe4]

   TITEL  = PAW_PBE Gd 23Dec2003
   POMASS =  157.250; ZVAL   =   18.000    mass and valenz
   ENMAX  =  256.472; ENMIN  =  192.354 eV

   TITEL  = PAW_PBE Cu_pv 06Sep2000
   POMASS =   63.546; ZVAL   =   17.000    mass and valenz
   ENMAX  =  368.648; ENMIN  =  276.486 eV

   TITEL  = PAW_PBE Os_pv 20Jan2003
   POMASS =  190.200; ZVAL   =   14.000    mass and valenz
   ENMAX  =  228.022; ENMIN  =  171.017 eV

 Optimization of the real space projectors (new method)

 maximal supplied QI-value         = 13.42
 optimisation between [QCUT,QGAM] = [ 11.67, 23.35] = [ 38.16,152.62] Ry
 Optimized for a Real-space Cutoff    1.63 Angstroem

   l    n(q)    QCUT    max X(q) W(low)/X(q) W(high)/X(q)  e(spline)
   0     11    11.673    10.501    0.14E-04    0.17E-05    0.21E-07
   0     11    11.673     9.148    0.21E-04    0.32E-05    0.45E-07
   1     11    11.673     4.035    0.33E-05    0.11E-04    0.84E-07
   1     11    11.673     4.388    0.11E-04    0.47E-04    0.34E-06
   2     10    11.673    20.656    0.12E-04    0.28E-04    0.54E-06
   2     10    11.673    12.651    0.11E-04    0.26E-04    0.51E-06
   3     10    11.673    61.921    0.19E-03    0.22E-03    0.23E-06
   3     10    11.673    48.328    0.20E-03    0.23E-03    0.23E-06
 Optimization of the real space projectors (new method)

[...]

   l    n(q)    QCUT    max X(q) W(low)/X(q) W(high)/X(q)  e(spline)
   1      9    11.527     3.172    0.21E-04    0.38E-04    0.11E-06
   1      9    11.527     4.083    0.67E-04    0.79E-04    0.20E-06
   2      9    11.527    65.342    0.13E-03    0.28E-03    0.26E-06
   2      9    11.527    61.381    0.13E-03    0.29E-03    0.26E-06
   0      9    11.527    65.742    0.32E-04    0.21E-04    0.72E-07
   0      9    11.527    30.431    0.28E-04    0.19E-04    0.65E-07
 Optimization of the real space projectors (new method)

 maximal supplied QI-value         = 15.12
 optimisation between [QCUT,QGAM] = [ 11.64, 23.28] = [ 37.95,151.78] Ry
 Optimized for a Real-space Cutoff    1.58 Angstroem

   l    n(q)    QCUT    max X(q) W(low)/X(q) W(high)/X(q)  e(spline)
   1     11    11.641     4.891    0.34E-04    0.44E-05    0.10E-06
   1     11    11.641     5.413    0.55E-04    0.39E-05    0.21E-06
   2     10    11.641   152.724    0.79E-04    0.37E-03    0.14E-05
   2     10    11.641   145.932    0.79E-04    0.37E-03    0.14E-05
   0     11    11.641    72.123    0.49E-04    0.38E-04    0.23E-06
   0     11    11.641    43.545    0.42E-04    0.35E-04    0.22E-06
  PAW_PBE Gd 23Dec2003                  :
  PAW_PBE Cu_pv 06Sep2000               :
  PAW_PBE Os_pv 20Jan2003               :

 POSCAR: Gd2 Cu1 Os1
  positions in direct lattice
 exchange correlation table for  LEXCH =        8
   RHO(1)=    0.500       N(1)  =     2000
   RHO(2)=  100.500       N(2)  =     4000

 VTST: version 4.2, (08/11/21)

 CHAIN: initializing optimizer

 OPT: Using VASP Dynamics algorithm
 CHAIN: Read ICHAIN             0

 POSCAR: Gd2 Cu1 Os1
  positions in direct lattice

 ion  position               nearest neighbor table
   1  0.250  0.250  0.250-   4 3.00   3 3.00   4 3.00   3 3.00   4 3.00   4 3.00   3 3.00   3 3.00
                             2 3.46   2 3.46   2 3.46   2 3.46   2 3.46   2 3.46
   2  0.750  0.750  0.750-   3 3.00   3 3.00   4 3.00   4 3.00   3 3.00   3 3.00   4 3.00   4 3.00
                             1 3.46   1 3.46   1 3.46   1 3.46   1 3.46   1 3.46
   3  0.500  0.500  0.500-   1 3.00   1 3.00   2 3.00   2 3.00   1 3.00   1 3.00   2 3.00   2 3.00

   4  0.000  0.000  0.000-   2 3.00   1 3.00   2 3.00   1 3.00   2 3.00   2 3.00   1 3.00   1 3.00

  LATTYP: Found a face centered cubic cell.
 ALAT       =     6.9257200000

  Lattice vectors:

 A1 = (   0.0000000000,   3.4628600000,   3.4628600000)
 A2 = (   3.4628600000,   0.0000000000,   3.4628600000)
 A3 = (   3.4628600000,   3.4628600000,   0.0000000000)

Analysis of symmetry for initial positions (statically):
 Subroutine PRICEL returns:
 Original cell was already a primitive cell.

 Routine SETGRP: Setting up the symmetry group for a
 face centered cubic supercell.

 Subroutine GETGRP returns: Found 48 space group operations
 (whereof 48 operations were pure point group operations)
 out of a pool of 48 trial point group operations.

The static configuration has the point symmetry O_h .

Analysis of symmetry for dynamics (positions and initial velocities):
 Subroutine PRICEL returns:
 Original cell was already a primitive cell.

[...]

The dynamic configuration has the point symmetry O_h .

Analysis of structural, dynamic, and magnetic symmetry:
 Subroutine PRICEL returns:
 Original cell was already a primitive cell.

 Routine SETGRP: Setting up the symmetry group for a
 face centered cubic supercell.

 Subroutine GETGRP returns: Found 48 space group operations
 (whereof 48 operations were pure point group operations)
 out of a pool of 48 trial point group operations.

The overall configuration has the point symmetry O_h .

 Subroutine INISYM returns: Found 48 space group operations
 (whereof 48 operations are pure point group operations),
 and found     1 'primitive' translations

                                     Primitive cell

  volume of cell :      83.0491

  direct lattice vectors                    reciprocal lattice vectors
     0.000000000  3.462860000  3.462860000    -0.144389320  0.144389320  0.144389320
     3.462860000  0.000000000  3.462860000     0.144389320 -0.144389320  0.144389320
     3.462860000  3.462860000  0.000000000     0.144389320  0.144389320 -0.144389320

  length of vectors
     4.897223577  4.897223577  4.897223577     0.250089638  0.250089638  0.250089638

  position of ions in fractional coordinates (direct lattice)
     0.250000000  0.250000000  0.250000000
     0.750000000  0.750000000  0.750000000
     0.500000000  0.500000000  0.500000000
     0.000000000  0.000000000  0.000000000

  ion indices of the primitive-cell ions
   primitive index   ion index
                 1           1
                 2           2
                 3           3
                 4           4

 KPOINTS: Kpoints from vasprun.xml

Automatic generation of k-mesh.
 Grid dimensions read from file:
 generate k-points for:    6    6    6

 Generating k-lattice:

  Cartesian coordinates                     Fractional coordinates (reciprocal lattice)
    -0.024064887  0.024064887  0.024064887     0.166666667  0.000000000  0.000000000
     0.024064887 -0.024064887  0.024064887     0.000000000  0.166666667 -0.000000000
     0.024064887  0.024064887 -0.024064887    -0.000000000 -0.000000000  0.166666667

  Length of vectors
     0.041681606  0.041681606  0.041681606

  Shift w.r.t. Gamma in fractional coordinates (k-lattice)
     0.000000000  0.000000000  0.000000000

 TETIRR: Found     35 inequivalent tetrahedra from     1296

 Subroutine IBZKPT returns following result:

 Found     16 irreducible k-points:

 Following reciprocal coordinates:
            Coordinates               Weight
  0.000000  0.000000  0.000000      1.000000
  0.166667  0.000000  0.000000      8.000000
  0.333333  0.000000  0.000000      8.000000
  0.500000  0.000000  0.000000      4.000000
  0.166667  0.166667  0.000000      6.000000
  0.333333  0.166667  0.000000     24.000000
  0.500000  0.166667  0.000000     24.000000
 -0.333333  0.166667  0.000000     24.000000
 -0.166667  0.166667  0.000000     12.000000
  0.333333  0.333333  0.000000      6.000000
  0.500000  0.333333  0.000000     24.000000
 -0.333333  0.333333  0.000000     12.000000
  0.500000  0.500000  0.000000      3.000000
  0.500000  0.333333  0.166667     24.000000
 -0.333333  0.333333  0.166667     24.000000
 -0.333333  0.500000  0.166667     12.000000

 Following cartesian coordinates:
            Coordinates               Weight
  0.000000  0.000000  0.000000      1.000000
 -0.024065  0.024065  0.024065      8.000000
 -0.048130  0.048130  0.048130      8.000000
 -0.072195  0.072195  0.072195      4.000000
  0.000000  0.000000  0.048130      6.000000
 -0.024065  0.024065  0.072195     24.000000
 -0.048130  0.048130  0.096260     24.000000
  0.072195 -0.072195 -0.024065     24.000000
  0.048130 -0.048130  0.000000     12.000000
  0.000000  0.000000  0.096260      6.000000
 -0.024065  0.024065  0.120324     24.000000
  0.096260 -0.096260  0.000000     12.000000
  0.000000  0.000000  0.144389      3.000000
  0.000000  0.048130  0.096260     24.000000
  0.120324 -0.072195 -0.024065     24.000000
  0.144389 -0.096260  0.000000     12.000000

 SYSTEM =  unknown system
 POSCAR =  Gd2 Cu1 Os1

 Startparameter for this run:
   NWRITE =      2    write-flag & timer
   PREC   = accura    normal or accurate (medium, high low for compatibility)
   ISTART =      0    job   : 0-new  1-cont  2-samecut
   ICHARG =      2    charge: 1-file 2-atom 10-const
   ISPIN  =      2    spin polarized calculation?
   LNONCOLLINEAR =      F non collinear calculations
   LSORBIT =      F    spin-orbit coupling
   INIWAV =      1    electr: 0-lowe 1-rand  2-diag
   LASPH  =      T    aspherical Exc in radial PAW
 Electronic Relaxation 1
   ENCUT  =  520.0 eV  38.22 Ry    6.18 a.u.   9.11  9.11  9.11*2*pi/ulx,y,z
   ENINI  =  520.0     initial cutoff
   ENAUG  =  758.2 eV  augmentation charge cutoff
   NELM   =   1000;   NELMIN=  2; NELMDL=  0     # of ELM steps
   EDIFF  = 0.2E-03   stopping-criterion for ELM
   LREAL  =      T    real-space projection
   NLSPLINE    = F    spline interpolate recip. space projectors
   LCOMPAT=      F    compatible to vasp.4.4
   GGA_COMPAT  = T    GGA compatible to vasp.4.4-vasp.4.6
   LMAXPAW     = -100 max onsite density
   LMAXMIX     =    2 max onsite mixed and CHGCAR
   VOSKOWN=      0    Vosko Wilk Nusair interpolation
   ROPT   =   -0.00025  -0.00025  -0.00025
 Ionic relaxation
   EDIFFG = 0.2E-02   stopping-criterion for IOM
   NSW    =      0    number of steps for IOM
   NBLOCK =      1;   KBLOCK =      1    inner block; outer block
   IBRION =     -1    ionic relax: 0-MD 1-quasi-New 2-CG
   NFREE  =      0    steps in history (QN), initial steepest desc. (CG)
   ISIF   =      3    stress and relaxation
   IWAVPR =     10    prediction:  0-non 1-charg 2-wave 3-comb
   ISYM   =      2    0-nonsym 1-usesym 2-fastsym
   LCORR  =      T    Harris-Foulkes like correction to forces

   POTIM  = 0.5000    time-step for ionic-motion
   TEIN   =    0.0    initial temperature
   TEBEG  =    0.0;   TEEND  =   0.0 temperature during run
   SMASS  =  -3.00    Nose mass-parameter (am)
[...]
  290                map_forward                           0.000167                    4   7
  291                  map_gather                            0.000039                  2   8
  292                  m_alltoallv_z                         0.000022                  2   8
  293                  map_scatter                           0.000079                  2   8
  294                map_backward                          0.000071                    2   7
  295                  map_gather                            0.000019                  1   8
  296                  m_alltoallv_z                         0.000010                  1   8
  297                  map_scatter                           0.000030                  1   8
  298          m_sumb_d                              0.000009                          2   4
  299          pothar                                0.000075                          1   4
  300            m_sumb_d                              0.000008                        1   5
  301        brmix                                 0.002318                            1   3
  302          m_sumb_d                              0.000023                          6   4
  303          brpre                                 0.000016                          2   4
  304          setg0                                 0.000330                          1   4
  305          broyd                                 0.001496                          1   4
  306            m_sumb_d                              0.000158                       32   5
  307            brsav                                 0.000085                       31   5
  308            brget                                 0.000325                      134   5
  309        m_bcast_d                             0.000018                            2   3
  310      potlok                                0.015046                              2   2
  311        fft3d_mpi                             0.009932                           36   3
  312          fftbrc_mpi                            0.008520                         36   4
  313            fftbas_plan_mpi                       0.008502                       36   5
  314              map_forward                           0.002490                     40   6
  315                map_gather                            0.000840                   24   7
  316                m_alltoallv_z                         0.000697                   24   7
  317                map_scatter                           0.000776                   24   7
  318              map_backward                          0.002172                     32   6
  319                map_gather                            0.000619                   16   7
  320                m_alltoallv_z                         0.000706                   16   7
  321                map_scatter                           0.000677                   16   7
  322              dfftw_execute                         0.002337                     30   6
  323        m_sumb_d                              0.000023                            5   3
  324        pothar                                0.000531                            2   3
  325          m_sumb_d                              0.000047                          2   4
  326        m_bcast_d                             0.000850                            4   3
  327      potlok_metagga                        0.000000                              1   2
  328      set_dd_magatom                        0.000004                              1   2
  329      set_dd_paw                            0.949518                              1   2
  330        m_sumb_d                              0.474424                            7   3
  331      augmentation_charge                   0.063708                              1   2
  332        fft3d_mpi                             0.015995                            2   3
  333          fftbrc_mpi                            0.013992                          2   4
  334            fftbas_plan_mpi                       0.013990                        2   5
  335              dfftw_execute                         0.009777                      6   6
  336              map_backward                          0.003991                      4   6
  337                map_gather                            0.001137                    2   7
  338                m_alltoallv_z                         0.001911                    2   7
  339                map_scatter                           0.000935                    2   7
  340      fftwav_mpi                            0.396879                           1152   2
  341        fftwav                                0.395493                         1152   3
  342          fft3d                                 0.378032                       1152   4
  343      densta                                0.625213                              1   2

 Flat profile

 m_sumb_d                               18.574434       73178
 set_dd_paw                             13.090289          28
 lapack                                 11.211720       23288
 init_acc                               11.062042           1
 eddav                                  10.763042          30
 raccmu_                                 6.578161       23288
 total_time                              6.109405           1
 redis_pw                                3.999245      130192
 m_alltoall_d                            2.519437      339472
 acc_init_cublas                         2.465716           1
 setdij_                                 2.442252          54
 phaser                                  1.480022        1168
 fft3d                                   1.437101      141802
 augmentation_charge                     1.331752          27
 redis_proj                              1.098833      165280
 densta                                  1.012993          31
 eccp                                    0.964978       11520
 dfftw_execute                           0.960837        1104
 fftwav                                  0.938429       95226
 acc_init_cusolver                       0.809625           1
 orth1                                   0.795922       69928
 rpromu_acc                              0.710202       18776
 overl                                   0.685969       81664
 racc0mu_acc                             0.684595       23288
 w1_copy                                 0.677392      139728
 soft_charge                             0.542465          26
 m_bcast_z                               0.499099       24824
 hamiltmu                                0.484648       23288
 setup_precond                           0.418012       11520
 m_bcast_d                               0.379658       46637
 overl_mu                                0.363137       23288
 m_alltoallv_z                           0.342601        1223
 ggemm                                   0.310750       29048
 rpro_isp                                0.296242         208
 vhamil                                  0.215937       46576
 kinhamil                                0.215325       46576
 newband                                 0.212335       24248
 fft3d_mpi                               0.202364       47671
 fftext_mpi                              0.201069       46576
 apply_precond                           0.195925       35056
 pw_charge                               0.179625        7450
 depsum                                  0.163577          26
 acc_cufft_makeplan                      0.134672          19
 fftwav_mpi                              0.128134       95226
 map_gather                              0.124933        1223
 map_scatter                             0.120061        1223
 set_charge                              0.108386          26
 rspher_all                              0.100625          14
 potlok                                  0.073514          28
 fftbas_plan_mpi                         0.069214        1095
 elmin                                   0.050241           1
 proall                                  0.041460           1
 lincom                                  0.032520         992
 sphpro_fast                             0.027902           2
 w1_projall                              0.017260       17528
 broyd                                   0.012984          26
 brmix                                   0.011246          26
 setg0                                   0.009072          28
 orthch                                  0.007847           1
 force_and_stress                        0.007795           1
 choleski                                0.007570          32
 map_backward                            0.005301        1134
 map_forward                             0.005152        1056
 inisym                                  0.004797           1
 brget                                   0.004546        1853
 truncate_high_frequency_w1              0.004407       58096
 strnlr                                  0.004178           1
 pothar                                  0.002395          29
 stufak                                  0.001467           1
 fornlr                                  0.001437           1
 brsav                                   0.001163         460
 forhar                                  0.000924           2
 strelo                                  0.000803           1
 strehar                                 0.000726           1
 fftbrc_mpi                              0.000660        1095
 forloc                                  0.000507           1
 fft_gq                                  0.000484          26
 brpre                                   0.000442          52
 fewald                                  0.000360           1
 chggra                                  0.000215           1
 strkin                                  0.000203           1
 set_dd_magatom                          0.000123          28
 vectorpot                               0.000120          27
 brgrid                                  0.000089           1
 posmap                                  0.000058           2
 rsp                                     0.000054           1
 fordep                                  0.000046           1
 crpa_reader                             0.000027           1
 acc_cufft_makeplans                     0.000013           3
 rcp                                     0.000013           1
 potlok_metagga                          0.000003          27
 rotate_active_occupied_orbital          0.000001           1
 redis_pw_over_bands                     0.000000           1
  summed up times     108.7533140182495

 Accumulative profile

 total_time                            108.753314           1
 elmin                                  81.751050           1
 eddav                                  51.926926          30
 set_dd_paw                             26.370360          28
 m_sumb_d                               18.574434       73178
 lapack                                 11.211720       23288
 init_acc                               11.062042           1
 hamiltmu                                9.094804       23288
 raccmu_                                 7.625894       23288
 redis_pw                                5.169772      130192
 force_and_stress                        3.706032           1
 setdij_                                 3.514568          54
 set_charge                              2.979633          26
 m_alltoall_d                            2.519437      339472
 acc_init_cublas                         2.465716           1
 redis_proj                              2.447744      165280
 newband                                 2.426332       24248
 fft3d_mpi                               2.168798       47671
 fftwav_mpi                              2.165990       95226
 fftwav                                  2.037856       95226
 augmentation_charge                     1.758412          27
 fftbrc_mpi                              1.628760        1095
 fftbas_plan_mpi                         1.628099        1095
 phaser                                  1.480022        1168
 fft3d                                   1.437101      141802
 densta                                  1.012993          31
 soft_charge                             0.998022          26
 eccp                                    0.964978       11520
 dfftw_execute                           0.960837        1104
 acc_init_cusolver                       0.809625           1
 orth1                                   0.795922       69928
 kinhamil                                0.768325       46576
 strnlr                                  0.721188           1
 rpromu_acc                              0.710202       18776
 overl                                   0.685969       81664
 racc0mu_acc                             0.684595       23288
 w1_copy                                 0.677392      139728
 rpro_isp                                0.642642         208
 fftext_mpi                              0.552999       46576
 w1_projall                              0.530103       17528
 m_bcast_z                               0.499099       24824
 setup_precond                           0.418012       11520
 fordep                                  0.386524           1
 map_forward                             0.384637        1056
 m_bcast_d                               0.379658       46637
 overl_mu                                0.363137       23288
 m_alltoallv_z                           0.342601        1223
 ggemm                                   0.310750       29048
 potlok                                  0.306580          28
 orthch                                  0.252786           1
 fornlr                                  0.240657           1
 vhamil                                  0.215937       46576
 map_backward                            0.213411        1134
 apply_precond                           0.195925       35056
 pw_charge                               0.179625        7450
 depsum                                  0.165044          26
 acc_cufft_makeplans                     0.134685           3
 acc_cufft_makeplan                      0.134672          19
 map_gather                              0.124933        1223
 map_scatter                             0.120061        1223
 rspher_all                              0.100625          14
 proall                                  0.083873           1
 brmix                                   0.042692          26
 lincom                                  0.032520         992
 sphpro_fast                             0.028720           2
 broyd                                   0.021097          26
 fft_gq                                  0.020633          26
 setg0                                   0.009072          28
 choleski                                0.007570          32
 inisym                                  0.004855           1
 brget                                   0.004546        1853
 truncate_high_frequency_w1              0.004407       58096
 pothar                                  0.002655          29
 stufak                                  0.001467           1
 brsav                                   0.001163         460
 fewald                                  0.001112           1
 forhar                                  0.000936           2
 strelo                                  0.000827           1
 strehar                                 0.000730           1
 chggra                                  0.000719           1
 forloc                                  0.000520           1
 brpre                                   0.000442          52
 strkin                                  0.000210           1
 set_dd_magatom                          0.000123          28
 vectorpot                               0.000120          27
 brgrid                                  0.000089           1
 posmap                                  0.000058           2
 rsp                                     0.000054           1
 crpa_reader                             0.000027           1
 rcp                                     0.000013           1
 potlok_metagga                          0.000003          27
 rotate_active_occupied_orbital          0.000001           1
 redis_pw_over_bands                     0.000000           1

Profiling took   0.296232  0.148315  0.003167  0.003080 seconds
Profiling took   0.184970 seconds