 vasp.6.3.2 27Jun22 (build Jul  3 2023 11:46:21) complex
 executed on    LinuxNV_CrayMPICH date 2024.04.21  23:31:35

 INCAR:
   ADDGRID = True
   ALGO = Normal
   EDIFF = 0.0011
   ENCUT = 520.0
   IBRION = -1
   ICHARG = 0
   ISIF = 3
   ISMEAR = -5
   ISPIN = 2
   KPOINT_BSE = -1 0 0 0
   LAECHG = True
   LASPH = True
   LCHARG = True
   LELF = True
   LORBIT = 11
   LREAL = Auto
   LVHAR = True
   LWAVE = False
   MAGMOM = 4*7.0 18*0.6
   NELM = 1000
   NSW = 0
   PREC = accurate
   SIGMA = 0.05

 POTCAR:    PAW_PBE Gd 23Dec2003
 POTCAR:    PAW_PBE Sn_d 06Sep2000
 POTCAR:    PAW_PBE O 08Apr2002
 POTCAR:    PAW_PBE Gd 23Dec2003
   VRHFIN =Gd : [core=Xe4]

   TITEL  = PAW_PBE Gd 23Dec2003
   POMASS =  157.250; ZVAL   =   18.000    mass and valenz
   ENMAX  =  256.472; ENMIN  =  192.354 eV

   TITEL  = PAW_PBE Sn_d 06Sep2000
   POMASS =  118.710; ZVAL   =   14.000    mass and valenz
   ENMAX  =  241.083; ENMIN  =  180.812 eV

   TITEL  = PAW_PBE O 08Apr2002
   POMASS =   16.000; ZVAL   =    6.000    mass and valenz
   ENMAX  =  400.000; ENMIN  =  300.000 eV

 Optimization of the real space projectors (new method)

 maximal supplied QI-value         = 13.42
 optimisation between [QCUT,QGAM] = [ 11.67, 23.35] = [ 38.16,152.62] Ry
 Optimized for a Real-space Cutoff    1.63 Angstroem

   l    n(q)    QCUT    max X(q) W(low)/X(q) W(high)/X(q)  e(spline)
   0     11    11.673    10.501    0.14E-04    0.17E-05    0.21E-07
   0     11    11.673     9.148    0.21E-04    0.32E-05    0.45E-07
   1     11    11.673     4.035    0.33E-05    0.11E-04    0.84E-07
   1     11    11.673     4.388    0.11E-04    0.47E-04    0.34E-06
   2     10    11.673    20.656    0.12E-04    0.28E-04    0.54E-06
   2     10    11.673    12.651    0.11E-04    0.26E-04    0.51E-06
   3     10    11.673    61.921    0.19E-03    0.22E-03    0.23E-06
   3     10    11.673    48.328    0.20E-03    0.23E-03    0.23E-06
 Optimization of the real space projectors (new method)

[...]

   l    n(q)    QCUT    max X(q) W(low)/X(q) W(high)/X(q)  e(spline)
   2      9    11.641     5.880    0.49E-04    0.15E-04    0.99E-07
   2      9    11.641     7.804    0.17E-03    0.18E-03    0.15E-06
   0      9    11.641    20.557    0.10E-03    0.34E-04    0.76E-07
   0      9    11.641     9.400    0.13E-03    0.43E-04    0.95E-07
   1      9    11.641    94.178    0.25E-03    0.19E-03    0.20E-06
   1      9    11.641    56.401    0.24E-03    0.18E-03    0.20E-06
 Optimization of the real space projectors (new method)

 maximal supplied QI-value         = 24.76
 optimisation between [QCUT,QGAM] = [ 11.64, 23.27] = [ 37.91,151.63] Ry
 Optimized for a Real-space Cutoff    1.14 Angstroem

   l    n(q)    QCUT    max X(q) W(low)/X(q) W(high)/X(q)  e(spline)
   0      8    11.635    20.381    0.10E-03    0.33E-03    0.24E-06
   0      8    11.635    15.268    0.11E-03    0.35E-03    0.26E-06
   1      7    11.635     5.964    0.24E-03    0.31E-03    0.30E-06
   1      7    11.635     5.382    0.22E-03    0.25E-03    0.26E-06
  PAW_PBE Gd 23Dec2003                  :
  PAW_PBE Sn_d 06Sep2000                :
  PAW_PBE O 08Apr2002                   :

 POSCAR: Gd4 Sn4 O14
  positions in direct lattice
 exchange correlation table for  LEXCH =        8
   RHO(1)=    0.500       N(1)  =     2000
   RHO(2)=  100.500       N(2)  =     4000

 VTST: version 4.2, (08/11/21)

 CHAIN: initializing optimizer

 OPT: Using VASP Dynamics algorithm
 CHAIN: Read ICHAIN             0

 POSCAR: Gd4 Sn4 O14
  positions in direct lattice

 ion  position               nearest neighbor table
   1  0.125  0.125  0.125-   9 2.29  10 2.29  11 2.55  14 2.55  16 2.55  19 2.55  20 2.55  21 2.55

   2  0.625  0.125  0.125-   9 2.29  10 2.29  12 2.55  13 2.55  14 2.55  17 2.55  19 2.55  22 2.55

[...]

   4  0.125  0.625  0.125-   9 2.29  10 2.29  12 2.55  15 2.55  16 2.55  17 2.55  18 2.55  21 2.55

   5  0.625  0.625  0.625-  12 2.09  13 2.09  15 2.09  17 2.09  18 2.09  22 2.09   6 3.74   7 3.74
                             8 3.74   7 3.74   8 3.74   6 3.74
   6  0.125  0.625  0.625-  11 2.09  15 2.09  16 2.09  18 2.09  20 2.09  21 2.09   5 3.74   7 3.74
                             8 3.74   5 3.74   7 3.74   8 3.74
   7  0.625  0.625  0.125-  12 2.09  14 2.09  16 2.09  17 2.09  19 2.09  21 2.09   5 3.74   5 3.74
                             6 3.74   8 3.74   8 3.74   6 3.74
   8  0.625  0.125  0.625-  11 2.09  13 2.09  14 2.09  19 2.09  20 2.09  22 2.09   5 3.74   7 3.74
                             5 3.74   6 3.74   7 3.74   6 3.74
   9  0.000  0.000  0.000-   1 2.29   2 2.29   3 2.29   4 2.29
  10  0.250  0.250  0.250-   1 2.29   2 2.29   3 2.29   4 2.29
  11  0.288  0.288  0.712-   6 2.09   8 2.09   1 2.55   3 2.55
  12  0.538  0.538  0.962-   5 2.09   7 2.09   2 2.55   4 2.55
  13  0.712  0.288  0.712-   5 2.09   8 2.09   2 2.55   3 2.55
  14  0.712  0.288  0.288-   7 2.09   8 2.09   1 2.55   2 2.55
  15  0.288  0.712  0.712-   5 2.09   6 2.09   3 2.55   4 2.55
  16  0.288  0.712  0.288-   6 2.09   7 2.09   1 2.55   4 2.55
  17  0.712  0.712  0.288-   5 2.09   7 2.09   2 2.55   4 2.55
  18  0.962  0.538  0.538-   5 2.09   6 2.09   3 2.55   4 2.55
  19  0.538  0.962  0.962-   7 2.09   8 2.09   1 2.55   2 2.55
  20  0.962  0.962  0.538-   6 2.09   8 2.09   1 2.55   3 2.55
  21  0.962  0.538  0.962-   6 2.09   7 2.09   1 2.55   4 2.55
  22  0.538  0.962  0.538-   5 2.09   8 2.09   2 2.55   3 2.55

  LATTYP: Found a face centered cubic cell.
 ALAT       =    10.5875460000

  Lattice vectors:

 A1 = (   0.0000000000,   5.2937730000,   5.2937730000)
 A2 = (   5.2937730000,   0.0000000000,   5.2937730000)
 A3 = (   5.2937730000,   5.2937730000,   0.0000000000)

Analysis of symmetry for initial positions (statically):
 Subroutine PRICEL returns:
 Original cell was already a primitive cell.

 Routine SETGRP: Setting up the symmetry group for a
 face centered cubic supercell.

 Subroutine GETGRP returns: Found 48 space group operations
 (whereof 24 operations were pure point group operations)
 out of a pool of 48 trial point group operations.

The static configuration has the point symmetry T_d .
 The point group associated with its full space group is O_h .

Analysis of symmetry for dynamics (positions and initial velocities):
 Subroutine PRICEL returns:
 Original cell was already a primitive cell.

[...]

The dynamic configuration has the point symmetry T_d .
 The point group associated with its full space group is O_h .

Analysis of structural, dynamic, and magnetic symmetry:
 Subroutine PRICEL returns:
 Original cell was already a primitive cell.

 Routine SETGRP: Setting up the symmetry group for a
 face centered cubic supercell.

 Subroutine GETGRP returns: Found 48 space group operations
 (whereof 24 operations were pure point group operations)
 out of a pool of 48 trial point group operations.

The overall configuration has the point symmetry T_d .
 The point group associated with its full space group is O_h .

 Subroutine INISYM returns: Found 48 space group operations
 (whereof 24 operations are pure point group operations),
 and found     1 'primitive' translations

                                     Primitive cell

  volume of cell :     296.7057

  direct lattice vectors                    reciprocal lattice vectors
     0.000000000  5.293773000  5.293773000    -0.094450593  0.094450593  0.094450593
     5.293773000  0.000000000  5.293773000     0.094450593 -0.094450593  0.094450593
     5.293773000  5.293773000  0.000000000     0.094450593  0.094450593 -0.094450593

  length of vectors
     7.486525573  7.486525573  7.486525573     0.163593226  0.163593226  0.163593226

  position of ions in fractional coordinates (direct lattice)
     0.125000000  0.125000000  0.125000000
     0.625000000  0.125000000  0.125000000
     0.125000000  0.125000000  0.625000000
     0.125000000  0.625000000  0.125000000
     0.625000000  0.625000000  0.625000000
     0.125000000  0.625000000  0.625000000
     0.625000000  0.625000000  0.125000000
     0.625000000  0.125000000  0.625000000
     0.000000000  0.000000000  0.000000000
     0.250000000  0.250000000  0.250000000
     0.287991000  0.287991000  0.712009000
     0.537991000  0.537991000  0.962009000
     0.712009000  0.287991000  0.712009000
     0.712009000  0.287991000  0.287991000
     0.287991000  0.712009000  0.712009000
     0.287991000  0.712009000  0.287991000
     0.712009000  0.712009000  0.287991000
     0.962009000  0.537991000  0.537991000
     0.537991000  0.962009000  0.962009000
     0.962009000  0.962009000  0.537991000
     0.962009000  0.537991000  0.962009000
     0.537991000  0.962009000  0.537991000

  ion indices of the primitive-cell ions
   primitive index   ion index
                 1           1
                 2           2
                 3           3
                 4           4
                 5           5
                 6           6
                 7           7
                 8           8
                 9           9
                10          10
                11          11
                12          12
                13          13
                14          14
                15          15
                16          16
                17          17
                18          18
                19          19
                20          20
                21          21
                22          22

 KPOINTS: Kpoints from vasprun.xml

Automatic generation of k-mesh.
 Grid dimensions read from file:
 generate k-points for:    4    4    4

 Generating k-lattice:

  Cartesian coordinates                     Fractional coordinates (reciprocal lattice)
    -0.023612648  0.023612648  0.023612648     0.250000000  0.000000000  0.000000000
     0.023612648 -0.023612648  0.023612648     0.000000000  0.250000000 -0.000000000
     0.023612648  0.023612648 -0.023612648    -0.000000000 -0.000000000  0.250000000

  Length of vectors
     0.040898307  0.040898307  0.040898307

  Shift w.r.t. Gamma in fractional coordinates (k-lattice)
     0.000000000  0.000000000  0.000000000

 TETIRR: Found      9 inequivalent tetrahedra from      384

 Subroutine IBZKPT returns following result:

 Found      8 irreducible k-points:

 Following reciprocal coordinates:
            Coordinates               Weight
  0.000000  0.000000  0.000000      1.000000
  0.250000  0.000000  0.000000      8.000000
  0.500000  0.000000  0.000000      4.000000
  0.250000  0.250000  0.000000      6.000000
  0.500000  0.250000  0.000000     24.000000
 -0.250000  0.250000  0.000000     12.000000
  0.500000  0.500000  0.000000      3.000000
 -0.250000  0.500000  0.250000      6.000000

 Following cartesian coordinates:
            Coordinates               Weight
  0.000000  0.000000  0.000000      1.000000
 -0.023613  0.023613  0.023613      8.000000
 -0.047225  0.047225  0.047225      4.000000
  0.000000  0.000000  0.047225      6.000000
 -0.023613  0.023613  0.070838     24.000000
  0.047225 -0.047225  0.000000     12.000000
  0.000000  0.000000  0.094451      3.000000
  0.094451 -0.047225  0.000000      6.000000

 SYSTEM =  unknown system
 POSCAR =  Gd4 Sn4 O14

 Startparameter for this run:
[...]
  318                map_forward                           0.000229                    4   7
  319                  map_gather                            0.000047                  2   8
  320                  m_alltoallv_z                         0.000025                  2   8
  321                  map_scatter                           0.000127                  2   8
  322                map_backward                          0.000096                    2   7
  323                  map_gather                            0.000023                  1   8
  324                  m_alltoallv_z                         0.000011                  1   8
  325                  map_scatter                           0.000046                  1   8
  326          m_sumb_d                              0.000009                          2   4
  327          pothar                                0.000084                          1   4
  328            m_sumb_d                              0.000010                        1   5
  329        brmix                                 0.011081                            1   3
  330          m_sumb_d                              0.000143                          6   4
  331          brpre                                 0.000032                          2   4
  332          setg0                                 0.001288                          1   4
  333          broyd                                 0.008223                          1   4
  334            m_sumb_d                              0.000305                       50   5
  335            brget                                 0.001544                      224   5
  336            brsav                                 0.000346                       48   5
  337        m_bcast_d                             0.000023                            2   3
  338      potlok                                0.041939                              2   2
  339        fft3d_mpi                             0.027104                           36   3
  340          fftbrc_mpi                            0.023338                         36   4
  341            fftbas_plan_mpi                       0.023318                       36   5
  342              map_forward                           0.006642                     40   6
  343                map_gather                            0.001994                   24   7
  344                m_alltoallv_z                         0.002563                   24   7
  345                map_scatter                           0.001887                   24   7
  346              map_backward                          0.005751                     32   6
  347                map_gather                            0.001886                   16   7
  348                m_alltoallv_z                         0.002071                   16   7
  349                map_scatter                           0.001601                   16   7
  350              dfftw_execute                         0.009153                     30   6
  351        m_sumb_d                              0.000031                            5   3
  352        pothar                                0.001718                            2   3
  353          m_sumb_d                              0.000127                          2   4
  354        m_bcast_d                             0.002940                            4   3
  355      potlok_metagga                        0.000000                              1   2
  356      set_dd_magatom                        0.000005                              1   2
  357      set_dd_paw                            2.266035                              1   2
  358        m_sumb_d                              0.218516                            7   3
  359      augmentation_charge                   0.169268                              1   2
  360        fft3d_mpi                             0.055269                            2   3
  361          fftbrc_mpi                            0.049510                          2   4
  362            fftbas_plan_mpi                       0.049506                        2   5
  363              dfftw_execute                         0.028741                      6   6
  364              map_backward                          0.020548                      4   6
  365                map_gather                            0.006144                    2   7
  366                m_alltoallv_z                         0.008105                    2   7
  367                map_scatter                           0.006290                    2   7
  368      fftwav_mpi                            2.137440                           1776   2
  369        fftwav                                2.135226                         1776   3
  370          fft3d                                 1.978960                       1776   4
  371      densta                                0.358974                              1   2

 Flat profile

 set_dd_paw                            115.552963          56
 raccmu_                                39.936331       71476
 m_sumb_d                               38.747764      220354
 eddav                                  37.048590          58
 lapack                                 34.163114       71476
 redis_pw                               16.281577      382887
 total_time                             13.314453           1
 init_acc                               10.754617           1
 setdij_                                 8.576812          82
 m_alltoall_d                            7.104711     1006411
 augmentation_charge                     6.421222          56
 fft3d                                   5.537922      414090
 dfftw_execute                           5.243449        1788
 phaser                                  4.292365        1032
 eccp                                    3.485427       34336
 redis_proj                              3.190205      487012
 orth1                                   2.858991      214508
 fftwav                                  2.777931      275645
 acc_init_cublas                         2.443907           1
 racc0mu_acc                             2.058243       71476
 w1_copy                                 2.016712      415335
 rpromu_acc                              2.006550       55924
 overl                                   1.994598      242570
 hamiltmu                                1.984226       71476
 m_bcast_z                               1.686973       73844
 m_alltoallv_z                           1.422600        2293
 soft_charge                             1.389399          55
 ggemm                                   1.267442       89108
 setup_precond                           1.244678       34336
 m_bcast_d                               1.210350      143069
 overl_mu                                1.098031       71476
 map_scatter                             1.074834        2293
 fft3d_mpi                               0.953846      140496
 densta                                  0.847837          59
 acc_init_cusolver                       0.787101           1
 map_gather                              0.783164        2293
 set_charge                              0.751614          55
 pw_charge                               0.730153       23619
 vhamil                                  0.636894      138445
 kinhamil                                0.631318      138445
 fftext_mpi                              0.590278      138445
 newband                                 0.574080       72404
 apply_precond                           0.570520      104109
 depsum                                  0.530972          55
 rpro_isp                                0.386766         104
 fftwav_mpi                              0.362040      275645
 potlok                                  0.278909          56
 rspher_all                              0.271967          14
 broyd                                   0.154711          54
 brmix                                   0.130782          54
 elmin                                   0.129290           1
 acc_cufft_makeplan                      0.126701          19
 fftbas_plan_mpi                         0.124301        2051
 sphpro_fast                             0.109941           2
 setg0                                   0.067598          56
 proall                                  0.059419           1
 w1_projall                              0.054591       53844
 brget                                   0.052559        7544
 lincom                                  0.033750         944
 orthch                                  0.015925           1
 force_and_stress                        0.014826           1
 truncate_high_frequency_w1              0.013629      172781
 stufak                                  0.013134           1
 brsav                                   0.012691        1880
 map_backward                            0.012219        2150
 map_forward                             0.011474        1952
 choleski                                0.009222          16
 pothar                                  0.006085          57
 fft_gq                                  0.006047          55
 inisym                                  0.005527           1
 strnlr                                  0.003192           1
 forhar                                  0.002769           2
 strelo                                  0.002343           1
 brpre                                   0.001918         108
 strehar                                 0.001772           1
 forloc                                  0.001437           1
 fftbrc_mpi                              0.001231        2051
 fornlr                                  0.001129           1
 strkin                                  0.000885           1
 rsp                                     0.000734           1
 fewald                                  0.000342           1
 set_dd_magatom                          0.000258          56
 chggra                                  0.000247           1
 vectorpot                               0.000236          55
 brgrid                                  0.000236           1
 posmap                                  0.000225           2
 fordep                                  0.000105           1
 rcp                                     0.000037           1
 crpa_reader                             0.000029           1
 acc_cufft_makeplans                     0.000012           3
 potlok_metagga                          0.000003          55
 rotate_active_occupied_orbital          0.000000           1
 redis_pw_over_bands                     0.000000           1
  summed up times     389.0580110549927

 Accumulative profile

 total_time                            389.058011           1
 elmin                                 345.583375           1
 eddav                                 197.606605          58
 set_dd_paw                            127.942403          56
 hamiltmu                               47.953413       71476
 raccmu_                                43.092605       71476
 m_sumb_d                               38.747764      220354
 lapack                                 34.163114       71476
 redis_pw                               19.786224      382887
 set_charge                             14.562227          55
 setdij_                                14.236290          82
 init_acc                               10.754617           1
 fft3d_mpi                              10.604331      140496
 augmentation_charge                     9.616569          56
 force_and_stress                        8.814622           1
 fftbrc_mpi                              8.673272        2051
 fftbas_plan_mpi                         8.672041        2051
 newband                                 7.986234       72404
 fftwav_mpi                              7.700681      275645
 fftwav                                  7.338640      275645
 m_alltoall_d                            7.104711     1006411
 redis_proj                              6.790269      487012
 fft3d                                   5.537922      414090
 dfftw_execute                           5.243449        1788
 phaser                                  4.292365        1032
 soft_charge                             3.709659          55
 eccp                                    3.485427       34336
 orth1                                   2.858991      214508
 acc_init_cublas                         2.443907           1
 kinhamil                                2.239687      138445
 racc0mu_acc                             2.058243       71476
 w1_copy                                 2.016712      415335
 rpromu_acc                              2.006550       55924
 overl                                   1.994598      242570
 m_bcast_z                               1.686973       73844
 map_forward                             1.656793        1952
 map_backward                            1.647497        2150
 fftext_mpi                              1.608369      138445
 w1_projall                              1.598387       53844
 m_alltoallv_z                           1.422600        2293
 strnlr                                  1.281232           1
 ggemm                                   1.267442       89108
 setup_precond                           1.244678       34336
 m_bcast_d                               1.210350      143069
 overl_mu                                1.098031       71476
 rpro_isp                                1.083397         104
 map_scatter                             1.074834        2293
 fordep                                  1.053843           1
 densta                                  0.847837          59
 acc_init_cusolver                       0.787101           1
 map_gather                              0.783164        2293
 pw_charge                               0.730153       23619
 potlok                                  0.694374          56
 vhamil                                  0.636894      138445
 apply_precond                           0.570520      104109
 depsum                                  0.544305          55
 brmix                                   0.435010          54
 fornlr                                  0.433841           1
 rspher_all                              0.271967          14
 orthch                                  0.262451           1
 broyd                                   0.230660          54
 fft_gq                                  0.153871          55
 acc_cufft_makeplans                     0.126713           3
 acc_cufft_makeplan                      0.126701          19
 proall                                  0.125019           1
 sphpro_fast                             0.114386           2
 setg0                                   0.067598          56
 brget                                   0.052559        7544
 lincom                                  0.033750         944
 truncate_high_frequency_w1              0.013629      172781
 stufak                                  0.013134           1
 brsav                                   0.012691        1880
 choleski                                0.009222          16
 pothar                                  0.006670          57
 inisym                                  0.005752           1
 forhar                                  0.002818           2
 forloc                                  0.002483           1
 strelo                                  0.002463           1
 brpre                                   0.001918         108
 strehar                                 0.001776           1
 fewald                                  0.001288           1
 strkin                                  0.000890           1
 chggra                                  0.000854           1
 rsp                                     0.000734           1
 set_dd_magatom                          0.000258          56
 vectorpot                               0.000236          55
 brgrid                                  0.000236           1
 posmap                                  0.000225           2
 rcp                                     0.000037           1
 crpa_reader                             0.000029           1
 potlok_metagga                          0.000003          55
 rotate_active_occupied_orbital          0.000000           1
 redis_pw_over_bands                     0.000000           1

Profiling took   0.891134  0.431700  0.003246  0.003135 seconds
Profiling took   0.558919 seconds