 vasp.6.3.2 27Jun22 (build Jul  3 2023 11:46:21) complex
 executed on    LinuxNV_CrayMPICH date 2024.04.22  03:39:11

 INCAR:
   ADDGRID = True
   ALGO = Normal
   EDIFF = 0.00095
   ENCUT = 520.0
   IBRION = -1
   ICHARG = 0
   ISIF = 3
   ISMEAR = -5
   ISPIN = 2
   ISYM = 0
   LAECHG = True
   LASPH = True
   LCHARG = True
   LORBIT = 11
   LREAL = Auto
   LVHAR = True
   LWAVE = False
   MAGMOM = 1*0.0 1*7.0 1*0.183 1*-0.036 1*-0.278 1*-0.198 1*0.184 1*-0.14 1*0.189 1*-0.056 1*0.104 1*0.05 1*0.021 1*0.079 1*0.126 1*0.106 1*0.152 1*0.413 1*0.365
   NELM = 1000
   NSW = 0
   PREC = Accurate
   SIGMA = 0.05

 POTCAR:    PAW_PBE Sm_3 07Sep2000
 POTCAR:    PAW_PBE Gd 23Dec2003
 POTCAR:    PAW_PBE Co 02Aug2007
 POTCAR:    PAW_PBE Sm_3 07Sep2000
   VRHFIN =Sm : [core=Xe4]

   TITEL  = PAW_PBE Sm_3 07Sep2000
   POMASS =  150.360; ZVAL   =   11.000    mass and valenz
   ENMAX  =  177.087; ENMIN  =  132.815 eV

   TITEL  = PAW_PBE Gd 23Dec2003
   POMASS =  157.250; ZVAL   =   18.000    mass and valenz
   ENMAX  =  256.472; ENMIN  =  192.354 eV

   TITEL  = PAW_PBE Co 02Aug2007
   POMASS =   58.933; ZVAL   =    9.000    mass and valenz
   ENMAX  =  267.968; ENMIN  =  200.976 eV

 Optimization of the real space projectors (new method)

 maximal supplied QI-value         = 13.23
 optimisation between [QCUT,QGAM] = [ 11.64, 23.28] = [ 37.95,151.78] Ry
 Optimized for a Real-space Cutoff    1.73 Angstroem

   l    n(q)    QCUT    max X(q) W(low)/X(q) W(high)/X(q)  e(spline)
   0     12    11.641     6.970    0.78E-05    0.65E-05    0.89E-07
   0     12    11.641    24.042    0.34E-04    0.17E-04    0.22E-06
   1     12    11.641     4.424    0.60E-05    0.14E-05    0.11E-06
   1     12    11.641     4.788    0.21E-04    0.27E-04    0.77E-06
   2     11    11.641    33.680    0.13E-03    0.27E-03    0.15E-05
   2     11    11.641    27.971    0.12E-03    0.25E-03    0.14E-05
 Optimization of the real space projectors (new method)

[...]

   l    n(q)    QCUT    max X(q) W(low)/X(q) W(high)/X(q)  e(spline)
   0     11    11.673    10.501    0.14E-04    0.17E-05    0.21E-07
   0     11    11.673     9.148    0.21E-04    0.32E-05    0.45E-07
   1     11    11.673     4.035    0.33E-05    0.11E-04    0.84E-07
   1     11    11.673     4.388    0.11E-04    0.47E-04    0.34E-06
   2     10    11.673    20.656    0.12E-04    0.28E-04    0.54E-06
   2     10    11.673    12.651    0.11E-04    0.26E-04    0.51E-06
   3     10    11.673    61.921    0.19E-03    0.22E-03    0.23E-06
   3     10    11.673    48.328    0.20E-03    0.23E-03    0.23E-06
 Optimization of the real space projectors (new method)

 maximal supplied QI-value         = 16.25
 optimisation between [QCUT,QGAM] = [ 11.54, 23.24] = [ 37.28,151.24] Ry
 Optimized for a Real-space Cutoff    1.45 Angstroem

   l    n(q)    QCUT    max X(q) W(low)/X(q) W(high)/X(q)  e(spline)
   2      9    11.539    65.824    0.19E-03    0.47E-04    0.16E-06
   2      9    11.539    61.429    0.20E-03    0.48E-04    0.16E-06
   0     10    11.539    56.174    0.76E-04    0.45E-04    0.23E-06
   0     10    11.539    31.263    0.69E-04    0.41E-04    0.21E-06
   1     10    11.539    19.828    0.78E-04    0.14E-03    0.70E-07
   1     10    11.539    15.139    0.65E-04    0.12E-03    0.64E-07
  PAW_PBE Sm_3 07Sep2000                :
  PAW_PBE Gd 23Dec2003                  :
  PAW_PBE Co 02Aug2007                  :

 POSCAR: Sm1 Gd1 Co17
  positions in direct lattice
 exchange correlation table for  LEXCH =        8
   RHO(1)=    0.500       N(1)  =     2000
   RHO(2)=  100.500       N(2)  =     4000

 VTST: version 4.2, (08/11/21)

 CHAIN: initializing optimizer

 OPT: Using VASP Dynamics algorithm
 CHAIN: Read ICHAIN             0

 POSCAR: Sm1 Gd1 Co17
  positions in direct lattice

 ion  position               nearest neighbor table
   1  0.345  0.345  0.345-  13 2.99  14 2.99  12 2.99   7 3.01   4 3.01   8 3.01   3 3.01   6 3.01
                             5 3.01  19 3.01  10 3.11  11 3.11   9 3.11  11 3.19  10 3.19   9 3.19
   2  0.656  0.656  0.656-  10 2.99  11 2.99   9 2.99   6 3.00   5 3.00   8 3.00   3 3.00   4 3.00
                             7 3.00  18 3.01  14 3.11  13 3.11  12 3.11  14 3.19  13 3.19  12 3.19
   3  0.713  1.000  0.287-  17 2.37  16 2.38   6 2.40   7 2.40  14 2.50  10 2.51   9 2.57  12 2.58
                            19 2.67  18 2.67   2 3.00   1 3.01
   4  1.000  0.287  0.713-  15 2.37  17 2.38   7 2.40   8 2.40  12 2.50  11 2.51  10 2.57  13 2.58
                            19 2.67  18 2.67   2 3.00   1 3.01
   5  0.287  0.713  1.000-  16 2.37  15 2.38   8 2.40   6 2.40  13 2.50   9 2.51  11 2.57  14 2.58
                            19 2.67  18 2.67   2 3.00   1 3.01
   6  1.000  0.713  0.287-  17 2.37  15 2.38   3 2.40   5 2.40  14 2.50   9 2.51  10 2.57  13 2.58
                            19 2.67  18 2.67   2 3.00   1 3.01
   7  0.713  0.287  1.000-  15 2.37  16 2.38   4 2.40   3 2.40  12 2.50  10 2.51  11 2.57  14 2.58
                            19 2.67  18 2.67   2 3.00   1 3.01
   8  0.287  1.000  0.713-  16 2.37  17 2.38   5 2.40   4 2.40  13 2.50  11 2.51   9 2.57  12 2.58
                            19 2.67  18 2.67   2 3.00   1 3.01
   9  0.345  0.850  0.345-  16 2.41  17 2.41  13 2.46  14 2.46   5 2.51   6 2.51   3 2.57   8 2.57
                            19 2.60   2 2.99   1 3.11   1 3.19
  10  0.850  0.345  0.345-  15 2.41  17 2.41  12 2.46  14 2.46   7 2.51   3 2.51   4 2.57   6 2.57
                            19 2.60   2 2.99   1 3.11   1 3.19
  11  0.345  0.345  0.850-  15 2.41  16 2.41  12 2.46  13 2.46   4 2.51   8 2.51   7 2.57   5 2.57
                            19 2.60   2 2.99   1 3.11   1 3.19
  12  0.656  0.150  0.656-  16 2.40  17 2.40  10 2.46  11 2.46   7 2.50   4 2.50   3 2.58   8 2.58
                            18 2.59   1 2.99   2 3.11   2 3.19
  13  0.150  0.656  0.656-  15 2.40  17 2.40   9 2.46  11 2.46   5 2.50   8 2.50   6 2.58   4 2.58
                            18 2.59   1 2.99   2 3.11   2 3.19
  14  0.656  0.656  0.150-  15 2.40  16 2.40   9 2.46  10 2.46   6 2.50   3 2.50   5 2.58   7 2.58
                            18 2.59   1 2.99   2 3.11   2 3.19
  15  1.000  0.500  1.000-   4 2.37   7 2.37   6 2.38   5 2.38  13 2.40  14 2.40  10 2.41  11 2.41
                            18 2.56  19 2.57   2 3.23   1 3.24
  16  0.500  1.000  1.000-   5 2.37   8 2.37   7 2.38   3 2.38  12 2.40  14 2.40   9 2.41  11 2.41
                            18 2.56  19 2.57   2 3.23   1 3.24
  17  1.000  1.000  0.500-   6 2.37   3 2.37   4 2.38   8 2.38  12 2.40  13 2.40   9 2.41  10 2.41
                            18 2.56  19 2.57   2 3.23   1 3.24
  18  0.904  0.904  0.904-  19 2.33  17 2.56  16 2.56  15 2.56  13 2.59  14 2.59  12 2.59   8 2.67
                             3 2.67   6 2.67   5 2.67   4 2.67   7 2.67   2 3.01
  19  0.096  0.096  0.096-  18 2.33  17 2.57  16 2.57  15 2.57  10 2.60  11 2.60   9 2.60   8 2.67
                             3 2.67   5 2.67   6 2.67   4 2.67   7 2.67   1 3.01

IMPORTANT INFORMATION: All symmetrisations will be switched off!
NOSYMM: (Re-)initialisation of all symmetry stuff for point group C_1.

                                     Primitive cell

  volume of cell :     245.0578

  direct lattice vectors                    reciprocal lattice vectors
    -4.183656000  2.415435000  4.041718000    -0.119512694  0.069000684  0.082473179
     0.000000000 -4.830870000  4.041718000    -0.000000000 -0.138001368  0.082473179
     4.183656000  2.415435000  4.041718000     0.119512694  0.069000684  0.082473179

  length of vectors
     6.298633833  6.298633927  6.298633833     0.160767546  0.160767543  0.160767546

  position of ions in fractional coordinates (direct lattice)
     0.344648000  0.344648000  0.344648000
     0.655627000  0.655627000  0.655627000
     0.713010000  0.999683000  0.287055000
     0.999683000  0.287055000  0.713010000
     0.287055000  0.713010000  0.999683000
     0.999683000  0.713010000  0.287055000
     0.713010000  0.287055000  0.999683000
     0.287055000  0.999683000  0.713010000
     0.344923000  0.850266000  0.344923000
     0.850266000  0.344923000  0.344923000
     0.344923000  0.344923000  0.850266000
     0.655617000  0.149798000  0.655617000
     0.149798000  0.655617000  0.655617000
     0.655617000  0.655617000  0.149798000
     0.999528000  0.500372000  0.999528000
     0.500372000  0.999528000  0.999528000
     0.999528000  0.999528000  0.500372000
     0.903572000  0.903572000  0.903572000
     0.096086000  0.096086000  0.096086000

  ion indices of the primitive-cell ions
   primitive index   ion index
                 1           1
                 2           2
                 3           3
                 4           4
                 5           5
                 6           6
                 7           7
                 8           8
                 9           9
                10          10
                11          11
                12          12
                13          13
                14          14
                15          15
                16          16
                17          17
                18          18
                19          19

 KPOINTS: Kpoints from vasprun.xml

Automatic generation of k-mesh.
 Grid dimensions read from file:
 generate k-points for:    4    4    4

 Generating k-lattice:

  Cartesian coordinates                     Fractional coordinates (reciprocal lattice)
    -0.029878174  0.017250171  0.020618295     0.250000000  0.000000000  0.000000000
    -0.000000000 -0.034500342  0.020618295     0.000000000  0.250000000  0.000000000
     0.029878174  0.017250171  0.020618295     0.000000000  0.000000000  0.250000000

  Length of vectors
     0.040191886  0.040191886  0.040191886

  Shift w.r.t. Gamma in fractional coordinates (k-lattice)
     0.500000000  0.500000000  0.500000000

 TETIRR: Found    192 inequivalent tetrahedra from      384

 Subroutine IBZKPT returns following result:

 Found     32 irreducible k-points:

 Following reciprocal coordinates:
            Coordinates               Weight
  0.125000  0.125000  0.125000      2.000000
  0.375000  0.125000  0.125000      2.000000
  0.125000  0.375000  0.125000      2.000000
  0.125000  0.125000  0.375000      2.000000
 -0.375000  0.125000  0.125000      2.000000
  0.125000 -0.375000  0.125000      2.000000
  0.125000  0.125000 -0.375000      2.000000
 -0.125000  0.125000  0.125000      2.000000
  0.125000 -0.125000  0.125000      2.000000
  0.125000  0.125000 -0.125000      2.000000
  0.375000  0.375000  0.125000      2.000000
 -0.375000 -0.125000 -0.375000      2.000000
  0.125000  0.375000  0.375000      2.000000
 -0.375000  0.375000  0.125000      2.000000
  0.375000 -0.125000 -0.375000      2.000000
  0.125000 -0.375000  0.375000      2.000000
 -0.375000  0.375000 -0.125000      2.000000
  0.375000  0.125000 -0.375000      2.000000
 -0.125000 -0.375000  0.375000      2.000000
 -0.125000  0.375000  0.125000      2.000000
  0.125000 -0.125000 -0.375000      2.000000
  0.125000 -0.125000  0.375000      2.000000
 -0.375000  0.125000 -0.125000      2.000000
  0.375000  0.125000 -0.125000      2.000000
[...]
  307        strehar                               0.001253                            1   3
  308          m_sumb_d                              0.000003                          1   4
  309        chggra                                0.000771                            1   3
  310          fft3d_mpi                             0.000463                          3   4
  311            fftbrc_mpi                            0.000367                        3   5
  312              fftbas_plan_mpi                       0.000365                      3   6
  313                map_forward                           0.000193                    4   7
  314                  map_gather                            0.000041                  2   8
  315                  m_alltoallv_z                         0.000026                  2   8
  316                  map_scatter                           0.000097                  2   8
  317                map_backward                          0.000088                    2   7
  318                  map_gather                            0.000020                  1   8
  319                  m_alltoallv_z                         0.000012                  1   8
  320                  map_scatter                           0.000042                  1   8
  321          m_sumb_d                              0.000009                          2   4
  322          pothar                                0.000074                          1   4
  323            m_sumb_d                              0.000005                        1   5
  324        brmix                                 0.007498                            1   3
  325          m_sumb_d                              0.000083                          6   4
  326          brpre                                 0.000021                          2   4
  327          setg0                                 0.000793                          1   4
  328          broyd                                 0.005739                          1   4
  329            brget                                 0.001288                      326   5
  330            brsav                                 0.000594                      163   5
  331            m_sumb_d                              0.000893                       47   5
  332        m_bcast_d                             0.000022                            2   3
  333      potlok                                0.029020                              2   2
  334        fft3d_mpi                             0.018889                           36   3
  335          fftbrc_mpi                            0.015551                         36   4
  336            fftbas_plan_mpi                       0.015535                       36   5
  337              map_forward                           0.004677                     40   6
  338                map_gather                            0.001567                   24   7
  339                m_alltoallv_z                         0.001534                   24   7
  340                map_scatter                           0.001393                   24   7
  341              map_backward                          0.003652                     32   6
  342                map_gather                            0.001304                   16   7
  343                m_alltoallv_z                         0.000962                   16   7
  344                map_scatter                           0.001193                   16   7
  345              dfftw_execute                         0.005369                     30   6
  346        m_sumb_d                              0.000022                            5   3
  347        pothar                                0.001193                            2   3
  348          m_sumb_d                              0.000080                          2   4
  349        m_bcast_d                             0.001802                            4   3
  350      potlok_metagga                        0.000000                              1   2
  351      set_dd_magatom                        0.000004                              1   2
  352      set_dd_paw                            2.814417                              1   2
  353        m_sumb_d                              0.940446                            7   3
  354      augmentation_charge                   0.131056                              1   2
  355        fft3d_mpi                             0.032344                            2   3
  356          fftbrc_mpi                            0.028385                          2   4
  357            fftbas_plan_mpi                       0.028383                        2   5
  358              dfftw_execute                         0.018729                      6   6
  359              map_backward                          0.009393                      4   6
  360                map_gather                            0.002442                    2   7
  361                m_alltoallv_z                         0.004412                    2   7
  362                map_scatter                           0.002531                    2   7
  363      densta                                8.435427                              1   2

 Flat profile

 m_sumb_d                              808.813978     4071231
 eddav                                 656.322546         340
 set_dd_paw                            639.867649         338
 lapack                                622.474900     1340949
 raccmu_                               522.611629     1340949
 redis_pw                              285.995658     7140122
 m_alltoall_d                          128.251595    18671186
 phaser                                 84.417285       22176
 densta                                 64.480984         341
 redis_proj                             59.929253     9084984
 eccp                                   59.821450      631040
 fft3d                                  56.435989     7624839
 orth1                                  49.773699     4023103
 fftwav                                 46.577669     5049001
 racc0mu_acc                            38.622607     1340949
 overl                                  36.779477     4520700
 w1_copy                                36.639109     7727514
 setdij_                                34.175375         364
 augmentation_charge                    33.600786         338
 hamiltmu                               32.633887     1340949
 rpromu_acc                             30.037090     1021205
 m_bcast_z                              28.898854     1348373
 soft_charge                            27.138226         337
 m_bcast_d                              23.196084     2682579
 setup_precond                          22.571704      631040
 overl_mu                               20.251879     1340949
 ggemm                                  17.348289     1667349
 dfftw_execute                          15.942145        8496
 pw_charge                              13.850125      504237
 total_time                             12.489534           1
 init_acc                               12.488983           1
 kinhamil                               11.504000     2575838
 vhamil                                 11.444597     2575838
 fftext_mpi                             10.812201     2575838
 apply_precond                          10.429379     1944798
 depsum                                 10.110702         337
 newband                                 9.992264     1362709
 fftwav_mpi                              6.634553     5049001
 m_alltoallv_z                           4.250779       12969
 acc_init_cublas                         3.785280           1
 fft3d_mpi                               3.730903     2587457
 map_scatter                             2.542464       12969
 map_gather                              2.168983       12969
 rpro_isp                                1.202442         416
 potlok                                  1.167795         338
 broyd                                   1.138025         336
 w1_projall                              1.042705     1014549
 acc_init_cusolver                       1.021167           1
 lincom                                  0.792112       21824
 fftbas_plan_mpi                         0.632613       11619
 elmin                                   0.623188           1
 brmix                                   0.325724         336
 sphpro_fast                             0.323150           2
 brget                                   0.314074       75971
 setg0                                   0.269232         338
 truncate_high_frequency_w1              0.263433     3206878
 acc_cufft_makeplan                      0.259229          19
 rspher_all                              0.252136          14
 set_charge                              0.087777         337
 brsav                                   0.086403       21860
 proall                                  0.076944           1
 map_backward                            0.068692       12290
 map_forward                             0.061834       10948
 orthch                                  0.042550           1
 pothar                                  0.026052         339
 force_and_stress                        0.023042           1
 choleski                                0.019241          64
 fft_gq                                  0.011863         337
 strnlr                                  0.010620           1
 brpre                                   0.007878         672
 stufak                                  0.007064           1
 fftbrc_mpi                              0.006973       11619
 fornlr                                  0.003645           1
 strelo                                  0.002063           1
 forhar                                  0.001942           2
 strkin                                  0.001532           1
 set_dd_magatom                          0.001521         338
 vectorpot                               0.001399         337
 strehar                                 0.001250           1
 forloc                                  0.001015           1
 rsp                                     0.000560           1
 fewald                                  0.000348           1
 chggra                                  0.000225           1
 brgrid                                  0.000171           1
 fordep                                  0.000137           1
 potlok_metagga                          0.000043         337
 rcp                                     0.000031           1
 crpa_reader                             0.000027           1
 acc_cufft_makeplans                     0.000012           3
 rotate_active_occupied_orbital          0.000000           1
 redis_pw_over_bands                     0.000000           1
  summed up times     4620.024423122406

 Accumulative profile

 total_time                           4620.024423           1
 elmin                                4563.416414           1
 eddav                                3393.163281         340
 set_dd_paw                            956.243352         338
 m_sumb_d                              808.813978     4071231
 hamiltmu                              666.355399     1340949
 lapack                                622.474900     1340949
 raccmu_                               581.486116     1340949
 redis_pw                              349.802584     7140122
 newband                               141.970404     1362709
 m_alltoall_d                          128.251595    18671186
 redis_proj                            124.373922     9084984
 set_charge                            113.765557         337
 fftwav_mpi                             91.949758     5049001
 fftwav                                 85.315205     5049001
 phaser                                 84.417285       22176
 densta                                 64.480984         341
 eccp                                   59.821450      631040
 soft_charge                            58.800220         337
 fft3d                                  56.435989     7624839
 orth1                                  49.773699     4023103
 setdij_                                49.617214         364
 fft3d_mpi                              47.103840     2587457
 augmentation_charge                    44.818526         338
 kinhamil                               40.790799     2575838
 racc0mu_acc                            38.622607     1340949
 overl                                  36.779477     4520700
 w1_copy                                36.639109     7727514
 rpromu_acc                             30.037090     1021205
 w1_projall                             29.673799     1014549
 fftext_mpi                             29.286799     2575838
 m_bcast_z                              28.898854     1348373
 fftbrc_mpi                             25.674483       11619
 fftbas_plan_mpi                        25.667510       11619
 m_bcast_d                              23.196084     2682579
 setup_precond                          22.571704      631040
 overl_mu                               20.251879     1340949
 ggemm                                  17.348289     1667349
 dfftw_execute                          15.942145        8496
 pw_charge                              13.850125      504237
 init_acc                               12.488983           1
 force_and_stress                       11.716885           1
 vhamil                                 11.444597     2575838
 apply_precond                          10.429379     1944798
 depsum                                 10.190091         337
 map_backward                            4.782775       12290
 map_forward                             4.309977       10948
 m_alltoallv_z                           4.250779       12969
 acc_init_cublas                         3.785280           1
 strnlr                                  3.727054           1
 rpro_isp                                3.313898         416
 potlok                                  2.784728         338
 map_scatter                             2.542464       12969
 brmix                                   2.364447         336
 map_gather                              2.168983       12969
 broyd                                   1.738744         336
 fornlr                                  1.246981           1
 acc_init_cusolver                       1.021167           1
 fordep                                  0.821477           1
 lincom                                  0.792112       21824
 fft_gq                                  0.565740         337
 orthch                                  0.447323           1
 sphpro_fast                             0.336184           2
 brget                                   0.314074       75971
 proall                                  0.289592           1
 setg0                                   0.269232         338
 truncate_high_frequency_w1              0.263433     3206878
 acc_cufft_makeplans                     0.259241           3
 acc_cufft_makeplan                      0.259229          19
 rspher_all                              0.252136          14
 brsav                                   0.086403       21860
 pothar                                  0.029245         339
 choleski                                0.019241          64
 brpre                                   0.007878         672
 stufak                                  0.007064           1
 strelo                                  0.002072           1
 forhar                                  0.001996           2
 strkin                                  0.001537           1
 set_dd_magatom                          0.001521         338
 vectorpot                               0.001399         337
 strehar                                 0.001253           1
 forloc                                  0.001070           1
 fewald                                  0.001016           1
 chggra                                  0.000771           1
 rsp                                     0.000560           1
 brgrid                                  0.000171           1
 potlok_metagga                          0.000043         337
 rcp                                     0.000031           1
 crpa_reader                             0.000027           1
 rotate_active_occupied_orbital          0.000000           1
 redis_pw_over_bands                     0.000000           1

Profiling took  16.010001  7.907599  0.003204  0.003107 seconds
Profiling took  10.023820 seconds