 vasp.6.3.2 27Jun22 (build Jul  3 2023 11:46:21) complex
 executed on    LinuxNV_CrayMPICH date 2024.04.21  20:59:55

 INCAR:
   ADDGRID = True
   ALGO = Normal
   EDIFF = 0.0016
   ENCUT = 520.0
   IBRION = -1
   ICHARG = 0
   ISIF = 3
   ISMEAR = -5
   ISPIN = 2
   KPOINT_BSE = -1 0 0 0
   LAECHG = True
   LASPH = True
   LCHARG = True
   LELF = True
   LORBIT = 11
   LREAL = Auto
   LVHAR = True
   LWAVE = False
   MAGMOM = 8*0.6 4*7.0 20*0.6
   NELM = 1000
   NSW = 0
   PREC = accurate
   SIGMA = 0.05

 POTCAR:    PAW_PBE K_sv 06Sep2000
 POTCAR:    PAW_PBE Eu 23Dec2003
 POTCAR:    PAW_PBE Cl 06Sep2000
 POTCAR:    PAW_PBE K_sv 06Sep2000
   VRHFIN =K:  3s3p4s

   TITEL  = PAW_PBE K_sv 06Sep2000
   POMASS =   39.098; ZVAL   =    9.000    mass and valenz
   ENMAX  =  259.264; ENMIN  =  194.448 eV

   TITEL  = PAW_PBE Eu 23Dec2003
   POMASS =  151.965; ZVAL   =   17.000    mass and valenz
   ENMAX  =  249.668; ENMIN  =  187.251 eV

   TITEL  = PAW_PBE Cl 06Sep2000
   POMASS =   35.453; ZVAL   =    7.000    mass and valenz
   ENMAX  =  262.472; ENMIN  =  196.854 eV

 Optimization of the real space projectors (new method)

 maximal supplied QI-value         = 16.25
 optimisation between [QCUT,QGAM] = [ 11.54, 23.24] = [ 37.28,151.24] Ry
 Optimized for a Real-space Cutoff    1.32 Angstroem

   l    n(q)    QCUT    max X(q) W(low)/X(q) W(high)/X(q)  e(spline)
   0      9    11.539    11.234    0.52E-04    0.40E-04    0.14E-07
   0      9    11.539    12.505    0.97E-04    0.77E-04    0.27E-07
   1      9    11.539   167.359    0.18E-03    0.11E-02    0.48E-06
   1      9    11.539   168.875    0.18E-03    0.11E-02    0.48E-06
   2      8    11.539     3.435    0.16E-03    0.11E-03    0.38E-07
 Optimization of the real space projectors (new method)

[...]

   l    n(q)    QCUT    max X(q) W(low)/X(q) W(high)/X(q)  e(spline)
   0     11    11.673    10.400    0.14E-04    0.18E-05    0.24E-07
   0     11    11.673    10.768    0.21E-04    0.32E-05    0.49E-07
   1     11    11.673     4.094    0.40E-05    0.13E-04    0.93E-07
   1     11    11.673     4.009    0.11E-04    0.46E-04    0.33E-06
   2     10    11.673    29.030    0.79E-04    0.60E-04    0.70E-06
   2     10    11.673    19.941    0.80E-04    0.60E-04    0.71E-06
   3     10    11.673    88.889    0.23E-03    0.29E-03    0.30E-06
   3     10    11.673    76.102    0.23E-03    0.30E-03    0.30E-06
 Optimization of the real space projectors (new method)

 maximal supplied QI-value         = 19.84
 optimisation between [QCUT,QGAM] = [ 11.51, 23.22] = [ 37.09,150.92] Ry
 Optimized for a Real-space Cutoff    1.21 Angstroem

   l    n(q)    QCUT    max X(q) W(low)/X(q) W(high)/X(q)  e(spline)
   0      8    11.508   168.010    0.86E-04    0.17E-03    0.49E-07
   0      8    11.508   164.674    0.84E-04    0.16E-03    0.48E-07
   1      8    11.508    69.222    0.18E-03    0.70E-04    0.97E-07
   1      8    11.508    56.786    0.18E-03    0.67E-04    0.95E-07
  PAW_PBE K_sv 06Sep2000                :
  PAW_PBE Eu 23Dec2003                  :
  PAW_PBE Cl 06Sep2000                  :

 POSCAR: K8 Eu4 Cl20
  positions in direct lattice
 exchange correlation table for  LEXCH =        8
   RHO(1)=    0.500       N(1)  =     2000
   RHO(2)=  100.500       N(2)  =     4000

 VTST: version 4.2, (08/11/21)

 CHAIN: initializing optimizer

 OPT: Using VASP Dynamics algorithm
 CHAIN: Read ICHAIN             0

 POSCAR: K8 Eu4 Cl20
  positions in direct lattice

 ion  position               nearest neighbor table
   1  0.527  0.501  0.824-  15 3.24
   2  0.473  0.499  0.176-  16 3.24
   3  0.027  0.499  0.676-  13 3.24
   4  0.473  0.001  0.176-  16 3.24
   5  0.973  0.501  0.324-  14 3.24
   6  0.527  0.999  0.824-  15 3.24
   7  0.973  0.999  0.324-  14 3.24
   8  0.027  0.001  0.676-  13 3.24
   9  0.564  0.750  0.503-  17 2.80  16 2.83  26 2.84  28 2.84  25 2.85  30 2.85  21 2.90
  10  0.436  0.250  0.497-  18 2.80  15 2.83  25 2.84  30 2.84  28 2.85  26 2.85  22 2.90
  11  0.064  0.250  0.997-  19 2.80  14 2.83  29 2.84  31 2.84  27 2.85  32 2.85  23 2.90
  12  0.936  0.750  0.003-  20 2.80  13 2.83  27 2.84  32 2.84  31 2.85  29 2.85  24 2.90
  13  0.819  0.750  0.800-  12 2.83   8 3.24   3 3.24
  14  0.181  0.250  0.200-  11 2.83   7 3.24   5 3.24
  15  0.319  0.250  0.700-  10 2.83   6 3.24   1 3.24
  16  0.681  0.750  0.300-   9 2.83   4 3.24   2 3.24
  17  0.352  0.750  0.671-   9 2.80
  18  0.648  0.250  0.329-  10 2.80
  19  0.852  0.250  0.829-  11 2.80
  20  0.148  0.750  0.171-  12 2.80
  21  0.922  0.750  0.508-   9 2.90
  22  0.078  0.250  0.492-  10 2.90
  23  0.422  0.250  0.992-  11 2.90
  24  0.578  0.750  0.008-  12 2.90
  25  0.653  0.035  0.586-  10 2.84   9 2.85
  26  0.347  0.965  0.414-   9 2.84  10 2.85
  27  0.153  0.965  0.914-  12 2.84  11 2.85
  28  0.347  0.535  0.414-   9 2.84  10 2.85
  29  0.847  0.035  0.086-  11 2.84  12 2.85
  30  0.653  0.465  0.586-  10 2.84   9 2.85
  31  0.847  0.465  0.086-  11 2.84  12 2.85
  32  0.153  0.535  0.914-  12 2.84  11 2.85

  LATTYP: Found a simple orthorhombic cell.
 ALAT       =     8.0772340000
 B/A-ratio  =     1.0990180549
 C/A-ratio  =     1.6287781188

  Lattice vectors:

 A1 = (   8.0772340000,   0.0000000000,   0.0000000000)
 A2 = (   0.0000000000,   8.8770260000,   0.0000000000)
 A3 = (   0.0000000000,   0.0000000000,  13.1560220000)

Analysis of symmetry for initial positions (statically):
 Subroutine PRICEL returns:
 Original cell was already a primitive cell.

 Routine SETGRP: Setting up the symmetry group for a
 simple orthorhombic supercell.

 Subroutine GETGRP returns: Found  8 space group operations
 (whereof  2 operations were pure point group operations)
 out of a pool of  8 trial point group operations.

The static configuration has the point symmetry S_2 .
 The point group associated with its full space group is D_2h.

Analysis of symmetry for dynamics (positions and initial velocities):
 Subroutine PRICEL returns:
 Original cell was already a primitive cell.

[...]

The dynamic configuration has the point symmetry S_2 .
 The point group associated with its full space group is D_2h.

Analysis of structural, dynamic, and magnetic symmetry:
 Subroutine PRICEL returns:
 Original cell was already a primitive cell.

 Routine SETGRP: Setting up the symmetry group for a
 simple orthorhombic supercell.

 Subroutine GETGRP returns: Found  8 space group operations
 (whereof  2 operations were pure point group operations)
 out of a pool of  8 trial point group operations.

The overall configuration has the point symmetry S_2 .
 The point group associated with its full space group is D_2h.

 Subroutine INISYM returns: Found  8 space group operations
 (whereof  2 operations are pure point group operations),
 and found     1 'primitive' translations

                                     Primitive cell

  volume of cell :     943.3107

  direct lattice vectors                    reciprocal lattice vectors
     8.077234000  0.000000000  0.000000000     0.123804758  0.000000000  0.000000000
     0.000000000  8.877026000  0.000000000     0.000000000  0.112650340  0.000000000
     0.000000000  0.000000000 13.156022000     0.000000000  0.000000000  0.076010818

  length of vectors
     8.077234000  8.877026000 13.156022000     0.123804758  0.112650340  0.076010818

  position of ions in fractional coordinates (direct lattice)
     0.527460000  0.500504000  0.824267000
     0.472540000  0.499496000  0.175733000
     0.027460000  0.499496000  0.675733000
     0.472540000  0.000504000  0.175733000
     0.972540000  0.500504000  0.324267000
     0.527460000  0.999496000  0.824267000
     0.972540000  0.999496000  0.324267000
     0.027460000  0.000504000  0.675733000
     0.563839000  0.750000000  0.502768000
     0.436161000  0.250000000  0.497232000
     0.063839000  0.250000000  0.997232000
     0.936161000  0.750000000  0.002768000
     0.818500000  0.750000000  0.800290000
     0.181500000  0.250000000  0.199710000
     0.318500000  0.250000000  0.699710000
     0.681500000  0.750000000  0.300290000
     0.352456000  0.750000000  0.671234000
     0.647544000  0.250000000  0.328766000
     0.852456000  0.250000000  0.828766000
     0.147544000  0.750000000  0.171234000
     0.922339000  0.750000000  0.507549000
     0.077661000  0.250000000  0.492451000
     0.422339000  0.250000000  0.992451000
     0.577661000  0.750000000  0.007549000
     0.652844000  0.035487000  0.586020000
     0.347156000  0.964513000  0.413980000
     0.152844000  0.964513000  0.913980000
     0.347156000  0.535487000  0.413980000
     0.847156000  0.035487000  0.086020000
     0.652844000  0.464513000  0.586020000
     0.847156000  0.464513000  0.086020000
     0.152844000  0.535487000  0.913980000

  ion indices of the primitive-cell ions
   primitive index   ion index
                 1           1
                 2           2
                 3           3
                 4           4
                 5           5
                 6           6
                 7           7
                 8           8
                 9           9
                10          10
                11          11
                12          12
                13          13
                14          14
                15          15
                16          16
                17          17
                18          18
                19          19
                20          20
                21          21
                22          22
                23          23
                24          24
                25          25
                26          26
                27          27
                28          28
                29          29
                30          30
                31          31
                32          32

 KPOINTS: Kpoints from vasprun.xml

Automatic generation of k-mesh.
 Grid dimensions read from file:
 generate k-points for:    3    3    2

 Generating k-lattice:

  Cartesian coordinates                     Fractional coordinates (reciprocal lattice)
     0.041268253  0.000000000  0.000000000     0.333333333  0.000000000  0.000000000
     0.000000000  0.037550113  0.000000000     0.000000000  0.333333333  0.000000000
     0.000000000  0.000000000  0.038005409     0.000000000  0.000000000  0.500000000

  Length of vectors
     0.041268253  0.037550113  0.038005409

  Shift w.r.t. Gamma in fractional coordinates (k-lattice)
     0.000000000  0.000000000  0.000000000

 TETIRR: Found     51 inequivalent tetrahedra from      108

 Subroutine IBZKPT returns following result:

 Found      8 irreducible k-points:

 Following reciprocal coordinates:
            Coordinates               Weight
  0.000000  0.000000  0.000000      1.000000
  0.333333  0.000000  0.000000      2.000000
  0.000000  0.333333  0.000000      2.000000
  0.333333  0.333333  0.000000      4.000000
  0.000000  0.000000  0.500000      1.000000
  0.333333  0.000000  0.500000      2.000000
  0.000000  0.333333  0.500000      2.000000
  0.333333  0.333333  0.500000      4.000000

 Following cartesian coordinates:
            Coordinates               Weight
[...]
  318                map_forward                           0.000332                    4   7
  319                  map_gather                            0.000061                  2   8
  320                  m_alltoallv_z                         0.000031                  2   8
  321                  map_scatter                           0.000199                  2   8
  322                map_backward                          0.000157                    2   7
  323                  map_gather                            0.000033                  1   8
  324                  m_alltoallv_z                         0.000014                  1   8
  325                  map_scatter                           0.000081                  1   8
  326          m_sumb_d                              0.000011                          2   4
  327          pothar                                0.000105                          1   4
  328            m_sumb_d                              0.000016                        1   5
  329        brmix                                 0.025413                            1   3
  330          m_sumb_d                              0.000070                          6   4
  331          brpre                                 0.000076                          2   4
  332          setg0                                 0.002835                          1   4
  333          broyd                                 0.018755                          1   4
  334            brget                                 0.005428                      326   5
  335            brsav                                 0.002476                      163   5
  336            m_sumb_d                              0.000230                       47   5
  337        m_bcast_d                             0.000037                            2   3
  338      potlok                                0.093020                              2   2
  339        fft3d_mpi                             0.058077                           36   3
  340          fftbrc_mpi                            0.048499                         36   4
  341            fftbas_plan_mpi                       0.048474                       36   5
  342              map_forward                           0.013112                     40   6
  343                map_gather                            0.003502                   24   7
  344                m_alltoallv_z                         0.005563                   24   7
  345                map_scatter                           0.003786                   24   7
  346              map_backward                          0.011028                     32   6
  347                map_gather                            0.002790                   16   7
  348                m_alltoallv_z                         0.004504                   16   7
  349                map_scatter                           0.003369                   16   7
  350              dfftw_execute                         0.022122                     30   6
  351        m_sumb_d                              0.000030                            5   3
  352        pothar                                0.003984                            2   3
  353          m_sumb_d                              0.000317                          2   4
  354        m_bcast_d                             0.006935                            4   3
  355      potlok_metagga                        0.000000                              1   2
  356      set_dd_magatom                        0.000004                              1   2
  357      set_dd_paw                            3.045755                              1   2
  358        m_sumb_d                              0.000423                            7   3
  359      augmentation_charge                   0.306233                              1   2
  360        fft3d_mpi                             0.178269                            2   3
  361          fftbrc_mpi                            0.154618                          2   4
  362            fftbas_plan_mpi                       0.154612                        2   5
  363              dfftw_execute                         0.098301                      6   6
  364              map_backward                          0.055987                      4   6
  365                map_gather                            0.019591                    2   7
  366                m_alltoallv_z                         0.015625                    2   7
  367                map_scatter                           0.020756                    2   7
  368      fftwav_mpi                            6.204906                           2304   2
  369        fftwav                                6.201738                         2304   3
  370          fft3d                                 5.704939                       2304   4
  371      densta                                5.289879                              1   2

 Flat profile

 set_dd_paw                            622.400483         208
 eddav                                 173.833857         210
 lapack                                149.141731      314838
 raccmu_                               140.741003      314838
 redis_pw                               76.734749     1734500
 m_sumb_d                               72.325834      966080
 dfftw_execute                          45.366437        5436
 m_alltoall_d                           33.100595     4572852
 setdij_                                27.788953         234
 augmentation_charge                    26.296496         208
 total_time                             24.307818           1
 fft3d                                  24.225920     1856900
 eccp                                   20.844317      161280
 densta                                 16.687844         211
 orth1                                  16.604314      944610
 hamiltmu                               15.266605      314838
 phaser                                 14.935705        3464
 redis_proj                             14.635536     2202912
 fftwav                                 12.354556     1227224
 init_acc                               11.608963           1
 fft3d_mpi                              11.041134      636895
 racc0mu_acc                             9.196275      314838
 overl                                   9.140761     1098088
 map_scatter                             9.132770        8069
 w1_copy                                 9.065574     1889028
 map_gather                              8.323260        8069
 m_alltoallv_z                           7.572289        8069
 m_bcast_z                               7.471902      317910
 rpromu_acc                              7.420759      236694
 soft_charge                             6.768103         207
 setup_precond                           5.910621      161280
 pw_charge                               5.759024      116864
 set_charge                              5.294776         207
 ggemm                                   5.173935      395478
 m_bcast_d                               5.140686      630097
 overl_mu                                4.929273      314838
 acc_init_cublas                         3.453373           1
 vhamil                                  2.887068      629676
 kinhamil                                2.841354      629676
 depsum                                  2.658617         207
 fftext_mpi                              2.654670      629676
 apply_precond                           2.603727      468396
 newband                                 2.525357      318198
 broyd                                   2.191765         206
 potlok                                  1.902323         208
 fftwav_mpi                              1.600499     1227224
 acc_init_cusolver                       1.046974           1
 brmix                                   0.905385         206
 brget                                   0.728209       44459
 rpro_isp                                0.607750         104
 setg0                                   0.600614         208
 elmin                                   0.527065           1
 fftbas_plan_mpi                         0.473850        7219
 rspher_all                              0.259036          14
 acc_cufft_makeplan                      0.255540          19
 w1_projall                              0.221134      234198
 brsav                                   0.202623       12682
 sphpro_fast                             0.191499           2
 lincom                                  0.144827        3376
 proall                                  0.104313           1
 map_backward                            0.080903        7622
 truncate_high_frequency_w1              0.062639      790956
 map_forward                             0.054692        6816
 orthch                                  0.052136           1
 fft_gq                                  0.050465         207
 stufak                                  0.040809           1
 force_and_stress                        0.036095           1
 pothar                                  0.024467         209
 choleski                                0.016868          16
 brpre                                   0.016852         412
 strelo                                  0.006846           1
 forhar                                  0.005339           2
 fftbrc_mpi                              0.005104        7219
 inisym                                  0.004365           1
 strehar                                 0.003946           1
 strnlr                                  0.003829           1
 strkin                                  0.002788           1
 forloc                                  0.002755           1
 fornlr                                  0.001326           1
 rsp                                     0.001076           1
 set_dd_magatom                          0.000964         208
 vectorpot                               0.000873         207
 brgrid                                  0.000489           1
 fewald                                  0.000341           1
 chggra                                  0.000316           1
 fordep                                  0.000103           1
 posmap                                  0.000061           2
 rcp                                     0.000046           1
 crpa_reader                             0.000029           1
 potlok_metagga                          0.000021         207
 acc_cufft_makeplans                     0.000010           3
 rotate_active_occupied_orbital          0.000000           1
 redis_pw_over_bands                     0.000000           1
  summed up times     1688.606981992722

 Accumulative profile

 total_time                           1688.606982           1
 elmin                                1614.382523           1
 eddav                                 826.120978         210
 set_dd_paw                            622.632666         208
 hamiltmu                              184.329755      314838
 raccmu_                               154.866551      314838
 lapack                                149.141731      314838
 redis_pw                               93.933324     1734500
 set_charge                             92.927175         207
 fft3d_mpi                              87.674709      636895
 m_sumb_d                               72.325834      966080
 fftbrc_mpi                             71.009305        7219
 fftbas_plan_mpi                        71.004201        7219
 setdij_                                69.322033         234
 augmentation_charge                    63.269480         208
 dfftw_execute                          45.366437        5436
 newband                                42.654346      318198
 m_alltoall_d                           33.100595     4572852
 fftwav_mpi                             32.556706     1227224
 fftwav                                 30.956207     1227224
 redis_proj                             30.537557     2202912
 fft3d                                  24.225920     1856900
 soft_charge                            20.856225         207
 eccp                                   20.844317      161280
 densta                                 16.687844         211
 orth1                                  16.604314      944610
 phaser                                 14.935705        3464
 map_backward                           13.815733        7622
 force_and_stress                       13.393817           1
 init_acc                               11.608963           1
 map_forward                            11.348181        6816
 kinhamil                               11.309531      629676
 racc0mu_acc                             9.196275      314838
 overl                                   9.140761     1098088
 map_scatter                             9.132770        8069
 w1_copy                                 9.065574     1889028
 fftext_mpi                              8.468178      629676
 map_gather                              8.323260        8069
 m_alltoallv_z                           7.572289        8069
 m_bcast_z                               7.471902      317910
 rpromu_acc                              7.420759      236694
 w1_projall                              7.016574      234198
 setup_precond                           5.910621      161280
 pw_charge                               5.759024      116864
 ggemm                                   5.173935      395478
 m_bcast_d                               5.140686      630097
 overl_mu                                4.929273      314838
 brmix                                   4.709065         206
 potlok                                  3.578631         208
 acc_init_cublas                         3.453373           1
 broyd                                   3.165004         206
 vhamil                                  2.887068      629676
 depsum                                  2.828510         207
 apply_precond                           2.603727      468396
 fordep                                  1.769867           1
 strnlr                                  1.647582           1
 rpro_isp                                1.587668         104
 fft_gq                                  1.253506         207
 acc_init_cusolver                       1.046974           1
 brget                                   0.728209       44459
 setg0                                   0.600614         208
 fornlr                                  0.552383           1
 orthch                                  0.419579           1
 rspher_all                              0.259036          14
 acc_cufft_makeplans                     0.255550           3
 acc_cufft_makeplan                      0.255540          19
 brsav                                   0.202623       12682
 sphpro_fast                             0.199575           2
 proall                                  0.197229           1
 lincom                                  0.144827        3376
 truncate_high_frequency_w1              0.062639      790956
 stufak                                  0.040809           1
 pothar                                  0.027202         209
 choleski                                0.016868          16
 brpre                                   0.016852         412
 strelo                                  0.007148           1
 forhar                                  0.005415           2
 inisym                                  0.004426           1
 strehar                                 0.003950           1
 forloc                                  0.002802           1
 strkin                                  0.002797           1
 fewald                                  0.001557           1
 chggra                                  0.001213           1
 rsp                                     0.001076           1
 set_dd_magatom                          0.000964         208
 vectorpot                               0.000873         207
 brgrid                                  0.000489           1
 posmap                                  0.000061           2
 rcp                                     0.000046           1
 crpa_reader                             0.000029           1
 potlok_metagga                          0.000021         207
 rotate_active_occupied_orbital          0.000000           1
 redis_pw_over_bands                     0.000000           1

Profiling took   3.883870  1.904860  0.003260  0.003144 seconds
Profiling took   2.480306 seconds