 vasp.6.3.2 27Jun22 (build Jul  3 2023 11:46:21) complex
 executed on    LinuxNV_CrayMPICH date 2024.04.22  03:29:13

 INCAR:
   ADDGRID = True
   ALGO = Normal
   EDIFF = 0.0023
   ENCUT = 520.0
   IBRION = -1
   ICHARG = 0
   ISIF = 3
   ISMEAR = 0
   ISPIN = 2
   ISTART = 1
   KPOINT_BSE = -1 0 0 0
   LAECHG = True
   LASPH = True
   LCHARG = True
   LELF = True
   LORBIT = 11
   LREAL = Auto
   LVHAR = True
   LWAVE = False
   MAGMOM = 2*7.0 40*0.6 4*5.0
   NELM = 1000
   NSW = 0
   PREC = accurate
   SIGMA = 0.05

 POTCAR:    PAW_PBE Gd 23Dec2003
 POTCAR:    PAW_PBE Al 04Jan2001
 POTCAR:    PAW_PBE Cr_pv 02Aug2007
 POTCAR:    PAW_PBE Gd 23Dec2003
   VRHFIN =Gd : [core=Xe4]

   TITEL  = PAW_PBE Gd 23Dec2003
   POMASS =  157.250; ZVAL   =   18.000    mass and valenz
   ENMAX  =  256.472; ENMIN  =  192.354 eV

   TITEL  = PAW_PBE Al 04Jan2001
   POMASS =   26.981; ZVAL   =    3.000    mass and valenz
   ENMAX  =  240.300; ENMIN  =  180.225 eV

   TITEL  = PAW_PBE Cr_pv 02Aug2007
   POMASS =   51.996; ZVAL   =   12.000    mass and valenz
   ENMAX  =  265.681; ENMIN  =  199.261 eV

 Optimization of the real space projectors (new method)

 maximal supplied QI-value         = 13.42
 optimisation between [QCUT,QGAM] = [ 11.67, 23.35] = [ 38.16,152.62] Ry
 Optimized for a Real-space Cutoff    1.63 Angstroem

   l    n(q)    QCUT    max X(q) W(low)/X(q) W(high)/X(q)  e(spline)
   0     11    11.673    10.501    0.14E-04    0.17E-05    0.21E-07
   0     11    11.673     9.148    0.21E-04    0.32E-05    0.45E-07
   1     11    11.673     4.035    0.33E-05    0.11E-04    0.84E-07
   1     11    11.673     4.388    0.11E-04    0.47E-04    0.34E-06
   2     10    11.673    20.656    0.12E-04    0.28E-04    0.54E-06
   2     10    11.673    12.651    0.11E-04    0.26E-04    0.51E-06
   3     10    11.673    61.921    0.19E-03    0.22E-03    0.23E-06
   3     10    11.673    48.328    0.20E-03    0.23E-03    0.23E-06
 Optimization of the real space projectors (new method)

[...]

   l    n(q)    QCUT    max X(q) W(low)/X(q) W(high)/X(q)  e(spline)
   0      8    11.508   176.870    0.11E-03    0.16E-03    0.40E-07
   0      8    11.508   105.762    0.11E-03    0.16E-03    0.39E-07
   1      8    11.508    55.370    0.23E-03    0.10E-03    0.75E-07
   1      8    11.508    20.208    0.21E-03    0.91E-04    0.68E-07
 Optimization of the real space projectors (new method)

 maximal supplied QI-value         = 16.25
 optimisation between [QCUT,QGAM] = [ 11.54, 23.24] = [ 37.28,151.24] Ry
 Optimized for a Real-space Cutoff    1.32 Angstroem

   l    n(q)    QCUT    max X(q) W(low)/X(q) W(high)/X(q)  e(spline)
   1      9    11.539     3.262    0.69E-04    0.25E-03    0.10E-06
   1      9    11.539     5.741    0.20E-03    0.59E-03    0.25E-06
   2      8    11.539    60.438    0.24E-03    0.41E-03    0.22E-06
   2      8    11.539    55.380    0.24E-03    0.42E-03    0.23E-06
   0      9    11.539    80.273    0.11E-03    0.13E-03    0.76E-07
   0      9    11.539    36.654    0.95E-04    0.12E-03    0.68E-07
  PAW_PBE Gd 23Dec2003                  :
  PAW_PBE Al 04Jan2001                  :
  PAW_PBE Cr_pv 02Aug2007               :

 POSCAR: Gd2 Al40 Cr4
  positions in direct lattice
 exchange correlation table for  LEXCH =        8
   RHO(1)=    0.500       N(1)  =     2000
   RHO(2)=  100.500       N(2)  =     4000

 VTST: version 4.2, (08/11/21)

 CHAIN: initializing optimizer

 OPT: Using VASP Dynamics algorithm
 CHAIN: Read ICHAIN             0

 POSCAR: Gd2 Al40 Cr4
  positions in direct lattice

 ion  position               nearest neighbor table
   1  0.500  0.500  0.500-  39 3.13  40 3.13  41 3.13  42 3.13   7 3.21  11 3.21   3 3.21  10 3.21
                             6 3.21  14 3.21   4 3.21   8 3.21  13 3.21   9 3.21   5 3.21  12 3.21
   2  0.750  0.750  0.750-  39 3.13  40 3.13  41 3.13  42 3.13  19 3.21  23 3.21  15 3.21  22 3.21
                            18 3.21  26 3.21  16 3.21  20 3.21  25 3.21  21 3.21  17 3.21  24 3.21
   3  0.568  0.299  0.299-  32 2.71   6 2.72  11 2.75   7 2.75  43 2.78  35 2.82  33 2.82  20 2.90
                            25 2.90  41 3.10  40 3.10   1 3.21
   4  0.299  0.568  0.834-  31 2.71   5 2.72  13 2.75  10 2.75  44 2.78  33 2.82  36 2.82  21 2.90
                            23 2.90  42 3.10  39 3.10   1 3.21
   5  0.299  0.834  0.568-  31 2.71   4 2.72  14 2.75   8 2.75  45 2.78  35 2.82  34 2.82  24 2.90
                            19 2.90  42 3.10  39 3.10   1 3.21
   6  0.834  0.299  0.299-  32 2.71   3 2.72  12 2.75   9 2.75  46 2.78  36 2.82  34 2.82  22 2.90
                            26 2.90  40 3.10  41 3.10   1 3.21
   7  0.299  0.299  0.568-  28 2.71  10 2.72  11 2.75   3 2.75  45 2.78  37 2.82  35 2.82  24 2.90
                            17 2.90  40 3.10  39 3.10   1 3.21
   8  0.568  0.834  0.299-  27 2.71   9 2.72  14 2.75   5 2.75  43 2.78  35 2.82  38 2.82  25 2.90
                            15 2.90  42 3.10  41 3.10   1 3.21
   9  0.834  0.568  0.299-  27 2.71   8 2.72  12 2.75   6 2.75  44 2.78  37 2.82  36 2.82  16 2.90
                            23 2.90  42 3.10  41 3.10   1 3.21
  10  0.299  0.299  0.834-  28 2.71   7 2.72  13 2.75   4 2.75  46 2.78  38 2.82  36 2.82  18 2.90
                            26 2.90  40 3.10  39 3.10   1 3.21
  11  0.299  0.568  0.299-  30 2.71  14 2.72   3 2.75   7 2.75  44 2.78  37 2.82  33 2.82  21 2.90
                            16 2.90  41 3.10  39 3.10   1 3.21
  12  0.834  0.299  0.568-  29 2.71  13 2.72   6 2.75   9 2.75  45 2.78  37 2.82  34 2.82  17 2.90
                            19 2.90  42 3.10  40 3.10   1 3.21
  13  0.568  0.299  0.834-  29 2.71  12 2.72   4 2.75  10 2.75  43 2.78  33 2.82  38 2.82  20 2.90
                            15 2.90  42 3.10  40 3.10   1 3.21
  14  0.299  0.834  0.299-  30 2.71  11 2.72   5 2.75   8 2.75  46 2.78  38 2.82  34 2.82  18 2.90
                            22 2.90  41 3.10  39 3.10   1 3.21
  15  0.682  0.951  0.951-  38 2.71  18 2.72  23 2.75  19 2.75  43 2.78  27 2.82  29 2.82  13 2.90
                             8 2.90  41 3.10  40 3.10   2 3.21
  16  0.951  0.682  0.416-  37 2.71  17 2.72  25 2.75  22 2.75  44 2.78  27 2.82  30 2.82   9 2.90
                            11 2.90  42 3.10  39 3.10   2 3.21
  17  0.951  0.416  0.682-  37 2.71  16 2.72  26 2.75  20 2.75  45 2.78  29 2.82  28 2.82  12 2.90
                             7 2.90  42 3.10  39 3.10   2 3.21
  18  0.416  0.951  0.951-  38 2.71  15 2.72  24 2.75  21 2.75  46 2.78  28 2.82  30 2.82  14 2.90
                            10 2.90  40 3.10  41 3.10   2 3.21
  19  0.951  0.951  0.682-  34 2.71  22 2.72  23 2.75  15 2.75  45 2.78  29 2.82  31 2.82  12 2.90
                             5 2.90  40 3.10  39 3.10   2 3.21
  20  0.682  0.416  0.951-  33 2.71  21 2.72  26 2.75  17 2.75  43 2.78  29 2.82  32 2.82  13 2.90
                             3 2.90  42 3.10  41 3.10   2 3.21
  21  0.416  0.682  0.951-  33 2.71  20 2.72  24 2.75  18 2.75  44 2.78  31 2.82  30 2.82   4 2.90
                            11 2.90  42 3.10  41 3.10   2 3.21
  22  0.951  0.951  0.416-  34 2.71  19 2.72  25 2.75  16 2.75  46 2.78  30 2.82  32 2.82   6 2.90
                            14 2.90  40 3.10  39 3.10   2 3.21
  23  0.951  0.682  0.951-  36 2.71  26 2.72  15 2.75  19 2.75  44 2.78  27 2.82  31 2.82   9 2.90
                             4 2.90  41 3.10  39 3.10   2 3.21
  24  0.416  0.951  0.682-  35 2.71  25 2.72  18 2.75  21 2.75  45 2.78  31 2.82  28 2.82   5 2.90
                             7 2.90  42 3.10  40 3.10   2 3.21
  25  0.682  0.951  0.416-  35 2.71  24 2.72  16 2.75  22 2.75  43 2.78  27 2.82  32 2.82   8 2.90
                             3 2.90  42 3.10  40 3.10   2 3.21
  26  0.951  0.416  0.951-  36 2.71  23 2.72  17 2.75  20 2.75  46 2.78  28 2.82  32 2.82   6 2.90
                            10 2.90  41 3.10  39 3.10   2 3.21
  27  0.863  0.863  0.137-  43 2.56  44 2.56   8 2.71   9 2.71  31 2.79  32 2.79  29 2.79  30 2.79
                            16 2.82  25 2.82  23 2.82  15 2.82
  28  0.137  0.137  0.863-  45 2.56  46 2.56   7 2.71  10 2.71  31 2.79  32 2.79  29 2.79  30 2.79
                            18 2.82  26 2.82  24 2.82  17 2.82
  29  0.863  0.137  0.863-  43 2.56  45 2.56  12 2.71  13 2.71  31 2.79  32 2.79  27 2.79  28 2.79
                            17 2.82  20 2.82  19 2.82  15 2.82
  30  0.137  0.863  0.137-  44 2.56  46 2.56  11 2.71  14 2.71  31 2.79  32 2.79  27 2.79  28 2.79
                            18 2.82  22 2.82  21 2.82  16 2.82
  31  0.137  0.863  0.863-  44 2.56  45 2.56   4 2.71   5 2.71  29 2.79  30 2.79  27 2.79  28 2.79
                            21 2.82  24 2.82  23 2.82  19 2.82
  32  0.863  0.137  0.137-  43 2.56  46 2.56   3 2.71   6 2.71  29 2.79  30 2.79  27 2.79  28 2.79
                            22 2.82  26 2.82  25 2.82  20 2.82
  33  0.387  0.387  0.113-  43 2.56  44 2.56  20 2.71  21 2.71  37 2.79  38 2.79  35 2.79  36 2.79
                             4 2.82  13 2.82  11 2.82   3 2.82
  34  0.113  0.113  0.387-  45 2.56  46 2.56  19 2.71  22 2.71  37 2.79  38 2.79  35 2.79  36 2.79
                             6 2.82  14 2.82  12 2.82   5 2.82
  35  0.387  0.113  0.387-  43 2.56  45 2.56  24 2.71  25 2.71  37 2.79  38 2.79  33 2.79  34 2.79
                             5 2.82   8 2.82   7 2.82   3 2.82
  36  0.113  0.387  0.113-  44 2.56  46 2.56  23 2.71  26 2.71  37 2.79  38 2.79  33 2.79  34 2.79
                             6 2.82  10 2.82   9 2.82   4 2.82
  37  0.113  0.387  0.387-  44 2.56  45 2.56  16 2.71  17 2.71  35 2.79  36 2.79  33 2.79  34 2.79
                             9 2.82  12 2.82  11 2.82   7 2.82
  38  0.387  0.113  0.113-  43 2.56  46 2.56  15 2.71  18 2.71  35 2.79  36 2.79  33 2.79  34 2.79
                            10 2.82  14 2.82  13 2.82   8 2.82
  39  0.125  0.625  0.625-   7 3.10  11 3.10  19 3.10  23 3.10  14 3.10  26 3.10  10 3.10  22 3.10
                             4 3.10   5 3.10  16 3.10  17 3.10   1 3.13   2 3.13
  40  0.625  0.125  0.625-   3 3.10   7 3.10  15 3.10  19 3.10   6 3.10  18 3.10  10 3.10  22 3.10
                            12 3.10  13 3.10  24 3.10  25 3.10   1 3.13   2 3.13
  41  0.625  0.625  0.125-   3 3.10  11 3.10  15 3.10  23 3.10  14 3.10  26 3.10   6 3.10  18 3.10
                            20 3.10  21 3.10   8 3.10   9 3.10   1 3.13   2 3.13
  42  0.625  0.625  0.625-   5 3.10   8 3.10  17 3.10  20 3.10  12 3.10  13 3.10  16 3.10   4 3.10
                             9 3.10  21 3.10  24 3.10  25 3.10   1 3.13   2 3.13
  43  0.625  0.125  0.125-  29 2.56  32 2.56  35 2.56  38 2.56  27 2.56  33 2.56  20 2.78  25 2.78
                             8 2.78  13 2.78   3 2.78  15 2.78
  44  0.125  0.625  0.125-  30 2.56  31 2.56  36 2.56  37 2.56  27 2.56  33 2.56  16 2.78  21 2.78
                             4 2.78   9 2.78  11 2.78  23 2.78
  45  0.125  0.125  0.625-  29 2.56  31 2.56  35 2.56  37 2.56  28 2.56  34 2.56  17 2.78  24 2.78
                             5 2.78  12 2.78  19 2.78   7 2.78
  46  0.125  0.125  0.125-  30 2.56  32 2.56  36 2.56  38 2.56  28 2.56  34 2.56   6 2.78  10 2.78
                            14 2.78  18 2.78  22 2.78  26 2.78
[...]
  292                  map_gather                            0.000065                  2   8
  293                  m_alltoallv_z                         0.000028                  2   8
  294                  map_scatter                           0.000259                  2   8
  295                map_backward                          0.000149                    2   7
  296                  map_gather                            0.000034                  1   8
  297                  m_alltoallv_z                         0.000013                  1   8
  298                  map_scatter                           0.000080                  1   8
  299          m_sumb_d                              0.000010                          2   4
  300          pothar                                0.000118                          1   4
  301            m_sumb_d                              0.000027                        1   5
  302        brmix                                 0.028716                            1   3
  303          m_sumb_d                              0.000085                          6   4
  304          brpre                                 0.000082                          2   4
  305          setg0                                 0.003815                          1   4
  306          broyd                                 0.020037                          1   4
  307            brget                                 0.004840                      326   5
  308            brsav                                 0.002232                      163   5
  309            m_sumb_d                              0.002627                       47   5
  310        m_bcast_d                             0.000125                            2   3
  311      potlok                                0.113263                              2   2
  312        fft3d_mpi                             0.071935                           36   3
  313          fftbrc_mpi                            0.058298                         36   4
  314            fftbas_plan_mpi                       0.058270                       36   5
  315              map_forward                           0.016127                     40   6
  316                map_gather                            0.004260                   24   7
  317                m_alltoallv_z                         0.006704                   24   7
  318                map_scatter                           0.004898                   24   7
  319              map_backward                          0.013203                     32   6
  320                map_gather                            0.003132                   16   7
  321                m_alltoallv_z                         0.005553                   16   7
  322                map_scatter                           0.004255                   16   7
  323              dfftw_execute                         0.026874                     30   6
  324        m_sumb_d                              0.000026                            5   3
  325        pothar                                0.005521                            2   3
  326          m_sumb_d                              0.000026                          2   4
  327        m_bcast_d                             0.008225                            4   3
  328      potlok_metagga                        0.000000                              1   2
  329      set_dd_magatom                        0.000005                              1   2
  330      set_dd_paw                            3.450705                              1   2
  331        m_sumb_d                              0.924837                            7   3
  332      augmentation_charge                   0.410369                              1   2
  333        fft3d_mpi                             0.184249                            2   3
  334          fftbrc_mpi                            0.155241                          2   4
  335            fftbas_plan_mpi                       0.155237                        2   5
  336              dfftw_execute                         0.086999                      6   6
  337              map_backward                          0.068022                      4   6
  338                map_gather                            0.025248                    2   7
  339                m_alltoallv_z                         0.014966                    2   7
  340                map_scatter                           0.027793                    2   7
  341      fftwav_mpi                            3.169886                            936   2
  342        fftwav                                3.168499                          936   3
  343          fft3d                                 2.937847                        936   4
  344      densta                                0.004909                              1   2
  345        m_sumb_d                              0.002504                           42   3

 Flat profile

 set_dd_paw                            159.890157          63
 m_sumb_d                               67.822160      111477
 total_time                             31.534446           1
 raccmu_                                22.592135       34039
 setdij_                                18.654293          89
 eddav                                  18.511534          65
 dfftw_execute                          16.864329        1944
 lapack                                 14.564788       34039
 augmentation_charge                    14.062279          62
 init_acc                               12.286515           1
 redis_pw                                8.328756      178377
 phaser                                  4.789082         572
 fft3d_mpi                               4.724182       68152
 fft3d                                   4.359461      195446
 map_scatter                             4.141100        2553
 map_gather                              3.716861        2553
 m_alltoall_d                            3.647738      482909
 m_alltoallv_z                           3.236419        2553
 set_charge                              2.649444          61
 eccp                                    2.618187       20280
 acc_init_cublas                         2.436864           1
 orth1                                   1.812238      102157
 hamiltmu                                1.641583       34039
 fftwav                                  1.556728      129579
 redis_proj                              1.513553      223972
 rpromu_acc                              0.983103       24679
 racc0mu_acc                             0.982491       34039
 w1_copy                                 0.959741      197601
 m_bcast_z                               0.939167       35287
 soft_charge                             0.929023          61
 overl                                   0.914590      111462
 acc_init_cusolver                       0.793732           1
 setup_precond                           0.739937       20280
 potlok                                  0.695889          63
 pw_charge                               0.598765       13133
 ggemm                                   0.578909       44439
 m_bcast_d                               0.573287       68209
 overl_mu                                0.529420       34039
 rspher_all                              0.425569          14
 broyd                                   0.390483          61
 brmix                                   0.339706          61
 newband                                 0.327301       34559
 depsum                                  0.322289          61
 vhamil                                  0.302922       65867
 kinhamil                                0.297812       65867
 fftext_mpi                              0.279286       65867
 setg0                                   0.247114          63
 apply_precond                           0.246638       45587
 rpro_isp                                0.242567          52
 elmin                                   0.210005           1
 fftwav_mpi                              0.168793      129579
 fftbas_plan_mpi                         0.142131        2285
 brget                                   0.136886        9311
 acc_cufft_makeplan                      0.111529          19
 sphpro_fast                             0.108339           2
 stufak                                  0.069668           1
 proall                                  0.065164           1
 brsav                                   0.034869        2445
 lincom                                  0.028589         528
 force_and_stress                        0.026326           1
 w1_projall                              0.024129       23639
 densta                                  0.019689          66
 orthch                                  0.018061           1
 map_backward                            0.017993        2394
 fft_gq                                  0.017337          61
 map_forward                             0.016772        2176
 pothar                                  0.012105          64
 forhar                                  0.007857           2
 truncate_high_frequency_w1              0.006851       86147
 inisym                                  0.006676           1
 choleski                                0.006286           8
 strelo                                  0.005790           1
 brpre                                   0.004992         122
 strehar                                 0.004727           1
 forloc                                  0.004004           1
 rsp                                     0.003025           1
 strnlr                                  0.002246           1
 fftbrc_mpi                              0.001637        2285
 strkin                                  0.001113           1
 fornlr                                  0.000774           1
 posmap                                  0.000592           2
 brgrid                                  0.000590           1
 chggra                                  0.000436           1
 fewald                                  0.000367           1
 set_dd_magatom                          0.000295          63
 vectorpot                               0.000250          62
 fordep                                  0.000135           1
 rcp                                     0.000097           1
 crpa_reader                             0.000026           1
 acc_cufft_makeplans                     0.000010           3
 potlok_metagga                          0.000007          62
 rotate_active_occupied_orbital          0.000000           1
 redis_pw_over_bands                     0.000000           1
  summed up times     442.8817389011383

 Accumulative profile

 total_time                            442.881739           1
 elmin                                 369.231558           1
 set_dd_paw                            218.330552          63
 eddav                                  97.711153          65
 m_sumb_d                               67.822160      111477
 setdij_                                37.966290          89
 fft3d_mpi                              33.324798       68152
 set_charge                             31.890684          61
 fftbrc_mpi                             28.137243        2285
 fftbas_plan_mpi                        28.135606        2285
 hamiltmu                               27.108969       34039
 augmentation_charge                    25.808239          62
 raccmu_                                24.104046       34039
 dfftw_execute                          16.864329        1944
 force_and_stress                       16.573349           1
 lapack                                 14.564788       34039
 init_acc                               12.286515           1
 redis_pw                               10.159012      178377
 map_forward                             5.630921        2176
 fftwav_mpi                              5.621611      129579
 map_backward                            5.498225        2394
 fftwav                                  5.452817      129579
 newband                                 5.316534       34559
 phaser                                  4.789082         572
 fft3d                                   4.359461      195446
 map_scatter                             4.141100        2553
 map_gather                              3.716861        2553
 m_alltoall_d                            3.647738      482909
 redis_proj                              3.331035      223972
 m_alltoallv_z                           3.236419        2553
 soft_charge                             3.031242          61
 eccp                                    2.618187       20280
 fordep                                  2.548743           1
 acc_init_cublas                         2.436864           1
 orth1                                   1.812238      102157
 potlok                                  1.335482          63
 brmix                                   1.216278          61
 strnlr                                  1.104803           1
 kinhamil                                1.060417       65867
 rpromu_acc                              0.983103       24679
 racc0mu_acc                             0.982491       34039
 w1_copy                                 0.959741      197601
 m_bcast_z                               0.939167       35287
 overl                                   0.914590      111462
 acc_init_cusolver                       0.793732           1
 fftext_mpi                              0.762606       65867
 setup_precond                           0.739937       20280
 w1_projall                              0.697251       23639
 rpro_isp                                0.689270          52
 broyd                                   0.617793          61
 pw_charge                               0.598765       13133
 ggemm                                   0.578909       44439
 m_bcast_d                               0.573287       68209
 overl_mu                                0.529420       34039
 fft_gq                                  0.498788          61
 rspher_all                              0.425569          14
 depsum                                  0.397464          61
 fornlr                                  0.369063           1
 vhamil                                  0.302922       65867
 setg0                                   0.247114          63
 apply_precond                           0.246638       45587
 orthch                                  0.230319           1
 brget                                   0.136886        9311
 proall                                  0.117165           1
 sphpro_fast                             0.113041           2
 acc_cufft_makeplans                     0.111539           3
 acc_cufft_makeplan                      0.111529          19
 stufak                                  0.069668           1
 densta                                  0.035051          66
 brsav                                   0.034869        2445
 lincom                                  0.028589         528
 pothar                                  0.012957          64
 forhar                                  0.007902           2
 inisym                                  0.007268           1
 truncate_high_frequency_w1              0.006851       86147
 choleski                                0.006286           8
 strelo                                  0.006125           1
 brpre                                   0.004992         122
 strehar                                 0.004735           1
 forloc                                  0.004266           1
 fewald                                  0.003637           1
 rsp                                     0.003025           1
 chggra                                  0.001346           1
 strkin                                  0.001120           1
 posmap                                  0.000592           2
 brgrid                                  0.000590           1
 set_dd_magatom                          0.000295          63
 vectorpot                               0.000250          62
 rcp                                     0.000097           1
 crpa_reader                             0.000026           1
 potlok_metagga                          0.000007          62
 rotate_active_occupied_orbital          0.000000           1
 redis_pw_over_bands                     0.000000           1

Profiling took   0.422292  0.209395  0.003251  0.003136 seconds
Profiling took   0.258539 seconds