 vasp.6.4.3 19Mar24 (build Feb 19 2025 12:53:47) complex
 executed on              LinuxNV date 2025.04.25  11:31:48
 OpenACC runtime initialized ...    8 GPUs detected

 INCAR:
   ALGO = Fast
   EDIFF = 0.0004
   ENCUT = 520.0
   IBRION = 2
   ISIF = 3
   ISMEAR = -5
   ISPIN = 2
   LASPH = True
   LMAXMIX = 4
   LORBIT = 11
   LREAL = Auto
   LWAVE = False
   MAGMOM = 1*5 4*0.6 1*5 2*0.6
   NELM = 100
   NSW = 99
   PREC = Accurate
   SIGMA = 0.05

 POTCAR:    PAW_PBE Cr_pv 02Aug2007
 POTCAR:    PAW_PBE Cu_pv 06Sep2000
 POTCAR:    PAW_PBE Ni_pv 06Sep2000
 POTCAR:    PAW_PBE Sn_d 06Sep2000
 POTCAR:    PAW_PBE Cr_pv 02Aug2007
   VRHFIN =Cr : p6d5s1

   TITEL  = PAW_PBE Cr_pv 02Aug2007
   POMASS =   51.996; ZVAL   =   12.000    mass and valenz
   ENMAX  =  265.681; ENMIN  =  199.261 eV

   TITEL  = PAW_PBE Cu_pv 06Sep2000
   POMASS =   63.546; ZVAL   =   17.000    mass and valenz
   ENMAX  =  368.648; ENMIN  =  276.486 eV

   TITEL  = PAW_PBE Ni_pv 06Sep2000
   POMASS =   58.690; ZVAL   =   16.000    mass and valenz
   ENMAX  =  367.986; ENMIN  =  275.989 eV

   TITEL  = PAW_PBE Sn_d 06Sep2000
   POMASS =  118.710; ZVAL   =   14.000    mass and valenz
   ENMAX  =  241.083; ENMIN  =  180.812 eV

 Optimization of the real space projectors (new method)

 maximal supplied QI-value         = 16.25
 optimisation between [QCUT,QGAM] = [ 11.54, 23.24] = [ 37.28,151.24] Ry
 Optimized for a Real-space Cutoff    1.32 Angstroem

   l    n(q)    QCUT    max X(q) W(low)/X(q) W(high)/X(q)  e(spline)
   1      9    11.539     3.262    0.69E-04    0.25E-03    0.10E-06
   1      9    11.539     5.741    0.20E-03    0.59E-03    0.25E-06
   2      8    11.539    60.438    0.24E-03    0.41E-03    0.22E-06
   2      8    11.539    55.380    0.24E-03    0.42E-03    0.23E-06
   0      9    11.539    80.273    0.11E-03    0.13E-03    0.76E-07
   0      9    11.539    36.654    0.95E-04    0.12E-03    0.68E-07
 Optimization of the real space projectors (new method)

[...]

   l    n(q)    QCUT    max X(q) W(low)/X(q) W(high)/X(q)  e(spline)
   1      9    11.527     2.836    0.16E-04    0.30E-04    0.95E-07
   1      9    11.527     4.023    0.73E-04    0.81E-04    0.21E-06
   2      9    11.527    73.368    0.15E-03    0.29E-03    0.28E-06
   2      9    11.527    69.010    0.15E-03    0.29E-03    0.29E-06
   0      9    11.527    54.797    0.43E-04    0.28E-04    0.85E-07
   0      9    11.527    24.266    0.33E-04    0.24E-04    0.75E-07
 Optimization of the real space projectors (new method)

 maximal supplied QI-value         = 15.12
 optimisation between [QCUT,QGAM] = [ 11.64, 23.28] = [ 37.95,151.78] Ry
 Optimized for a Real-space Cutoff    1.36 Angstroem

   l    n(q)    QCUT    max X(q) W(low)/X(q) W(high)/X(q)  e(spline)
   2      9    11.641     5.880    0.49E-04    0.15E-04    0.99E-07
   2      9    11.641     7.804    0.17E-03    0.18E-03    0.15E-06
   0      9    11.641    20.557    0.10E-03    0.34E-04    0.76E-07
   0      9    11.641     9.400    0.13E-03    0.43E-04    0.95E-07
   1      9    11.641    94.178    0.25E-03    0.19E-03    0.20E-06
   1      9    11.641    56.401    0.24E-03    0.18E-03    0.20E-06
  PAW_PBE Cr_pv 02Aug2007               :
  PAW_PBE Cu_pv 06Sep2000               :
  PAW_PBE Ni_pv 06Sep2000               :
  PAW_PBE Sn_d 06Sep2000                :

 POSCAR: Cr1 Cu4 Ni1 Sn2
  positions in direct lattice

 exchange-correlation table for PE
   RHO(1)=    0.500       N(1)  =     2000
   RHO(2)=  100.500       N(2)  =     4000

 ion  position               nearest neighbor table
   1  0.000  0.000  0.000-   3 2.68   5 2.68   4 2.68   4 2.68   2 2.68   2 2.68   4 2.68   2 2.68
                             7 3.08   8 3.08   7 3.08   8 3.08   7 3.08   8 3.08
   2  0.376  0.376  0.376-   7 2.66   7 2.66   7 2.66   1 2.68   1 2.68   1 2.68   8 2.69
   3  0.874  0.874  0.874-   7 2.62   8 2.67   8 2.67   8 2.67   1 2.68
   4  0.624  0.624  0.624-   8 2.66   8 2.66   8 2.66   1 2.68   1 2.68   1 2.68   7 2.69
   5  0.126  0.126  0.126-   8 2.62   7 2.67   7 2.67   7 2.67   1 2.68
   6  0.500  0.500  0.500-   8 3.07   8 3.07   7 3.07   7 3.07   8 3.07   7 3.07
   7  0.750  0.750  0.750-   3 2.62   2 2.66   2 2.66   2 2.66   5 2.67   5 2.67   5 2.67   4 2.69
                             6 3.07   6 3.07   6 3.07   1 3.08   1 3.08   1 3.08
   8  0.250  0.250  0.250-   5 2.62   4 2.66   4 2.66   4 2.66   3 2.67   3 2.67   3 2.67   2 2.69
                             6 3.07   6 3.07   6 3.07   1 3.08   1 3.08   1 3.08

  LATTYP: Found a trigonal (rhomboedric) cell.
 ALAT       =     7.5178785571
 COS(alpha) =     0.8316537982

  Lattice vectors:

 A1 = (   7.1945230000,  -2.1811320000,   0.0000000000)
 A2 = (   7.1945230000,   2.1811320000,   0.0000000000)
 A3 = (   6.5332790000,   0.0000000000,   3.7195120000)

Analysis of symmetry for initial positions (statically):
 Subroutine PRICEL returns:
 Original cell was already a primitive cell.

 Routine SETGRP: Setting up the symmetry group for a
 trigonal (rhombohedral) supercell.

 Subroutine GETGRP returns: Found 12 space group operations
 (whereof 12 operations were pure point group operations)
 out of a pool of 12 trial point group operations.

The static configuration has the point symmetry D_3d.

Analysis of symmetry for dynamics (positions and initial velocities):
 Subroutine PRICEL returns:
 Original cell was already a primitive cell.

[...]

The dynamic configuration has the point symmetry D_3d.

Analysis of structural, dynamic, and magnetic symmetry:
 Subroutine PRICEL returns:
 Original cell was already a primitive cell.

 Routine SETGRP: Setting up the symmetry group for a
 trigonal (rhombohedral) supercell.

 Subroutine GETGRP returns: Found 12 space group operations
 (whereof 12 operations were pure point group operations)
 out of a pool of 12 trial point group operations.

The overall configuration has the point symmetry D_3d.

 Subroutine INISYM returns: Found 12 space group operations
 (whereof 12 operations are pure point group operations),
 and found     1 'primitive' translations

                                     Primitive cell

  volume of cell :     116.7347

  direct lattice vectors                    reciprocal lattice vectors
     7.194523000 -2.181132000  0.000000000     0.069497311 -0.229238762 -0.122071207
     7.194523000  2.181132000  0.000000000     0.069497311  0.229238762 -0.122071207
     6.533279000  0.000000000  3.719512000    -0.000000000  0.000000000  0.268852473

  length of vectors
     7.517878557  7.517878557  7.517878957     0.268852499  0.268852499  0.268852473

  position of ions in fractional coordinates (direct lattice)
     0.000000000  0.000000000  0.000000000
     0.376362000  0.376362000  0.376362000
     0.873918000  0.873918000  0.873918000
     0.623638000  0.623638000  0.623638000
     0.126082000  0.126082000  0.126082000
     0.500000000  0.500000000  0.500000000
     0.750442000  0.750442000  0.750442000
     0.249558000  0.249558000  0.249558000

  ion indices of the primitive-cell ions
   primitive index   ion index
                 1           1
                 2           2
                 3           3
                 4           4
                 5           5
                 6           6
                 7           7
                 8           8

 KPOINTS: pymatgen with grid density = 1088 / numb

Automatic generation of k-mesh.
 Grid dimensions read from file:
 generate k-points for:    5    5    5

 Generating k-lattice:

  Cartesian coordinates                     Fractional coordinates (reciprocal lattice)
     0.013899462 -0.045847752 -0.024414241     0.200000000 -0.000000000  0.000000000
     0.013899462  0.045847752 -0.024414241    -0.000000000  0.200000000  0.000000000
    -0.000000000  0.000000000  0.053770495     0.000000000  0.000000000  0.200000000

  Length of vectors
     0.053770500  0.053770500  0.053770495

  Shift w.r.t. Gamma in fractional coordinates (k-lattice)
     0.000000000  0.000000000  0.000000000

 TETIRR: Found     65 inequivalent tetrahedra from      750

 Subroutine IBZKPT returns following result:

 Found     19 irreducible k-points:

 Following reciprocal coordinates:
            Coordinates               Weight
  0.000000  0.000000  0.000000      1.000000
  0.200000  0.000000  0.000000      6.000000
  0.400000  0.000000  0.000000      6.000000
  0.200000  0.200000  0.000000      6.000000
  0.400000  0.200000  0.000000     12.000000
 -0.400000  0.200000  0.000000     12.000000
 -0.200000  0.200000  0.000000      6.000000
  0.400000  0.400000  0.000000      6.000000
 -0.400000  0.400000  0.000000      6.000000
  0.200000  0.200000  0.200000      2.000000
  0.400000  0.200000  0.200000      6.000000
 -0.400000  0.200000  0.200000      6.000000
 -0.200000  0.200000  0.200000      6.000000
  0.400000  0.400000  0.200000      6.000000
 -0.400000  0.400000  0.200000     12.000000
 -0.200000  0.400000  0.200000     12.000000
 -0.400000 -0.400000  0.200000      6.000000
  0.400000  0.400000  0.400000      2.000000
 -0.400000  0.400000  0.400000      6.000000

 Following cartesian coordinates:
            Coordinates               Weight
  0.000000  0.000000  0.000000      1.000000
  0.013899 -0.045848 -0.024414      6.000000
  0.027799 -0.091696 -0.048828      6.000000
  0.027799  0.000000 -0.048828      6.000000
  0.041698 -0.045848 -0.073243     12.000000
 -0.013899  0.137543  0.024414     12.000000
  0.000000  0.091696  0.000000      6.000000
  0.055598  0.000000 -0.097657      6.000000
  0.000000  0.183391  0.000000      6.000000
  0.027799  0.000000  0.004942      2.000000
  0.041698 -0.045848 -0.019472      6.000000
 -0.013899  0.137543  0.078185      6.000000
  0.000000  0.091696  0.053770      6.000000
  0.055598  0.000000 -0.043886      6.000000
  0.000000  0.183391  0.053770     12.000000
  0.013899  0.137543  0.029356     12.000000
 -0.055598  0.000000  0.151427      6.000000
  0.055598  0.000000  0.009884      2.000000
  0.000000  0.183391  0.107541      6.000000

 SYSTEM =  unknown system
 POSCAR =  Cr1 Cu4 Ni1 Sn2

 Startparameter for this run:
   NWRITE =      2    write-flag & timer
   PREC   = accura    normal or accurate (medium, high low for compatibility)
   ISTART =      0    job   : 0-new  1-cont  2-samecut
   ICHARG =      2    charge: 1-file 2-atom 10-const
   ISPIN  =      2    spin polarized calculation?
   LNONCOLLINEAR =      F non collinear calculations
   LSORBIT =      F    spin-orbit coupling
   INIWAV =      1    electr: 0-lowe 1-rand  2-diag
   LASPH  =      T    aspherical Exc in radial PAW
 Electronic Relaxation 1
   ENCUT  =  520.0 eV  38.22 Ry    6.18 a.u.  13.98 13.98 13.98*2*pi/ulx,y,z
   ENINI  =  520.0     initial cutoff
   ENAUG  =  758.2 eV  augmentation charge cutoff
   NELM   =    100;   NELMIN=  2; NELMDL= -5     # of ELM steps
   EDIFF  = 0.4E-03   stopping-criterion for ELM
   LREAL  =      T    real-space projection
   NLSPLINE    = F    spline interpolate recip. space projectors
   LCOMPAT=      F    compatible to vasp.4.4
   GGA_COMPAT  = T    GGA compatible to vasp.4.4-vasp.4.6
   LMAXPAW     = -100 max onsite density
   LMAXMIX     =    4 max onsite mixed and CHGCAR
[...]
   -.706E-10 -.236E-10 -.918E-10   -.227E-12 -.164E-15 -.142E-13   0.555E-16 0.104E-16 -.139E-16   0.390E-11 -.666E-12 0.428E-12

 POSITION                                       TOTAL-FORCE (eV/Angst)
      0.00000      0.00000      0.00000        -0.000000     -0.000000      0.000000
      7.87437     -0.00000      1.39988         0.134740     -0.000000      0.023954
     18.28440      0.00000      3.25055        -0.074897     -0.000000     -0.013315
     13.04796     -0.00000      2.31963        -0.134740     -0.000000     -0.023954
      2.63793     -0.00000      0.46896         0.074897     -0.000000      0.013315
     10.46116      0.00000      1.85976        -0.000000      0.000000      0.000000
     15.70099      0.00000      2.79128        -0.051400     -0.000000     -0.009138
      5.22133     -0.00000      0.92823         0.051400     -0.000000      0.009138
    total drift:                               -0.000000     -0.000000     -0.000000

  FREE ENERGIE OF THE ION-ELECTRON SYSTEM (eV)
  free  energy   TOTEN  =       -36.62080482 eV

  energy  without entropy=      -36.62080482  energy(sigma->0) =      -36.62080482

|           W    W    AA    RRRRR   N    N  II  N    N   GGGG   !!!           |
|           W    W   A  A   R    R  NN   N  II  NN   N  G    G  !!!           |
|           W    W  A    A  R    R  N N  N  II  N N  N  G       !!!           |
|           W WW W  AAAAAA  RRRRR   N  N N  II  N  N N  G  GGG   !            |
|           WW  WW  A    A  R   R   N   NN  II  N   NN  G    G                |
|           W    W  A    A  R    R  N    N  II  N    N   GGGG   !!!           |
|     Tetrahedron method does not include variations of the Fermi             |
|     occupations, so forces and stress will be inaccurate. We suggest        |
|     using a different smearing scheme ISMEAR = 1 or 2 for metals in         |
|     relaxations.                                                            |

[...]

 d Force = 0.2271861E-02[ 0.192E-02, 0.262E-02]  d Energy = 0.4057415E-02-0.179E-02
 d Force =-0.2781343E+01[-0.285E+01,-0.271E+01]  d Ewald  = 0.4658373E+02-0.494E+02

 Steepest descent step on ions:
 trial-energy change:   -0.004057  1 .order   -0.001777   -0.007106    0.003553
  (g-gl).g = 0.711E-02      g.g   = 0.711E-02  gl.gl    = 0.000E+00
 g(Force)  = 0.263E-02   g(Stress)= 0.448E-02 ortho     = 0.000E+00
 gamma     =   0.00000
 trial     =   1.00000
 opt step  =   0.83959  (harmonic =   0.66670) maximal distance =0.00545750
 next E    =   -36.625138   (d E  =  -0.00433)

|           W    W    AA    RRRRR   N    N  II  N    N   GGGG   !!!           |
|           W    W   A  A   R    R  NN   N  II  NN   N  G    G  !!!           |
|           W    W  A    A  R    R  N N  N  II  N N  N  G       !!!           |
|           W WW W  AAAAAA  RRRRR   N  N N  II  N  N N  G  GGG   !            |
|           WW  WW  A    A  R   R   N   NN  II  N   NN  G    G                |
|           W    W  A    A  R    R  N    N  II  N    N   GGGG   !!!           |
|     Tetrahedron method does not include variations of the Fermi             |
|     occupations, so forces and stress will be inaccurate. We suggest        |
|     using a different smearing scheme ISMEAR = 1 or 2 for metals in         |
|     relaxations.                                                            |

--------------------------------------- Ionic step        3  -------------------------------------------

[...]

 eigenvalue-minimisations  :  6265
 total energy-change (2. order) : 0.5193119E-02  (-0.5911877E-03)
 number of electron     123.9999932 magnetization       3.4124500
 augmentation part       73.8334744 magnetization       2.1519103

 Broyden mixing:
  rms(total) = 0.19866E-01    rms(broyden)= 0.19862E-01
  rms(prec ) = 0.28857E-01
  weight for this iteration     100.00

 eigenvalues of (default mixing * dielectric matrix)
  average eigenvalue GAMMA=   0.5887
  1.0521  0.1552  0.5588

[...]

--------------------------------------- Iteration      3(   5)  ---------------------------------------

[...]

 eigenvalue-minimisations  :  4438
 total energy-change (2. order) :-0.1705949E-03  (-0.6052451E-04)
 number of electron     123.9999932 magnetization       3.4124500
 augmentation part       73.8334744 magnetization       2.1519103

 Free energy of the ion-electron system (eV)
  alpha Z        PSCENC =       832.86857765
  Ewald energy   TEWEN  =    -16480.55079381
  -Hartree energ DENC   =     -7734.79188228
  -exchange      EXHF   =         0.00000000
  -V(xc)+E(xc)   XCENC  =       686.25940882
  PAW double counting   =     22918.67123983   -23800.98506582
  entropy T*S    EENTRO =         0.00000000
  eigenvalues    EBANDS =     -1873.55155361
  atomic energy  EATOM  =     25415.45474088
  Solvation  Ediel_sol  =         0.00000000
  free energy    TOTEN  =       -36.62532832 eV

  energy without entropy =      -36.62532832  energy(sigma->0) =      -36.62532832

 average (electrostatic) potential at core
  the test charge radii are     1.0025  0.8297  0.8614  1.0894
  (the norm of the test charge is              1.0000)
       1 -67.0358       2 -78.1337       3 -78.0408       4 -78.1337       5 -78.0408
       6 -77.5413       7 -98.2411       8 -98.2411

 E-fermi :   9.0187     XC(G=0): -12.4764     alpha+bet :-14.7679

 val. band max:        9.0172189931   @ k =   0.4000   0.4000   0.2000
 cond. band min:       8.9424928422   @ k =  -0.4000   0.2000   0.0000
 fundamental gap:     -0.0747261510
 Fermi energy:         9.0186841990

[...]

 k-point    19 :      -0.4000    0.4000    0.4000
  band No.  band energies     occupation
      1     -61.6304      1.00000
      2     -61.6303      1.00000
      3     -61.6286      1.00000
      4     -61.6282      1.00000
      5     -61.5910      1.00000
      6     -61.5890      1.00000
      7     -61.5581      1.00000
      8     -61.5563      1.00000
      9     -61.4699      1.00000
     10     -61.4697      1.00000
     11     -61.4674      1.00000
     12     -61.4671      1.00000
     13     -53.9226      1.00000
     14     -53.9225      1.00000
     15     -53.8939      1.00000
     16     -35.0642      1.00000
     17     -35.0080      1.00000
     18     -35.0076      1.00000
     19     -12.6651      1.00000
     20     -12.6614      1.00000
     21     -12.6504      1.00000
     22     -12.6503      1.00000
     23     -12.6497      1.00000
     24     -12.6467      1.00000
     25     -12.6205      1.00000
     26     -12.6166      1.00000
     27     -12.6157      1.00000
     28     -12.6135      1.00000
     29      -1.1704      1.00000
     30      -0.9953      1.00000
     31       3.4899      1.00000
     32       3.6091      1.00000
     33       4.4676      1.00000
     34       4.4775      1.00000
     35       4.6552      1.00000
     36       4.7422      1.00000
     37       4.9905      1.00000
     38       5.0409      1.00000
     39       5.0633      1.00000
     40       5.2198      1.00000
     41       5.3014      1.00000
     42       5.4246      1.00000
     43       5.5085      1.00000
     44       5.5882      1.00000
     45       5.6743      1.00000
     46       5.6993      1.00000
     47       5.7773      1.00000
     48       5.8475      1.00000
     49       5.8958      1.00000
     50       6.1244      1.00000
     51       6.2622      1.00000
     52       6.3562      1.00000
     53       6.5878      1.00000
     54       6.8058      1.00000
     55       7.3027      1.00000
     56       7.5664      1.00000
     57       7.6189      1.00000
     58       7.7426      1.00000
     59       7.9511      1.00000
     60       8.0040      1.00000
[...]
     74      14.4048      0.00000
     75      14.7342      0.00000
     76      15.1726      0.00000
     77      16.1687      0.00000
     78      16.3181      0.00000
     79      16.9478      0.00000
     80      17.9495      0.00000
     81      18.8603      0.00000
     82      19.1816      0.00000
     83      20.1329      0.00000
     84      20.2937      0.00000
     85      20.3008      0.00000
     86      20.9289      0.00000
     87      21.2726      0.00000
     88      23.4059      0.00000
 Fermi energy:         9.0186841990

 spin component 2

[...]

 k-point    19 :      -0.4000    0.4000    0.4000
  band No.  band energies     occupation
      1     -61.5640      1.00000
      2     -61.5639      1.00000
      3     -61.5621      1.00000
      4     -61.5617      1.00000
      5     -61.5369      1.00000
      6     -61.5349      1.00000
      7     -61.5254      1.00000
      8     -61.5236      1.00000
      9     -61.4681      1.00000
     10     -61.4679      1.00000
     11     -61.4656      1.00000
     12     -61.4653      1.00000
     13     -53.9515      1.00000
     14     -53.9514      1.00000
     15     -53.9375      1.00000
     16     -31.7773      1.00000
     17     -31.7465      1.00000
     18     -31.7459      1.00000
     19     -12.6813      1.00000
     20     -12.6774      1.00000
     21     -12.6669      1.00000
     22     -12.6667      1.00000
     23     -12.6662      1.00000
     24     -12.6632      1.00000
     25     -12.6303      1.00000
     26     -12.6265      1.00000
     27     -12.6255      1.00000
     28     -12.6233      1.00000
     29      -1.1592      1.00000
     30      -0.9746      1.00000
     31       3.5703      1.00000
     32       3.7170      1.00000
     33       4.5210      1.00000
     34       4.5864      1.00000
     35       4.7168      1.00000
     36       4.7834      1.00000
     37       5.0689      1.00000
     38       5.0923      1.00000
     39       5.1292      1.00000
     40       5.2623      1.00000
     41       5.4635      1.00000
     42       5.6195      1.00000
     43       5.6273      1.00000
     44       5.6419      1.00000
     45       5.7259      1.00000
     46       5.7328      1.00000
     47       5.8037      1.00000
     48       5.8646      1.00000
     49       5.9258      1.00000
     50       6.1920      1.00000
     51       6.5334      1.00000
     52       6.6063      1.00000
     53       6.7938      1.00000
     54       7.1131      1.00000
     55       7.6662      1.00000
     56       7.7815      1.00000
     57       7.7859      1.00000
     58       8.4328      1.00000
     59       8.6323      1.00000
     60       9.0159      0.68705
[...]
     74      14.7920      0.00000
     75      14.9341      0.00000
     76      16.2530      0.00000
     77      16.7262      0.00000
     78      17.0653      0.00000
     79      18.3201      0.00000
     80      19.0100      0.00000
     81      19.3618      0.00000
     82      19.6741      0.00000
     83      20.3319      0.00000
     84      20.5384      0.00000
     85      20.5574      0.00000
     86      21.0455      0.00000
     87      21.7481      0.00000
     88      23.4641      0.00000

[...]

 soft charge-density along one line, spin component            2
         0         1         2         3         4         5         6         7         8         9
 total charge-density along one line

------------------------ aborting loop because EDIFF is reached ----------------------------------------

[...]

  FORCE on cell =-STRESS in cart. coord.  units (eV):
  Direction    XX          YY          ZZ          XY          YZ          ZX
  Alpha Z   832.86858   832.86858   832.86858
  Ewald   -5529.60667 -5474.61519 -5476.35340    -0.00000     0.00000    -9.77620
  Hartree  2530.97530  2603.40446  2601.11547    -0.00000     0.00000   -12.87618
  E(xc)    -862.74411  -862.75739  -862.75697     0.00000    -0.00000     0.00236
  Local     599.57004   469.23126   473.35031     0.00000     0.00000    23.17106
  n-local  -351.63956  -352.18403  -352.23517    -0.19023     1.36728    -0.52814
  augment  1379.82539  1381.11110  1381.07071    -0.00000     0.00000    -0.22851
  Kinetic  1401.40176  1401.16320  1404.75533    -0.55188     2.04349    -1.04901
  Fock        0.00000     0.00000     0.00000     0.00000     0.00000     0.00000
  Total       0.24291     0.22201     0.22267     0.00000     0.00000     0.00372
  in kB       3.35927     3.07014     3.07928     0.00000     0.00000     0.05140

 VOLUME and BASIS-vectors are now :
  energy-cutoff  :      520.00
  volume of cell :      115.86
      direct lattice vectors                 reciprocal lattice vectors
     7.177910095 -2.175413124  0.000400169     0.069664982 -0.229841401 -0.122394788
     7.177910095  2.175413124  0.000400169     0.069664982  0.229841401 -0.122394788
     6.518399861 -0.000000000  3.710159695    -0.000015028 -0.000000000  0.269556580

  length of vectors
     7.500321043  7.500321043  7.500321440     0.269556605  0.269556605  0.269556580

 FORCES acting on ions
    electron-ion (+dipol)            ewald-force                    non-local-force                 convergence-correction
   -.728E-12 -.116E-13 -.105E-12   0.568E-13 0.296E-13 0.497E-13   0.000E+00 0.000E+00 0.000E+00   -.548E-11 0.114E-11 0.386E-11
   0.184E+03 0.217E-10 0.327E+02   -.184E+03 0.547E-14 -.327E+02   -.119E-01 -.173E-17 -.211E-02   0.636E-01 0.280E-11 0.113E-01
   -.166E+03 -.106E-10 -.295E+02   0.166E+03 -.173E-12 0.296E+02   -.509E+00 0.104E-16 -.905E-01   -.366E-01 0.501E-11 -.651E-02
   -.184E+03 0.442E-11 -.327E+02   0.184E+03 -.120E-13 0.327E+02   0.119E-01 0.694E-17 0.211E-02   -.636E-01 0.664E-11 -.113E-01
   0.166E+03 0.343E-11 0.295E+02   -.166E+03 0.155E-12 -.296E+02   0.509E+00 0.694E-17 0.905E-01   0.366E-01 0.185E-11 0.651E-02
   0.399E-12 -.200E-10 -.331E-11   -.398E-12 0.165E-15 -.114E-12   0.529E-22 0.529E-22 0.000E+00   -.252E-11 -.231E-11 0.143E-10
   0.171E+03 -.430E-11 0.303E+02   -.170E+03 -.196E-12 -.303E+02   -.265E+00 0.000E+00 -.472E-01   0.102E-01 0.259E-11 0.181E-02
   -.171E+03 0.238E-12 -.303E+02   0.170E+03 0.181E-12 0.303E+02   0.265E+00 0.347E-17 0.472E-01   -.102E-01 -.248E-11 -.181E-02
   0.225E-09 -.516E-11 0.865E-10   0.114E-12 -.993E-14 0.213E-13   0.555E-16 0.260E-16 -.139E-16   0.119E-10 0.152E-10 0.843E-11

 POSITION                                       TOTAL-FORCE (eV/Angst)
      0.00000     -0.00000      0.00000         0.000000     -0.000000      0.000000
      7.86171     -0.00000      1.39763         0.198285     -0.000000      0.035251
     18.23933      0.00000      3.24254        -0.117880     -0.000000     -0.020956
     13.01251      0.00000      2.31333        -0.198285     -0.000000     -0.035251
      2.63489      0.00000      0.46842         0.117880     -0.000000      0.020956
     10.43711     -0.00000      1.85548         0.000000      0.000000      0.000000
     15.66282      0.00000      2.78449        -0.072266     -0.000000     -0.012847
      5.21140     -0.00000      0.92647         0.072266     -0.000000      0.012847
    total drift:                                0.000000      0.000000      0.000000

  FREE ENERGIE OF THE ION-ELECTRON SYSTEM (eV)
  free  energy   TOTEN  =       -36.62532832 eV

  energy  without entropy=      -36.62532832  energy(sigma->0) =      -36.62532832

 d Force =-0.4682519E-03[-0.627E-03,-0.309E-03]  d Energy = 0.4660851E-03-0.934E-03
 d Force = 0.4568161E+00[ 0.455E+00, 0.459E+00]  d Ewald  =-0.7481825E+01 0.794E+01

 reached required accuracy - stopping structural energy minimisation
|           W    W    AA    RRRRR   N    N  II  N    N   GGGG   !!!           |
|           W    W   A  A   R    R  NN   N  II  NN   N  G    G  !!!           |
|           W    W  A    A  R    R  N N  N  II  N N  N  G       !!!           |
|           W WW W  AAAAAA  RRRRR   N  N N  II  N  N N  G  GGG   !            |
|           WW  WW  A    A  R   R   N   NN  II  N   NN  G    G                |
|           W    W  A    A  R    R  N    N  II  N    N   GGGG   !!!           |
|     Tetrahedron method does not include variations of the Fermi             |
|     occupations, so forces and stress will be inaccurate. We suggest        |
|     using a different smearing scheme ISMEAR = 1 or 2 for metals in         |
|     relaxations.                                                            |

 total charge

[...]

 magnetization (x)

# of ion       s       p       d       tot
    1        0.043   0.028   3.228   3.299
    2       -0.010  -0.003   0.049   0.036
    3       -0.005  -0.001   0.009   0.004
    4       -0.010  -0.003   0.049   0.036
    5       -0.005  -0.001   0.009   0.004
    6        0.010  -0.002  -0.028  -0.020
    7       -0.012  -0.056   0.004  -0.064
    8       -0.012  -0.056   0.004  -0.064
tot         -0.000  -0.094   3.323   3.229

 BZINTS: Fermi energy:    9.018684;  124.000000 electrons
         Band energy:-0.187355E+04;  BLOECHL correction:   -0.165960