 vasp.6.3.2 27Jun22 (build Jul  3 2023 11:46:21) complex
 executed on    LinuxNV_CrayMPICH date 2024.04.22  00:39:59

 INCAR:
   ADDGRID = True
   ALGO = Normal
   EDIFF = 5e-05
   ENCUT = 520.0
   IBRION = -1
   ISIF = 3
   ISMEAR = -5
   ISPIN = 2
   LAECHG = True
   LASPH = True
   LCHARG = True
   LORBIT = 11
   LREAL = Auto
   LVHAR = True
   LWAVE = False
   MAGMOM = 1*7.0 2*5.0 2*0.6
   NELM = 1000
   NSW = 0
   PREC = Accurate
   SIGMA = 0.05

 POTCAR:    PAW_PBE Gd 23Dec2003
 POTCAR:    PAW_PBE Ni_pv 06Sep2000
 POTCAR:    PAW_PBE Ge_d 03Jul2007
 POTCAR:    PAW_PBE Gd 23Dec2003
   VRHFIN =Gd : [core=Xe4]

   TITEL  = PAW_PBE Gd 23Dec2003
   POMASS =  157.250; ZVAL   =   18.000    mass and valenz
   ENMAX  =  256.472; ENMIN  =  192.354 eV

   TITEL  = PAW_PBE Ni_pv 06Sep2000
   POMASS =   58.690; ZVAL   =   16.000    mass and valenz
   ENMAX  =  367.986; ENMIN  =  275.989 eV

   TITEL  = PAW_PBE Ge_d 03Jul2007
   POMASS =   72.610; ZVAL   =   14.000    mass and valenz
   ENMAX  =  310.294; ENMIN  =  232.720 eV

 Optimization of the real space projectors (new method)

 maximal supplied QI-value         = 13.42
 optimisation between [QCUT,QGAM] = [ 11.67, 23.35] = [ 38.16,152.62] Ry
 Optimized for a Real-space Cutoff    1.63 Angstroem

   l    n(q)    QCUT    max X(q) W(low)/X(q) W(high)/X(q)  e(spline)
   0     11    11.673    10.501    0.14E-04    0.17E-05    0.21E-07
   0     11    11.673     9.148    0.21E-04    0.32E-05    0.45E-07
   1     11    11.673     4.035    0.33E-05    0.11E-04    0.84E-07
   1     11    11.673     4.388    0.11E-04    0.47E-04    0.34E-06
   2     10    11.673    20.656    0.12E-04    0.28E-04    0.54E-06
   2     10    11.673    12.651    0.11E-04    0.26E-04    0.51E-06
   3     10    11.673    61.921    0.19E-03    0.22E-03    0.23E-06
   3     10    11.673    48.328    0.20E-03    0.23E-03    0.23E-06
 Optimization of the real space projectors (new method)

[...]

   l    n(q)    QCUT    max X(q) W(low)/X(q) W(high)/X(q)  e(spline)
   1      9    11.527     2.836    0.16E-04    0.30E-04    0.95E-07
   1      9    11.527     4.023    0.73E-04    0.81E-04    0.21E-06
   2      9    11.527    73.368    0.15E-03    0.29E-03    0.28E-06
   2      9    11.527    69.010    0.15E-03    0.29E-03    0.29E-06
   0      9    11.527    54.797    0.43E-04    0.28E-04    0.85E-07
   0      9    11.527    24.266    0.33E-04    0.24E-04    0.75E-07
 Optimization of the real space projectors (new method)

 maximal supplied QI-value         = 16.25
 optimisation between [QCUT,QGAM] = [ 11.54, 23.24] = [ 37.28,151.24] Ry
 Optimized for a Real-space Cutoff    1.53 Angstroem

   l    n(q)    QCUT    max X(q) W(low)/X(q) W(high)/X(q)  e(spline)
   2     10    11.539     8.936    0.13E-03    0.18E-03    0.23E-06
   2     10    11.539     8.183    0.16E-03    0.22E-03    0.28E-06
   0     11    11.539    62.777    0.61E-04    0.20E-04    0.15E-06
   0     11    11.539    50.556    0.58E-04    0.19E-04    0.14E-06
   1     10    11.539    38.422    0.20E-04    0.75E-05    0.16E-06
   1     10    11.539    22.623    0.19E-04    0.69E-05    0.15E-06
  PAW_PBE Gd 23Dec2003                  :
  PAW_PBE Ni_pv 06Sep2000               :
  PAW_PBE Ge_d 03Jul2007                :

 POSCAR: Gd1 Ni2 Ge2
  positions in direct lattice
 exchange correlation table for  LEXCH =        8
   RHO(1)=    0.500       N(1)  =     2000
   RHO(2)=  100.500       N(2)  =     4000

 VTST: version 4.2, (08/11/21)

 CHAIN: initializing optimizer

 OPT: Using VASP Dynamics algorithm
 CHAIN: Read ICHAIN             0

 POSCAR: Gd1 Ni2 Ge2
  positions in direct lattice

 ion  position               nearest neighbor table
   1  0.000  0.000  0.000-   5 3.16   5 3.16   5 3.16   4 3.16   5 3.16   4 3.16   4 3.16   4 3.16

   2  0.250  0.750  0.500-   4 2.37   5 2.37   4 2.37   5 2.37
   3  0.750  0.250  0.500-   4 2.37   5 2.37   4 2.37   5 2.37
   4  0.371  0.371  0.000-   2 2.37   3 2.37   2 2.37   3 2.37   5 2.55   1 3.16   1 3.16   1 3.16
                             1 3.16
   5  0.629  0.629  0.000-   2 2.37   3 2.37   2 2.37   3 2.37   4 2.55   1 3.16   1 3.16   1 3.16
                             1 3.16

  LATTYP: Found a body centered tetragonal cell.
 ALAT       =     4.0847880000
 C/A-ratio  =     2.4291875123

  Lattice vectors:

 A1 = (  -2.0423940000,   2.0423940000,   4.9613580000)
 A2 = (   2.0423940000,  -2.0423940000,   4.9613580000)
 A3 = (   2.0423940000,   2.0423940000,  -4.9613580000)

Analysis of symmetry for initial positions (statically):
 Subroutine PRICEL returns:
 Original cell was already a primitive cell.

 Routine SETGRP: Setting up the symmetry group for a
 body centered tetragonal supercell.

 Subroutine GETGRP returns: Found 16 space group operations
 (whereof 16 operations were pure point group operations)
 out of a pool of 16 trial point group operations.

The static configuration has the point symmetry D_4h.

Analysis of symmetry for dynamics (positions and initial velocities):
 Subroutine PRICEL returns:
 Original cell was already a primitive cell.

[...]

The dynamic configuration has the point symmetry D_4h.

Analysis of structural, dynamic, and magnetic symmetry:
 Subroutine PRICEL returns:
 Original cell was already a primitive cell.

 Routine SETGRP: Setting up the symmetry group for a
 body centered tetragonal supercell.

 Subroutine GETGRP returns: Found 16 space group operations
 (whereof 16 operations were pure point group operations)
 out of a pool of 16 trial point group operations.

The overall configuration has the point symmetry D_4h.

 Subroutine INISYM returns: Found 16 space group operations
 (whereof 16 operations are pure point group operations),
 and found     1 'primitive' translations

                                     Primitive cell

  volume of cell :      82.7827

  direct lattice vectors                    reciprocal lattice vectors
    -2.042394000  2.042394000  4.961358000     0.000000000  0.244810747  0.100778859
     2.042394000 -2.042394000  4.961358000     0.244810747  0.000000000  0.100778859
     2.042394000  2.042394000 -4.961358000     0.244810747  0.244810747  0.000000000

  length of vectors
     5.740890149  5.740890149  5.740890149     0.264742668  0.264742668  0.346214678

  position of ions in fractional coordinates (direct lattice)
     0.000000000  0.000000000  0.000000000
     0.250000000  0.750000000  0.500000000
     0.750000000  0.250000000  0.500000000
     0.371380000  0.371380000  0.000000000
     0.628620000  0.628620000  0.000000000

  ion indices of the primitive-cell ions
   primitive index   ion index
                 1           1
                 2           2
                 3           3
                 4           4
                 5           5

 KPOINTS: Kpoints from vasprun.xml

Automatic generation of k-mesh.
 Grid dimensions read from file:
 generate k-points for:    6    6    6

 Generating k-lattice:

  Cartesian coordinates                     Fractional coordinates (reciprocal lattice)
     0.000000000  0.040801791  0.016796477     0.166666667 -0.000000000  0.000000000
     0.040801791  0.000000000  0.016796477    -0.000000000  0.166666667  0.000000000
     0.040801791  0.040801791  0.000000000     0.000000000 -0.000000000  0.166666667

  Length of vectors
     0.044123778  0.044123778  0.057702446

  Shift w.r.t. Gamma in fractional coordinates (k-lattice)
     0.500000000  0.500000000  0.500000000

 TETIRR: Found    278 inequivalent tetrahedra from     1296

 Subroutine IBZKPT returns following result:

 Found     28 irreducible k-points:

 Following reciprocal coordinates:
            Coordinates               Weight
  0.083333  0.083333  0.083333      8.000000
  0.250000  0.083333  0.083333     16.000000
  0.416667  0.083333  0.083333      8.000000
 -0.083333  0.083333  0.083333      4.000000
  0.250000  0.250000  0.083333      8.000000
  0.416667  0.250000  0.083333     16.000000
 -0.416667  0.250000  0.083333      8.000000
 -0.250000  0.250000  0.083333      8.000000
 -0.083333  0.250000  0.083333      8.000000
  0.416667  0.416667  0.083333      4.000000
 -0.416667  0.416667  0.083333      8.000000
 -0.250000  0.416667  0.083333     16.000000
 -0.083333  0.416667  0.083333      8.000000
 -0.416667 -0.416667  0.083333      8.000000
 -0.250000 -0.416667  0.083333     16.000000
 -0.083333 -0.416667  0.083333      8.000000
 -0.250000 -0.250000  0.083333      8.000000
 -0.083333 -0.250000  0.083333      8.000000
 -0.083333 -0.083333  0.083333      2.000000
  0.250000  0.250000  0.250000      2.000000
 -0.250000  0.250000  0.250000      4.000000
 -0.416667  0.416667  0.250000      8.000000
 -0.250000  0.416667  0.250000      8.000000
 -0.416667 -0.416667  0.250000      8.000000
 -0.250000 -0.416667  0.250000      8.000000
 -0.250000 -0.250000  0.250000      2.000000
 -0.416667  0.416667  0.416667      4.000000
 -0.416667 -0.416667  0.416667      2.000000

 Following cartesian coordinates:
            Coordinates               Weight
  0.040802  0.040802  0.016796      8.000000
  0.040802  0.081604  0.033593     16.000000
  0.040802  0.122405  0.050389      8.000000
  0.040802  0.000000  0.000000      4.000000
  0.081604  0.081604  0.050389      8.000000
  0.081604  0.122405  0.067186     16.000000
  0.081604 -0.081604 -0.016796      8.000000
  0.081604 -0.040802  0.000000      8.000000
  0.081604  0.000000  0.016796      8.000000
  0.122405  0.122405  0.083982      4.000000
  0.122405 -0.081604  0.000000      8.000000
  0.122405 -0.040802  0.016796     16.000000
  0.122405  0.000000  0.033593      8.000000
 -0.081604 -0.081604 -0.083982      8.000000
 -0.081604 -0.040802 -0.067186     16.000000
 -0.081604  0.000000 -0.050389      8.000000
 -0.040802 -0.040802 -0.050389      8.000000
 -0.040802  0.000000 -0.033593      8.000000
  0.000000  0.000000 -0.016796      2.000000
  0.122405  0.122405  0.050389      2.000000
  0.122405  0.000000  0.000000      4.000000
  0.163207 -0.040802  0.000000      8.000000
  0.163207  0.000000  0.016796      8.000000
 -0.040802 -0.040802 -0.083982      8.000000
 -0.040802  0.000000 -0.067186      8.000000
  0.000000  0.000000 -0.050389      2.000000
  0.204009  0.000000  0.000000      4.000000
  0.000000  0.000000 -0.083982      2.000000

 SYSTEM =  unknown system
 POSCAR =  Gd1 Ni2 Ge2

 Startparameter for this run:
   NWRITE =      2    write-flag & timer
   PREC   = accura    normal or accurate (medium, high low for compatibility)
   ISTART =      0    job   : 0-new  1-cont  2-samecut
   ICHARG =      2    charge: 1-file 2-atom 10-const
   ISPIN  =      2    spin polarized calculation?
   LNONCOLLINEAR =      F non collinear calculations
   LSORBIT =      F    spin-orbit coupling
   INIWAV =      1    electr: 0-lowe 1-rand  2-diag
   LASPH  =      T    aspherical Exc in radial PAW
 Electronic Relaxation 1
   ENCUT  =  520.0 eV  38.22 Ry    6.18 a.u.  10.67 10.67 10.67*2*pi/ulx,y,z
   ENINI  =  520.0     initial cutoff
   ENAUG  =  703.4 eV  augmentation charge cutoff
   NELM   =   1000;   NELMIN=  2; NELMDL= -5     # of ELM steps
   EDIFF  = 0.5E-04   stopping-criterion for ELM
   LREAL  =      T    real-space projection
[...]
  287          fft3d_mpi                             0.000461                          3   4
  288            fftbrc_mpi                            0.000363                        3   5
  289              fftbas_plan_mpi                       0.000362                      3   6
  290                map_forward                           0.000194                    4   7
  291                  map_gather                            0.000042                  2   8
  292                  m_alltoallv_z                         0.000028                  2   8
  293                  map_scatter                           0.000097                  2   8
  294                map_backward                          0.000083                    2   7
  295                  map_gather                            0.000021                  1   8
  296                  m_alltoallv_z                         0.000012                  1   8
  297                  map_scatter                           0.000035                  1   8
  298          m_sumb_d                              0.000009                          2   4
  299          pothar                                0.000084                          1   4
  300            m_sumb_d                              0.000014                        1   5
  301        brmix                                 0.005477                            1   3
  302          m_sumb_d                              0.000044                          6   4
  303          brpre                                 0.000019                          2   4
  304          setg0                                 0.000774                          1   4
  305          broyd                                 0.003744                          1   4
  306            m_sumb_d                              0.000404                       48   5
  307            brget                                 0.000707                      214   5
  308            brsav                                 0.000157                       46   5
  309        m_bcast_d                             0.000019                            2   3
  310      potlok                                0.028185                              2   2
  311        fft3d_mpi                             0.019137                           36   3
  312          fftbrc_mpi                            0.016078                         36   4
  313            fftbas_plan_mpi                       0.016061                       36   5
  314              map_forward                           0.004769                     40   6
  315                map_gather                            0.001579                   24   7
  316                m_alltoallv_z                         0.001618                   24   7
  317                map_scatter                           0.001393                   24   7
  318              map_backward                          0.003895                     32   6
  319                map_gather                            0.001226                   16   7
  320                m_alltoallv_z                         0.001369                   16   7
  321                map_scatter                           0.001113                   16   7
  322              dfftw_execute                         0.005625                     30   6
  323        m_sumb_d                              0.000026                            5   3
  324        pothar                                0.001268                            2   3
  325          m_sumb_d                              0.000124                          2   4
  326        m_bcast_d                             0.001846                            4   3
  327      potlok_metagga                        0.000001                              1   2
  328      set_dd_magatom                        0.000004                              1   2
  329      set_dd_paw                            1.555240                              1   2
  330        m_sumb_d                              0.971541                            7   3
  331      augmentation_charge                   0.124589                              1   2
  332        fft3d_mpi                             0.033431                            2   3
  333          fftbrc_mpi                            0.028703                          2   4
  334            fftbas_plan_mpi                       0.028700                        2   5
  335              dfftw_execute                         0.018675                      6   6
  336              map_backward                          0.009752                      4   6
  337                map_gather                            0.002423                    2   7
  338                m_alltoallv_z                         0.004843                    2   7
  339                map_scatter                           0.002479                    2   7
  340      densta                                1.061580                              1   2

 Flat profile

 raccmu_                               149.347722      149570
 m_sumb_d                              143.672606      464516
 eddav                                  70.064784         116
 set_dd_paw                             65.825380         114
 lapack                                 63.729695      149570
 redis_pw                               27.423239      819580
 phaser                                 24.934735        6860
 m_alltoall_d                           15.457331     2188844
 densta                                 15.157223         117
 setdij_                                12.285740         140
 init_acc                               11.832638           1
 augmentation_charge                    10.425441         113
 total_time                             10.188296           1
 eccp                                    8.445144       90944
 redis_proj                              7.077831     1027832
 fft3d                                   6.579850      881102
 dfftw_execute                           5.900608        3108
 fftwav                                  5.637644      581962
 orth1                                   5.058772      448822
 soft_charge                             4.471204         112
 racc0mu_acc                             4.400983      149570
 w1_copy                                 4.378336      897420
 overl                                   4.200687      507392
 rpromu_acc                              3.639984      107010
 hamiltmu                                3.568848      149570
 acc_init_cublas                         3.352053           1
 setup_precond                           3.323756       90944
 m_bcast_z                               3.228798      152706
 overl_mu                                2.410705      149570
 m_bcast_d                               2.378630      299373
 ggemm                                   2.097688      195042
 pw_charge                               1.763323       64434
 m_alltoallv_z                           1.556436        4451
 depsum                                  1.407079         112
 vhamil                                  1.397205      299140
 kinhamil                                1.364223      299140
 newband                                 1.312805      156066
 fftext_mpi                              1.261118      299140
 fft3d_mpi                               1.184271      303139
 apply_precond                           1.140229      208196
 acc_init_cusolver                       1.073402           1
 map_scatter                             0.947290        4451
 set_charge                              0.932516         112
 map_gather                              0.783162        4451
 fftwav_mpi                              0.770698      581962
 rpro_isp                                0.581464         364
 potlok                                  0.409549         114
 acc_cufft_makeplan                      0.278842          19
 rspher_all                              0.245359          14
 broyd                                   0.240326         112
 fftbas_plan_mpi                         0.216626        3999
 lincom                                  0.210644        6552
 elmin                                   0.208149           1
 brmix                                   0.111040         112
 w1_projall                              0.105512      104098
 setg0                                   0.090532         114
 brget                                   0.067196       21645
 sphpro_fast                             0.057143           2
 proall                                  0.046573           1
 truncate_high_frequency_w1              0.031521      390084
 map_backward                            0.023377        4218
 map_forward                             0.021068        3780
 choleski                                0.020299          56
 brsav                                   0.018064        6021
 orthch                                  0.013773           1
 force_and_stress                        0.010567           1
 pothar                                  0.009532         115
 strnlr                                  0.007703           1
 inisym                                  0.004545           1
 fft_gq                                  0.003898         112
 fornlr                                  0.002671           1
 stufak                                  0.002535           1
 fftbrc_mpi                              0.002486        3999
 brpre                                   0.002279         224
 forhar                                  0.001950           2
 strelo                                  0.001728           1
 strehar                                 0.001225           1
 forloc                                  0.001019           1
 set_dd_magatom                          0.000507         114
 vectorpot                               0.000469         113
 strkin                                  0.000335           1
 fewald                                  0.000328           1
 chggra                                  0.000228           1
 brgrid                                  0.000163           1
 rsp                                     0.000093           1
 fordep                                  0.000049           1
 crpa_reader                             0.000025           1
 posmap                                  0.000022           2
 potlok_metagga                          0.000015         113
 rcp                                     0.000012           1
 acc_cufft_makeplans                     0.000007           3
 rotate_active_occupied_orbital          0.000000           1
 redis_pw_over_bands                     0.000000           1
  summed up times     720.4415571689606

 Accumulative profile

 total_time                            720.441557           1
 elmin                                 681.710909           1
 eddav                                 453.157832         116
 set_dd_paw                            176.203386         114
 hamiltmu                              165.994313      149570
 raccmu_                               156.159410      149570
 m_sumb_d                              143.672606      464516
 lapack                                 63.729695      149570
 redis_pw                               34.988393      819580
 set_charge                             25.152421         112
 phaser                                 24.934735        6860
 newband                                19.628328      156066
 setdij_                                18.173338         140
 m_alltoall_d                           15.457331     2188844
 densta                                 15.157223         117
 redis_proj                             14.970009     1027832
 augmentation_charge                    14.163956         113
 fft3d_mpi                              12.789050      303139
 init_acc                               11.832638           1
 fftwav_mpi                             10.834467      581962
 fftwav                                 10.063770      581962
 fftbrc_mpi                              9.451054        3999
 fftbas_plan_mpi                         9.448568        3999
 soft_charge                             8.630598         112
 eccp                                    8.445144       90944
 force_and_stress                        8.033324           1
 fft3d                                   6.579850      881102
 dfftw_execute                           5.900608        3108
 orth1                                   5.058772      448822
 kinhamil                                4.868850      299140
 racc0mu_acc                             4.400983      149570
 w1_copy                                 4.378336      897420
 overl                                   4.200687      507392
 rpromu_acc                              3.639984      107010
 fftext_mpi                              3.504627      299140
 acc_init_cublas                         3.352053           1
 setup_precond                           3.323756       90944
 m_bcast_z                               3.228798      152706
 w1_projall                              3.137918      104098
 overl_mu                                2.410705      149570
 m_bcast_d                               2.378630      299373
 strnlr                                  2.184759           1
 ggemm                                   2.097688      195042
 pw_charge                               1.763323       64434
 map_forward                             1.752541        3780
 map_backward                            1.578792        4218
 m_alltoallv_z                           1.556436        4451
 rpro_isp                                1.493243         364
 depsum                                  1.415065         112
 vhamil                                  1.397205      299140
 apply_precond                           1.140229      208196
 potlok                                  1.079442         114
 acc_init_cusolver                       1.073402           1
 map_scatter                             0.947290        4451
 map_gather                              0.783162        4451
 fordep                                  0.776817           1
 fornlr                                  0.733221           1
 brmix                                   0.574310         112
 broyd                                   0.363743         112
 orthch                                  0.350215           1
 acc_cufft_makeplans                     0.278849           3
 acc_cufft_makeplan                      0.278842          19
 rspher_all                              0.245359          14
 lincom                                  0.210644        6552
 proall                                  0.191648           1
 fft_gq                                  0.188049         112
 setg0                                   0.090532         114
 brget                                   0.067196       21645
 sphpro_fast                             0.058589           2
 truncate_high_frequency_w1              0.031521      390084
 choleski                                0.020299          56
 brsav                                   0.018064        6021
 pothar                                  0.010849         115
 inisym                                  0.004567           1
 stufak                                  0.002535           1
 brpre                                   0.002279         224
 forhar                                  0.001976           2
 strelo                                  0.001739           1
 strehar                                 0.001247           1
 forloc                                  0.001146           1
 chggra                                  0.000782           1
 set_dd_magatom                          0.000507         114
 fewald                                  0.000487           1
 vectorpot                               0.000469         113
 strkin                                  0.000339           1
 brgrid                                  0.000163           1
 rsp                                     0.000093           1
 crpa_reader                             0.000025           1
 posmap                                  0.000022           2
 potlok_metagga                          0.000015         113
 rcp                                     0.000012           1
 rotate_active_occupied_orbital          0.000000           1
 redis_pw_over_bands                     0.000000           1

Profiling took   1.836491  0.898319  0.003230  0.003136 seconds
Profiling took   1.127599 seconds