 vasp.6.3.2 27Jun22 (build Jul  3 2023 11:46:21) complex
 executed on    LinuxNV_CrayMPICH date 2024.04.22  03:00:45

 INCAR:
   ADDGRID = True
   ALGO = Normal
   EDIFF = 0.0022
   ENCUT = 520.0
   IBRION = -1
   ICHARG = 0
   ISIF = 3
   ISMEAR = -5
   ISPIN = 2
   KPOINT_BSE = -1 0 0 0
   LAECHG = True
   LASPH = True
   LCHARG = True
   LELF = True
   LORBIT = 11
   LREAL = Auto
   LVHAR = True
   LWAVE = False
   MAGMOM = 4*7.0 40*0.6
   NELM = 1000
   NSW = 0
   PREC = accurate
   SIGMA = 0.05

 POTCAR:    PAW_PBE Eu 23Dec2003
 POTCAR:    PAW_PBE Ga_d 06Jul2010
 POTCAR:    PAW_PBE Ge_d 03Jul2007
 POTCAR:    PAW_PBE O 08Apr2002
 POTCAR:    PAW_PBE Eu 23Dec2003
   VRHFIN =Eu : [core=Kr4d]

   TITEL  = PAW_PBE Eu 23Dec2003
   POMASS =  151.965; ZVAL   =   17.000    mass and valenz
   ENMAX  =  249.668; ENMIN  =  187.251 eV

   TITEL  = PAW_PBE Ga_d 06Jul2010
   POMASS =   69.723; ZVAL   =   13.000    mass and valenz
   ENMAX  =  282.691; ENMIN  =  212.018 eV

   TITEL  = PAW_PBE Ge_d 03Jul2007
   POMASS =   72.610; ZVAL   =   14.000    mass and valenz
   ENMAX  =  310.294; ENMIN  =  232.720 eV

   TITEL  = PAW_PBE O 08Apr2002
   POMASS =   16.000; ZVAL   =    6.000    mass and valenz
   ENMAX  =  400.000; ENMIN  =  300.000 eV

 Optimization of the real space projectors (new method)

 maximal supplied QI-value         = 13.42
 optimisation between [QCUT,QGAM] = [ 11.67, 23.35] = [ 38.16,152.62] Ry
 Optimized for a Real-space Cutoff    1.63 Angstroem

   l    n(q)    QCUT    max X(q) W(low)/X(q) W(high)/X(q)  e(spline)
   0     11    11.673    10.400    0.14E-04    0.18E-05    0.24E-07
   0     11    11.673    10.768    0.21E-04    0.32E-05    0.49E-07
   1     11    11.673     4.094    0.40E-05    0.13E-04    0.93E-07
   1     11    11.673     4.009    0.11E-04    0.46E-04    0.33E-06
   2     10    11.673    29.030    0.79E-04    0.60E-04    0.70E-06
   2     10    11.673    19.941    0.80E-04    0.60E-04    0.71E-06
   3     10    11.673    88.889    0.23E-03    0.29E-03    0.30E-06
   3     10    11.673    76.102    0.23E-03    0.30E-03    0.30E-06
 Optimization of the real space projectors (new method)

[...]

   l    n(q)    QCUT    max X(q) W(low)/X(q) W(high)/X(q)  e(spline)
   2     10    11.539     8.936    0.13E-03    0.18E-03    0.23E-06
   2     10    11.539     8.183    0.16E-03    0.22E-03    0.28E-06
   0     11    11.539    62.777    0.61E-04    0.20E-04    0.15E-06
   0     11    11.539    50.556    0.58E-04    0.19E-04    0.14E-06
   1     10    11.539    38.422    0.20E-04    0.75E-05    0.16E-06
   1     10    11.539    22.623    0.19E-04    0.69E-05    0.15E-06
 Optimization of the real space projectors (new method)

 maximal supplied QI-value         = 24.76
 optimisation between [QCUT,QGAM] = [ 11.64, 23.27] = [ 37.91,151.63] Ry
 Optimized for a Real-space Cutoff    1.14 Angstroem

   l    n(q)    QCUT    max X(q) W(low)/X(q) W(high)/X(q)  e(spline)
   0      8    11.635    20.381    0.10E-03    0.33E-03    0.24E-06
   0      8    11.635    15.268    0.11E-03    0.35E-03    0.26E-06
   1      7    11.635     5.964    0.24E-03    0.31E-03    0.30E-06
   1      7    11.635     5.382    0.22E-03    0.25E-03    0.26E-06
  PAW_PBE Eu 23Dec2003                  :
  PAW_PBE Ga_d 06Jul2010                :
  PAW_PBE Ge_d 03Jul2007                :
  PAW_PBE O 08Apr2002                   :

 POSCAR: Eu4 Ga4 Ge8 O28
  positions in direct lattice
 exchange correlation table for  LEXCH =        8
   RHO(1)=    0.500       N(1)  =     2000
   RHO(2)=  100.500       N(2)  =     4000

 VTST: version 4.2, (08/11/21)

 CHAIN: initializing optimizer

 OPT: Using VASP Dynamics algorithm
 CHAIN: Read ICHAIN             0

 POSCAR: Eu4 Ga4 Ge8 O28
  positions in direct lattice

 ion  position               nearest neighbor table
   1  0.354  0.742  0.526-  23 2.35  36 2.37  24 2.46  26 2.49  40 2.55  17 2.56  29 2.70  42 2.72

   2  0.646  0.258  0.474-  24 2.35  35 2.37  23 2.46  25 2.49  39 2.55  18 2.56  30 2.70  41 2.72

[...]

   5  0.400  0.713  0.269-  33 1.87  17 1.88  39 1.92  41 1.99  27 2.03
   6  0.600  0.287  0.731-  34 1.87  18 1.88  40 1.92  42 1.99  28 2.03
   7  0.900  0.287  0.231-  35 1.87  19 1.88  37 1.92  43 1.99  25 2.03
   8  0.100  0.713  0.769-  36 1.87  20 1.88  38 1.92  44 1.99  26 2.03
   9  0.658  0.711  0.047-  21 1.74  33 1.76  37 1.79  32 1.80
  10  0.342  0.289  0.953-  22 1.74  34 1.76  38 1.79  31 1.80
  11  0.158  0.289  0.453-  23 1.74  35 1.76  39 1.79  30 1.80
  12  0.842  0.711  0.547-  24 1.74  36 1.76  40 1.79  29 1.80
  13  0.911  0.801  0.282-  41 1.76  27 1.77  19 1.77  29 1.82
  14  0.089  0.199  0.718-  42 1.76  28 1.77  20 1.77  30 1.82
  15  0.411  0.199  0.218-  43 1.76  25 1.77  17 1.77  31 1.82
  16  0.589  0.801  0.782-  44 1.76  26 1.77  18 1.77  32 1.82
  17  0.373  0.932  0.305-  15 1.77   5 1.88   1 2.56
  18  0.627  0.068  0.695-  16 1.77   6 1.88   2 2.56
  19  0.873  0.068  0.195-  13 1.77   7 1.88   3 2.56
  20  0.127  0.932  0.805-  14 1.77   8 1.88   4 2.56
  21  0.824  0.909  0.022-   9 1.74   3 2.35   4 2.46
  22  0.176  0.091  0.978-  10 1.74   4 2.35   3 2.46
  23  0.324  0.091  0.478-  11 1.74   1 2.35   2 2.46
  24  0.676  0.909  0.522-  12 1.74   2 2.35   1 2.46
  25  0.609  0.276  0.279-  15 1.77   7 2.03   2 2.49
  26  0.391  0.724  0.721-  16 1.77   8 2.03   1 2.49
  27  0.109  0.724  0.221-  13 1.77   5 2.03   4 2.49
  28  0.891  0.276  0.779-  14 1.77   6 2.03   3 2.49
  29  0.997  0.749  0.426-  12 1.80  13 1.82   1 2.70
  30  0.003  0.251  0.574-  11 1.80  14 1.82   2 2.70
  31  0.497  0.251  0.074-  10 1.80  15 1.82   3 2.70
  32  0.503  0.749  0.926-   9 1.80  16 1.82   4 2.70
  33  0.447  0.703  0.130-   9 1.76   5 1.87   4 2.37
  34  0.553  0.297  0.870-  10 1.76   6 1.87   3 2.37
  35  0.947  0.297  0.370-  11 1.76   7 1.87   2 2.37
  36  0.053  0.703  0.630-  12 1.76   8 1.87   1 2.37
  37  0.838  0.511  0.081-   9 1.79   7 1.92   4 2.55
  38  0.162  0.489  0.919-  10 1.79   8 1.92   3 2.55
  39  0.338  0.489  0.419-  11 1.79   5 1.92   2 2.55
  40  0.662  0.511  0.581-  12 1.79   6 1.92   1 2.55
  41  0.688  0.657  0.314-  13 1.76   5 1.99   2 2.72
  42  0.312  0.343  0.686-  14 1.76   6 1.99   1 2.72
  43  0.188  0.343  0.186-  15 1.76   7 1.99   4 2.72
  44  0.812  0.657  0.814-  16 1.76   8 1.99   3 2.72

  LATTYP: Found a simple monoclinic cell.
 ALAT       =     7.3674190000
 B/A-ratio  =     0.9052053372
 C/A-ratio  =     1.5782623156
 COS(beta)  =    -0.1149127281

  Lattice vectors:

 A1 = (   0.0000000000,   7.3674190000,   0.0000000000)
 A2 = (  -6.6690270000,   0.0000000000,   0.0000000000)
 A3 = (   0.0000000000,  -1.3361730000,  11.5506930000)

Analysis of symmetry for initial positions (statically):
 Subroutine PRICEL returns:
 Original cell was already a primitive cell.

 Routine SETGRP: Setting up the symmetry group for a
 simple monoclinic supercell.

 Subroutine GETGRP returns: Found  4 space group operations
 (whereof  2 operations were pure point group operations)
 out of a pool of  4 trial point group operations.

The static configuration has the point symmetry S_2 .
 The point group associated with its full space group is C_2h.

Analysis of symmetry for dynamics (positions and initial velocities):
 Subroutine PRICEL returns:
 Original cell was already a primitive cell.

[...]

The dynamic configuration has the point symmetry S_2 .
 The point group associated with its full space group is C_2h.

Analysis of structural, dynamic, and magnetic symmetry:
 Subroutine PRICEL returns:
 Original cell was already a primitive cell.

 Routine SETGRP: Setting up the symmetry group for a
 simple monoclinic supercell.

 Subroutine GETGRP returns: Found  4 space group operations
 (whereof  2 operations were pure point group operations)
 out of a pool of  4 trial point group operations.

The overall configuration has the point symmetry S_2 .
 The point group associated with its full space group is C_2h.

 Subroutine INISYM returns: Found  4 space group operations
 (whereof  2 operations are pure point group operations),
 and found     1 'primitive' translations

                                     Primitive cell

  volume of cell :     567.5262

  direct lattice vectors                    reciprocal lattice vectors
     6.669027000  0.000000000  0.000000000     0.149946911  0.000000000  0.000000000
     0.000000000  7.367419000  0.000000000     0.000000000  0.135732744 -0.070873459
     0.000000000  6.031246000 11.550693000     0.000000000  0.000000000  0.086574892

  length of vectors
     6.669027000  7.367419000 13.030519448     0.149946911  0.153122256  0.086574892

  position of ions in fractional coordinates (direct lattice)
     0.354163000  0.742385000  0.525878000
     0.645837000  0.257615000  0.474122000
     0.854163000  0.257615000  0.974122000
     0.145837000  0.742385000  0.025878000
     0.400164000  0.713068000  0.269152000
     0.599836000  0.286932000  0.730848000
     0.900164000  0.286932000  0.230848000
     0.099836000  0.713068000  0.769152000
     0.658068000  0.711364000  0.047013000
     0.341932000  0.288636000  0.952987000
     0.158068000  0.288636000  0.452987000
     0.841932000  0.711364000  0.547013000
     0.910767000  0.801104000  0.282275000
     0.089233000  0.198896000  0.717725000
     0.410767000  0.198896000  0.217725000
     0.589233000  0.801104000  0.782275000
     0.373092000  0.932139000  0.304531000
     0.626908000  0.067861000  0.695469000
     0.873092000  0.067861000  0.195469000
     0.126908000  0.932139000  0.804531000
     0.824297000  0.908933000  0.022424000
     0.175703000  0.091067000  0.977576000
     0.324297000  0.091067000  0.477576000
     0.675703000  0.908933000  0.522424000
     0.608734000  0.275921000  0.279289000
     0.391266000  0.724079000  0.720711000
     0.108734000  0.724079000  0.220711000
     0.891266000  0.275921000  0.779289000
     0.996933000  0.748694000  0.426000000
     0.003067000  0.251306000  0.574000000
     0.496933000  0.251306000  0.074000000
     0.503067000  0.748694000  0.926000000
     0.447464000  0.703103000  0.130435000
     0.552536000  0.296897000  0.869565000
     0.947464000  0.296897000  0.369565000
     0.052536000  0.703103000  0.630435000
     0.838388000  0.510538000  0.081463000
     0.161612000  0.489462000  0.918537000
     0.338388000  0.489462000  0.418537000
     0.661612000  0.510538000  0.581463000
     0.687503000  0.656884000  0.313904000
     0.312497000  0.343116000  0.686096000
     0.187503000  0.343116000  0.186096000
     0.812497000  0.656884000  0.813904000

  ion indices of the primitive-cell ions
   primitive index   ion index
                 1           1
                 2           2
                 3           3
                 4           4
                 5           5
                 6           6
                 7           7
                 8           8
                 9           9
                10          10
                11          11
                12          12
                13          13
                14          14
                15          15
                16          16
                17          17
[...]
  318                map_forward                           0.000314                    4   7
  319                  map_gather                            0.000051                  2   8
  320                  m_alltoallv_z                         0.000027                  2   8
  321                  map_scatter                           0.000201                  2   8
  322                map_backward                          0.000124                    2   7
  323                  map_gather                            0.000027                  1   8
  324                  m_alltoallv_z                         0.000012                  1   8
  325                  map_scatter                           0.000060                  1   8
  326          m_sumb_d                              0.000007                          2   4
  327          pothar                                0.000089                          1   4
  328            m_sumb_d                              0.000010                        1   5
  329        brmix                                 0.016582                            1   3
  330          m_sumb_d                              0.000075                          6   4
  331          brpre                                 0.000053                          2   4
  332          setg0                                 0.001899                          1   4
  333          broyd                                 0.012264                          1   4
  334            m_sumb_d                              0.000556                       51   5
  335            brget                                 0.002499                      229   5
  336            brsav                                 0.000505                       49   5
  337        m_bcast_d                             0.000104                            2   3
  338      potlok                                0.066662                              2   2
  339        fft3d_mpi                             0.040183                           36   3
  340          fftbrc_mpi                            0.034701                         36   4
  341            fftbas_plan_mpi                       0.034679                       36   5
  342              map_forward                           0.009520                     40   6
  343                map_gather                            0.002724                   24   7
  344                m_alltoallv_z                         0.003856                   24   7
  345                map_scatter                           0.002721                   24   7
  346              map_backward                          0.008185                     32   6
  347                map_gather                            0.002492                   16   7
  348                m_alltoallv_z                         0.003047                   16   7
  349                map_scatter                           0.002338                   16   7
  350              dfftw_execute                         0.014889                     30   6
  351        m_sumb_d                              0.000024                            5   3
  352        pothar                                0.002636                            2   3
  353          m_sumb_d                              0.000022                          2   4
  354        m_bcast_d                             0.004214                            4   3
  355      potlok_metagga                        0.000000                              1   2
  356      set_dd_magatom                        0.000004                              1   2
  357      set_dd_paw                            4.189985                              1   2
  358        m_sumb_d                              0.007345                            7   3
  359      augmentation_charge                   0.229354                              1   2
  360        fft3d_mpi                             0.102150                            2   3
  361          fftbrc_mpi                            0.085753                          2   4
  362            fftbas_plan_mpi                       0.085749                        2   5
  363              dfftw_execute                         0.050892                      6   6
  364              map_backward                          0.034591                      4   6
  365                map_gather                            0.012154                    2   7
  366                m_alltoallv_z                         0.009886                    2   7
  367                map_scatter                           0.012540                    2   7
  368      fftwav_mpi                           13.587060                           7236   2
  369        fftwav                               13.577682                         7236   3
  370          fft3d                                12.554451                       7236   4
  371      densta                               17.582394                              1   2

 Flat profile

 set_dd_paw                           1911.894720         457
 eddav                                1137.899397         459
 raccmu_                               973.731804     2027962
 lapack                                934.921469     2027962
 redis_pw                              497.413738    10852773
 m_sumb_d                              465.351288     6138606
 m_alltoall_d                          202.442727    28948277
 eccp                                  130.153734     1107108
 fft3d                                 125.797802    11682147
 phaser                                113.164140       16758
 orth1                                 106.646050     6084210
 redis_proj                             91.321173    13721288
 hamiltmu                               86.442432     2027962
 densta                                 82.607033         460
 fftwav                                 75.550543     7706560
 racc0mu_acc                            59.493471     2027962
 w1_copy                                58.074717    11926761
 augmentation_charge                    57.754059         457
 setdij_                                57.391847         483
 overl                                  56.488135     6844102
 dfftw_execute                          54.206415       11412
 rpromu_acc                             44.762846     1474102
 m_bcast_z                              44.302641     2037610
 soft_charge                            43.690803         456
 ggemm                                  42.132907     2589778
 setup_precond                          40.278497     1107108
 pw_charge                              35.049828      823902
 m_bcast_d                              32.720959     4056843
 overl_mu                               31.475480     2027962
 total_time                             23.271838           1
 kinhamil                               18.037118     3975587
 vhamil                                 18.036166     3975587
 depsum                                 17.994094         456
 fft3d_mpi                              17.148968     3991272
 fftext_mpi                             16.831378     3975587
 newband                                16.142008     2044486
 apply_precond                          15.742348     2868479
 m_alltoallv_z                          12.034796       17531
 init_acc                               11.858115           1
 map_gather                             11.629365       17531
 map_scatter                            11.349503       17531
 fftwav_mpi                             10.049940     7706560
 set_charge                              7.865010         456
 broyd                                   3.521865         455
 potlok                                  2.944556         457
 acc_init_cublas                         2.443192           1
 rpro_isp                                1.813947         234
 brmix                                   1.439517         455
 w1_projall                              1.407292     1466146
 brget                                   1.166701      104733
 elmin                                   1.080131           1
 fftbas_plan_mpi                         0.941296       15685
 sphpro_fast                             0.907440           2
 setg0                                   0.884279         457
 acc_init_cusolver                       0.790601           1
 lincom                                  0.664811       16560
 rspher_all                              0.404615          14
 truncate_high_frequency_w1              0.390836     5082695
 brsav                                   0.325590       30169
 proall                                  0.150187           1
 map_backward                            0.149149       16586
 acc_cufft_makeplan                      0.123381          19
 map_forward                             0.102431       14784
 orthch                                  0.100154           1
 fft_gq                                  0.075415         456
 force_and_stress                        0.054122           1
 pothar                                  0.043285         458
 stufak                                  0.038369           1
 brpre                                   0.024774         910
 choleski                                0.022979          36
 strnlr                                  0.011454           1
 fftbrc_mpi                              0.010641       15685
 inisym                                  0.004508           1
 strkin                                  0.004289           1
 forhar                                  0.003965           2
 fornlr                                  0.003886           1
 strelo                                  0.003592           1
 strehar                                 0.002644           1
 set_dd_magatom                          0.002042         457
 forloc                                  0.002005           1
 rsp                                     0.001967           1
 vectorpot                               0.001844         456
 brgrid                                  0.000357           1
 fewald                                  0.000342           1
 chggra                                  0.000290           1
 fordep                                  0.000179           1
 rcp                                     0.000060           1
 posmap                                  0.000042           2
 potlok_metagga                          0.000036         456
 crpa_reader                             0.000026           1
 acc_cufft_makeplans                     0.000014           3
 rotate_active_occupied_orbital          0.000000           1
 redis_pw_over_bands                     0.000000           1
  summed up times     7823.216401100159

 Accumulative profile

 total_time                           7823.216401           1
 elmin                                7722.240036           1
 eddav                                5386.712516         459
 set_dd_paw                           1916.691097         457
 hamiltmu                             1240.939208     2027962
 raccmu_                              1064.700755     2027962
 lapack                                934.921469     2027962
 redis_pw                              598.379167    10852773
 m_sumb_d                              465.351288     6138606
 newband                               277.482061     2044486
 set_charge                            246.563500         456
 m_alltoall_d                          202.442727    28948277
 redis_proj                            192.798472    13721288
 fftwav_mpi                            175.699081     7706560
 fftwav                                165.649142     7706560
 fft3d_mpi                             143.271766     3991272
 eccp                                  130.153734     1107108
 fft3d                                 125.797802    11682147
 soft_charge                           114.485477         456
 phaser                                113.164140       16758
 setdij_                               112.275734         483
 orth1                                 106.646050     6084210
 augmentation_charge                   104.964273         457
 fftbrc_mpi                             90.423595       15685
 fftbas_plan_mpi                        90.412955       15685
 densta                                 82.607033         460
 kinhamil                               71.759855     3975587
 racc0mu_acc                            59.493471     2027962
 w1_copy                                58.074717    11926761
 overl                                  56.488135     6844102
 dfftw_execute                          54.206415       11412
 fftext_mpi                             53.722737     3975587
 rpromu_acc                             44.762846     1474102
 m_bcast_z                              44.302641     2037610
 w1_projall                             43.686713     1466146
 ggemm                                  42.132907     2589778
 setup_precond                          40.278497     1107108
 pw_charge                              35.049828      823902
 m_bcast_d                              32.720959     4056843
 overl_mu                               31.475480     2027962
 map_backward                           19.517633       16586
 depsum                                 18.210658         456
 vhamil                                 18.036166     3975587
 force_and_stress                       17.878883           1
 map_forward                            15.747611       14784
 apply_precond                          15.742348     2868479
 m_alltoallv_z                          12.034796       17531
 init_acc                               11.858115           1
 map_gather                             11.629365       17531
 map_scatter                            11.349503       17531
 brmix                                   7.617846         455
 potlok                                  5.786340         457
 rpro_isp                                5.373292         234
 strnlr                                  5.279289           1
 broyd                                   5.217893         455
 acc_init_cublas                         2.443192           1
 fft_gq                                  1.813020         456
 fornlr                                  1.759120           1
 fordep                                  1.392736           1
 brget                                   1.166701      104733
 sphpro_fast                             0.941606           2
 setg0                                   0.884279         457
 acc_init_cusolver                       0.790601           1
 lincom                                  0.664811       16560
 orthch                                  0.598760           1
 proall                                  0.483950           1
 rspher_all                              0.404615          14
 truncate_high_frequency_w1              0.390836     5082695
 brsav                                   0.325590       30169
 acc_cufft_makeplans                     0.123396           3
 acc_cufft_makeplan                      0.123381          19
 pothar                                  0.047829         458
 stufak                                  0.038369           1
 brpre                                   0.024774         910
 choleski                                0.022979          36
 inisym                                  0.004550           1
 strkin                                  0.004306           1
 forhar                                  0.004008           2
 strelo                                  0.003600           1
 fewald                                  0.002748           1
 forloc                                  0.002745           1
 strehar                                 0.002648           1
 set_dd_magatom                          0.002042         457
 rsp                                     0.001967           1
 vectorpot                               0.001844         456
 chggra                                  0.001074           1
 brgrid                                  0.000357           1
 rcp                                     0.000060           1
 posmap                                  0.000042           2
 potlok_metagga                          0.000036         456
 crpa_reader                             0.000026           1
 rotate_active_occupied_orbital          0.000000           1
 redis_pw_over_bands                     0.000000           1

Profiling took  24.208640 11.971187  0.003241  0.003139 seconds
Profiling took  15.412138 seconds