 vasp.6.3.2 27Jun22 (build Jul  3 2023 11:46:21) complex
 executed on    LinuxNV_CrayMPICH date 2024.04.21  20:59:54

 INCAR:
   ADDGRID = True
   ALGO = Normal
   EDIFF = 0.0011
   ENCUT = 520.0
   IBRION = -1
   ICHARG = 0
   ISIF = 3
   ISMEAR = -5
   ISPIN = 2
   ISYM = 0
   LAECHG = True
   LASPH = True
   LCHARG = True
   LORBIT = 11
   LREAL = Auto
   LVHAR = True
   LWAVE = False
   MAGMOM = 2*7.0 1*0.026 1*0.015 1*0.016 1*0.023 2*0.001 1*-0.019 3*-0.01 1*-0.003 1*-0.01 1*-0.003 4*-0.01 1*-0.019 2*0.008
   NELM = 1000
   NSW = 0
   PREC = Accurate
   SIGMA = 0.05

 POTCAR:    PAW_PBE Eu 23Dec2003
 POTCAR:    PAW_PBE Ti_pv 07Sep2000
 POTCAR:    PAW_PBE Cd 06Sep2000
 POTCAR:    PAW_PBE O 08Apr2002
 POTCAR:    PAW_PBE F 08Apr2002
 POTCAR:    PAW_PBE Eu 23Dec2003
   VRHFIN =Eu : [core=Kr4d]

   TITEL  = PAW_PBE Eu 23Dec2003
   POMASS =  151.965; ZVAL   =   17.000    mass and valenz
   ENMAX  =  249.668; ENMIN  =  187.251 eV

   TITEL  = PAW_PBE Ti_pv 07Sep2000
   POMASS =   47.880; ZVAL   =   10.000    mass and valenz
   ENMAX  =  222.335; ENMIN  =  166.751 eV

   TITEL  = PAW_PBE Cd 06Sep2000
   POMASS =  112.411; ZVAL   =   12.000    mass and valenz
   ENMAX  =  274.336; ENMIN  =  205.752 eV

   TITEL  = PAW_PBE O 08Apr2002
   POMASS =   16.000; ZVAL   =    6.000    mass and valenz
   ENMAX  =  400.000; ENMIN  =  300.000 eV

   TITEL  = PAW_PBE F 08Apr2002
   POMASS =   18.998; ZVAL   =    7.000    mass and valenz
   ENMAX  =  400.000; ENMIN  =  300.000 eV

 Optimization of the real space projectors (new method)

 maximal supplied QI-value         = 13.42
 optimisation between [QCUT,QGAM] = [ 11.67, 23.35] = [ 38.16,152.62] Ry
 Optimized for a Real-space Cutoff    1.63 Angstroem

   l    n(q)    QCUT    max X(q) W(low)/X(q) W(high)/X(q)  e(spline)
   0     11    11.673    10.400    0.14E-04    0.18E-05    0.24E-07
   0     11    11.673    10.768    0.21E-04    0.32E-05    0.49E-07
   1     11    11.673     4.094    0.40E-05    0.13E-04    0.93E-07
   1     11    11.673     4.009    0.11E-04    0.46E-04    0.33E-06
   2     10    11.673    29.030    0.79E-04    0.60E-04    0.70E-06
   2     10    11.673    19.941    0.80E-04    0.60E-04    0.71E-06
   3     10    11.673    88.889    0.23E-03    0.29E-03    0.30E-06
   3     10    11.673    76.102    0.23E-03    0.30E-03    0.30E-06
 Optimization of the real space projectors (new method)

[...]

   l    n(q)    QCUT    max X(q) W(low)/X(q) W(high)/X(q)  e(spline)
   0      8    11.635    20.381    0.10E-03    0.33E-03    0.24E-06
   0      8    11.635    15.268    0.11E-03    0.35E-03    0.26E-06
   1      7    11.635     5.964    0.24E-03    0.31E-03    0.30E-06
   1      7    11.635     5.382    0.22E-03    0.25E-03    0.26E-06
 Optimization of the real space projectors (new method)

 maximal supplied QI-value         = 24.76
 optimisation between [QCUT,QGAM] = [ 11.64, 23.27] = [ 37.91,151.63] Ry
 Optimized for a Real-space Cutoff    1.04 Angstroem

   l    n(q)    QCUT    max X(q) W(low)/X(q) W(high)/X(q)  e(spline)
   0      7    11.635    14.049    0.77E-04    0.36E-03    0.13E-06
   0      7    11.635     8.945    0.12E-03    0.48E-03    0.17E-06
   1      7    11.635     7.086    0.24E-03    0.44E-03    0.21E-06
   1      7    11.635     6.747    0.23E-03    0.35E-03    0.19E-06
  PAW_PBE Eu 23Dec2003                  :
  PAW_PBE Ti_pv 07Sep2000               :
  PAW_PBE Cd 06Sep2000                  :
  PAW_PBE O 08Apr2002                   :
  PAW_PBE F 08Apr2002                   :

 POSCAR: Eu2 Ti4 Cd2 O12 F2
  positions in direct lattice
 exchange correlation table for  LEXCH =        8
   RHO(1)=    0.500       N(1)  =     2000
   RHO(2)=  100.500       N(2)  =     4000

 VTST: version 4.2, (08/11/21)

 CHAIN: initializing optimizer

 OPT: Using VASP Dynamics algorithm
 CHAIN: Read ICHAIN             0

 POSCAR: Eu2 Ti4 Cd2 O12 F2
  positions in direct lattice

 ion  position               nearest neighbor table
   1  0.000  0.000  0.000-  21 2.28  22 2.28  18 2.51  19 2.51  10 2.51  12 2.51   9 2.55  20 2.55
                             7 3.64   8 3.64   8 3.64   7 3.64
   2  0.500  0.000  0.500-  21 2.28  22 2.28  16 2.51  17 2.51  11 2.51  14 2.51   9 2.55  20 2.55
                             7 3.64   8 3.64   8 3.64   7 3.64
   3  0.500  0.500  0.500-   9 1.97  20 1.97  19 1.98  10 1.98  11 1.98  17 1.98
   4  0.000  0.500  0.500-  10 1.98  12 1.98  18 1.98  19 1.98  13 2.00  15 2.00
   5  0.500  0.500  0.000-  11 1.98  14 1.98  16 1.98  17 1.98  13 2.00  15 2.00
   6  0.500  0.000  0.000-   9 1.97  20 1.97  14 1.98  16 1.98  18 1.98  12 1.98
   7  0.000  0.500  0.000-  21 2.18  22 2.18  13 2.54  15 2.54  17 2.59  19 2.59  10 2.59  11 2.59
                             8 3.60   8 3.60   1 3.64   1 3.64   2 3.64   2 3.64
   8  0.000  0.000  0.500-  21 2.18  22 2.18  13 2.54  15 2.54  16 2.59  18 2.59  14 2.59  12 2.59
                             7 3.60   7 3.60   1 3.64   1 3.64   2 3.64   2 3.64
   9  0.579  0.829  0.750-   3 1.97   6 1.97   1 2.55   2 2.55
  10  0.175  0.420  0.347-   4 1.98   3 1.98   1 2.51   7 2.59
  11  0.573  0.420  0.745-   5 1.98   3 1.98   2 2.51   7 2.59
  12  0.175  0.828  0.755-   4 1.98   6 1.98   1 2.51   8 2.59
  13  0.175  0.425  0.750-   4 2.00   5 2.00   7 2.54   8 2.54
  14  0.573  0.828  0.153-   5 1.98   6 1.98   2 2.51   8 2.59
  15  0.825  0.575  0.250-   4 2.00   5 2.00   7 2.54   8 2.54
  16  0.427  0.172  0.847-   5 1.98   6 1.98   2 2.51   8 2.59
  17  0.427  0.580  0.255-   5 1.98   3 1.98   2 2.51   7 2.59
  18  0.825  0.172  0.245-   4 1.98   6 1.98   1 2.51   8 2.59
  19  0.825  0.580  0.653-   4 1.98   3 1.98   1 2.51   7 2.59
  20  0.421  0.171  0.250-   3 1.97   6 1.97   1 2.55   2 2.55
  21  0.120  0.870  0.250-   7 2.18   8 2.18   1 2.28   2 2.28
  22  0.880  0.130  0.750-   7 2.18   8 2.18   1 2.28   2 2.28

IMPORTANT INFORMATION: All symmetrisations will be switched off!
NOSYMM: (Re-)initialisation of all symmetry stuff for point group C_1.

                                     Primitive cell

  volume of cell :     272.9127

  direct lattice vectors                    reciprocal lattice vectors
    -3.598408000  3.697234000  5.128336000     0.000000000  0.135236233  0.097497512
     3.598408000 -3.697234000  5.128336000     0.138950336 -0.000000000  0.097497512
     3.598408000  3.697234000 -5.128336000     0.138950336  0.135236233  0.000000000

  length of vectors
     7.274469707  7.274469707  7.274469707     0.166717137  0.169743809  0.193896969

  position of ions in fractional coordinates (direct lattice)
     0.000000000  0.000000000  0.000000000
     0.500000000  0.000000000  0.500000000
     0.500000000  0.500000000  0.500000000
     0.000000000  0.500000000  0.500000000
     0.500000000  0.500000000  0.000000000
     0.500000000  0.000000000  0.000000000
     1.000000000  0.500000000  1.000000000
     0.000000000  1.000000000  0.500000000
     0.579164000  0.829164000  0.750000000
     0.175291000  0.420333000  0.347132000
     0.573201000  0.420333000  0.745042000
     0.175291000  0.828159000  0.754958000
     0.174762000  0.424762000  0.750000000
     0.573201000  0.828159000  0.152868000
     0.825238000  0.575238000  0.250000000
     0.426799000  0.171841000  0.847132000
     0.426799000  0.579667000  0.254958000
     0.824709000  0.171841000  0.245042000
     0.824709000  0.579667000  0.652868000
     0.420836000  0.170836000  0.250000000
     0.120410000  0.870410000  0.250000000
     0.879590000  0.129590000  0.750000000

  ion indices of the primitive-cell ions
   primitive index   ion index
                 1           1
                 2           2
                 3           3
                 4           4
                 5           5
                 6           6
                 7           7
                 8           8
                 9           9
                10          10
                11          11
                12          12
                13          13
                14          14
                15          15
                16          16
                17          17
                18          18
                19          19
                20          20
                21          21
                22          22

 KPOINTS: Kpoints from vasprun.xml

Automatic generation of k-mesh.
 Grid dimensions read from file:
 generate k-points for:    4    4    4

 Generating k-lattice:

  Cartesian coordinates                     Fractional coordinates (reciprocal lattice)
     0.000000000  0.033809058  0.024374378     0.250000000 -0.000000000  0.000000000
     0.034737584 -0.000000000  0.024374378     0.000000000  0.250000000 -0.000000000
     0.034737584  0.033809058  0.000000000     0.000000000 -0.000000000  0.250000000

  Length of vectors
     0.041679284  0.042435952  0.048474242

  Shift w.r.t. Gamma in fractional coordinates (k-lattice)
     0.500000000  0.500000000  0.500000000

 TETIRR: Found    192 inequivalent tetrahedra from      384

 Subroutine IBZKPT returns following result:

 Found     32 irreducible k-points:

 Following reciprocal coordinates:
            Coordinates               Weight
  0.125000  0.125000  0.125000      2.000000
 -0.375000  0.125000  0.125000      2.000000
  0.125000 -0.375000  0.125000      2.000000
  0.125000  0.125000 -0.375000      2.000000
  0.375000  0.125000  0.125000      2.000000
  0.125000  0.375000  0.375000      2.000000
 -0.125000  0.125000  0.125000      2.000000
  0.125000  0.375000  0.125000      2.000000
  0.375000  0.125000  0.375000      2.000000
  0.375000  0.375000  0.125000      2.000000
  0.125000  0.125000  0.375000      2.000000
 -0.375000  0.375000  0.125000      2.000000
 -0.125000  0.125000  0.375000      2.000000
 -0.125000  0.375000  0.125000      2.000000
 -0.375000  0.125000  0.375000      2.000000
  0.375000 -0.375000  0.125000      2.000000
 -0.125000  0.125000 -0.375000      2.000000
 -0.375000 -0.375000  0.125000      2.000000
 -0.375000  0.125000 -0.375000      2.000000
  0.125000 -0.375000 -0.375000      2.000000
 -0.375000 -0.375000 -0.375000      2.000000
 -0.125000 -0.375000  0.125000      2.000000
  0.375000  0.125000 -0.375000      2.000000
  0.125000 -0.125000  0.125000      2.000000
  0.375000 -0.125000  0.125000      2.000000
  0.125000 -0.375000  0.375000      2.000000
 -0.375000 -0.125000  0.125000      2.000000
  0.125000  0.375000 -0.375000      2.000000
 -0.125000 -0.125000  0.125000      2.000000
 -0.375000  0.375000  0.375000      2.000000
  0.375000 -0.375000  0.375000      2.000000
 -0.375000 -0.375000  0.375000      2.000000

 Following cartesian coordinates:
            Coordinates               Weight
  0.034738  0.033809  0.024374      2.000000
  0.034738 -0.033809 -0.024374      2.000000
 -0.034738  0.033809 -0.024374      2.000000
 -0.034738 -0.033809  0.024374      2.000000
  0.034738  0.067618  0.048749      2.000000
  0.104213  0.067618  0.048749      2.000000
  0.034738  0.000000  0.000000      2.000000
  0.069475  0.033809  0.048749      2.000000
  0.069475  0.101427  0.048749      2.000000
  0.069475  0.067618  0.073123      2.000000
  0.069475  0.067618  0.024374      2.000000
[...]
  307        strehar                               0.001672                            1   3
  308          m_sumb_d                              0.000029                          1   4
  309        chggra                                0.000831                            1   3
  310          fft3d_mpi                             0.000502                          3   4
  311            fftbrc_mpi                            0.000399                        3   5
  312              fftbas_plan_mpi                       0.000396                      3   6
  313                map_forward                           0.000213                    4   7
  314                  map_gather                            0.000045                  2   8
  315                  m_alltoallv_z                         0.000025                  2   8
  316                  map_scatter                           0.000110                  2   8
  317                map_backward                          0.000102                    2   7
  318                  map_gather                            0.000023                  1   8
  319                  m_alltoallv_z                         0.000011                  1   8
  320                  map_scatter                           0.000052                  1   8
  321          m_sumb_d                              0.000010                          2   4
  322          pothar                                0.000081                          1   4
  323            m_sumb_d                              0.000007                        1   5
  324        brmix                                 0.010847                            1   3
  325          m_sumb_d                              0.000113                          6   4
  326          brpre                                 0.000032                          2   4
  327          setg0                                 0.001105                          1   4
  328          broyd                                 0.008246                          1   4
  329            brget                                 0.002189                      326   5
  330            brsav                                 0.000989                      163   5
  331            m_sumb_d                              0.000341                       47   5
  332        m_bcast_d                             0.000027                            2   3
  333      potlok                                0.043346                              2   2
  334        fft3d_mpi                             0.025869                           36   3
  335          fftbrc_mpi                            0.021840                         36   4
  336            fftbas_plan_mpi                       0.021816                       36   5
  337              map_forward                           0.006209                     40   6
  338                map_gather                            0.001946                   24   7
  339                m_alltoallv_z                         0.002240                   24   7
  340                map_scatter                           0.001804                   24   7
  341              map_backward                          0.005102                     32   6
  342                map_gather                            0.001770                   16   7
  343                m_alltoallv_z                         0.001661                   16   7
  344                map_scatter                           0.001485                   16   7
  345              dfftw_execute                         0.008936                     30   6
  346        m_sumb_d                              0.000028                            5   3
  347        pothar                                0.001551                            2   3
  348          m_sumb_d                              0.000099                          2   4
  349        m_bcast_d                             0.002698                            4   3
  350      potlok_metagga                        0.000000                              1   2
  351      set_dd_magatom                        0.000005                              1   2
  352      set_dd_paw                            2.276248                              1   2
  353        m_sumb_d                              0.683995                            7   3
  354      augmentation_charge                   0.155092                              1   2
  355        fft3d_mpi                             0.059823                            2   3
  356          fftbrc_mpi                            0.054116                          2   4
  357            fftbas_plan_mpi                       0.054113                        2   5
  358              dfftw_execute                         0.036716                      6   6
  359              map_backward                          0.017109                      4   6
  360                map_gather                            0.004637                    2   7
  361                m_alltoallv_z                         0.005715                    2   7
  362                map_scatter                           0.006746                    2   7
  363      densta                                9.465945                              1   2

 Flat profile

 m_sumb_d                              783.385965     4089763
 eddav                                 714.377852         365
 raccmu_                               688.103473     1345895
 lapack                                639.850975     1345895
 set_dd_paw                            579.388200         363
 redis_pw                              315.292062     7421418
 m_alltoall_d                          136.919923    19552930
 phaser                                102.228803       23776
 eccp                                   70.249245      700800
 redis_proj                             62.935949     9412472
 fft3d                                  60.364495     7942686
 densta                                 53.780896         366
 fftwav                                 49.457896     5250896
 orth1                                  43.582878     4037941
 racc0mu_acc                            39.575623     1345895
 w1_copy                                38.944012     8075370
 overl                                  38.882796     4682844
 hamiltmu                               37.041492     1345895
 setdij_                                34.967464         389
 augmentation_charge                    33.958464         363
 rpromu_acc                             30.510854     1002151
 dfftw_execute                          30.311737        9096
 soft_charge                            29.783630         362
 m_bcast_z                              29.286439     1353575
 ggemm                                  26.947124     1696295
 setup_precond                          25.199703      700800
 m_bcast_d                              22.252398     2692521
 overl_mu                               20.705739     1345895
 pw_charge                              16.998816      543156
 total_time                             13.118388           1
 vhamil                                 12.492305     2691790
 kinhamil                               12.338325     2691790
 init_acc                               11.772556           1
 depsum                                 11.381851         362
 fftext_mpi                             11.258022     2691790
 apply_precond                          10.910985     1990990
 newband                                10.583833     1369255
 fftwav_mpi                              6.962976     5250896
 m_alltoallv_z                           6.268197       13919
 fft3d_mpi                               5.446401     2704259
 map_scatter                             5.096266       13919
 map_gather                              3.599721       13919
 acc_init_cublas                         2.443925           1
 broyd                                   1.851863         361
 potlok                                  1.561912         363
 rpro_isp                                1.290171         416
 w1_projall                              0.986467      995495
 lincom                                  0.870605       23424
 acc_init_cusolver                       0.790304           1
 elmin                                   0.727512           1
 brmix                                   0.642350         361
 fftbas_plan_mpi                         0.635242       12469
 brget                                   0.564996       82031
 setg0                                   0.408321         363
 sphpro_fast                             0.347757           2
 truncate_high_frequency_w1              0.271285     3392590
 rspher_all                              0.250646          14
 brsav                                   0.154603       23625
 acc_cufft_makeplan                      0.136579          19
 set_charge                              0.126812         362
 proall                                  0.081223           1
 map_forward                             0.076353       11748
 map_backward                            0.075225       13190
 orthch                                  0.047350           1
 fft_gq                                  0.035999         362
 pothar                                  0.030164         364
 force_and_stress                        0.026013           1
 choleski                                0.020394          64
 brpre                                   0.012990         722
 stufak                                  0.012335           1
 strnlr                                  0.010686           1
 fftbrc_mpi                              0.007510       12469
 fornlr                                  0.004325           1
 forhar                                  0.003016           2
 strelo                                  0.002209           1
 set_dd_magatom                          0.001794         363
 strkin                                  0.001702           1
 strehar                                 0.001643           1
 forloc                                  0.001577           1
 vectorpot                               0.001488         362
 rsp                                     0.000740           1
 fewald                                  0.000369           1
 chggra                                  0.000238           1
 brgrid                                  0.000214           1
 fordep                                  0.000106           1
 potlok_metagga                          0.000046         362
 rcp                                     0.000038           1
 crpa_reader                             0.000026           1
 acc_cufft_makeplans                     0.000009           3
 rotate_active_occupied_orbital          0.000000           1
 redis_pw_over_bands                     0.000000           1
  summed up times     4891.031865119934

 Accumulative profile

 total_time                           4891.031865           1
 elmin                                4834.320554           1
 eddav                                3767.453084         365
 hamiltmu                              841.489658     1345895
 set_dd_paw                            830.141953         363
 m_sumb_d                              783.385965     4089763
 raccmu_                               748.384836     1345895
 lapack                                639.850975     1345895
 redis_pw                              383.586838     7421418
 newband                               160.359337     1369255
 m_alltoall_d                          136.919923    19552930
 set_charge                            134.099735         362
 redis_proj                            131.561095     9412472
 phaser                                102.228803       23776
 fftwav_mpi                             97.608162     5250896
 fftwav                                 90.645186     5250896
 fft3d_mpi                              70.693859     2704259
 eccp                                   70.249245      700800
 soft_charge                            67.123116         362
 setdij_                                61.703003         389
 fft3d                                  60.364495     7942686
 augmentation_charge                    55.533508         363
 densta                                 53.780896         366
 fftbrc_mpi                             46.070252       12469
 fftbas_plan_mpi                        46.062742       12469
 orth1                                  43.582878     4037941
 kinhamil                               43.571025     2691790
 racc0mu_acc                            39.575623     1345895
 w1_copy                                38.944012     8075370
 overl                                  38.882796     4682844
 fftext_mpi                             31.232700     2691790
 rpromu_acc                             30.510854     1002151
 dfftw_execute                          30.311737        9096
 w1_projall                             29.955145      995495
 m_bcast_z                              29.286439     1353575
 ggemm                                  26.947124     1696295
 setup_precond                          25.199703      700800
 m_bcast_d                              22.252398     2692521
 overl_mu                               20.705739     1345895
 pw_charge                              16.998816      543156
 vhamil                                 12.492305     2691790
 force_and_stress                       12.229543           1
 init_acc                               11.772556           1
 depsum                                 11.471390         362
 apply_precond                          10.910985     1990990
 map_backward                            8.447671       13190
 map_forward                             6.668092       11748
 m_alltoallv_z                           6.268197       13919
 map_scatter                             5.096266       13919
 strnlr                                  4.059267           1
 brmix                                   3.782964         361
 map_gather                              3.599721       13919
 rpro_isp                                3.583281         416
 potlok                                  3.393654         363
 broyd                                   2.688923         361
 acc_init_cublas                         2.443925           1
 fornlr                                  1.354923           1
 fordep                                  0.961197           1
 fft_gq                                  0.936318         362
 lincom                                  0.870605       23424
 acc_init_cusolver                       0.790304           1
 brget                                   0.564996       82031
 orthch                                  0.484827           1
 setg0                                   0.408321         363
 sphpro_fast                             0.361718           2
 proall                                  0.311767           1
 truncate_high_frequency_w1              0.271285     3392590
 rspher_all                              0.250646          14
 brsav                                   0.154603       23625
 acc_cufft_makeplans                     0.136588           3
 acc_cufft_makeplan                      0.136579          19
 pothar                                  0.033688         364
 choleski                                0.020394          64
 brpre                                   0.012990         722
 stufak                                  0.012335           1
 forhar                                  0.003063           2
 fewald                                  0.003005           1
 strelo                                  0.002262           1
 forloc                                  0.001915           1
 set_dd_magatom                          0.001794         363
 strkin                                  0.001712           1
 strehar                                 0.001672           1
 vectorpot                               0.001488         362
 chggra                                  0.000831           1
 rsp                                     0.000740           1
 brgrid                                  0.000214           1
 potlok_metagga                          0.000046         362
 rcp                                     0.000038           1
 crpa_reader                             0.000026           1
 rotate_active_occupied_orbital          0.000000           1
 redis_pw_over_bands                     0.000000           1

Profiling took  16.724422  8.190076  0.003223  0.003108 seconds
Profiling took  10.815383 seconds