 vasp.6.3.2 27Jun22 (build Jul  3 2023 11:46:21) complex
 executed on    LinuxNV_CrayMPICH date 2024.04.21  02:04:49

 INCAR:
   ADDGRID = True
   ALGO = Normal
   EDIFF = 0.0014
   ENCUT = 520.0
   IBRION = -1
   ICHARG = 0
   ISIF = 3
   ISMEAR = -5
   ISPIN = 2
   KPOINT_BSE = -1 0 0 0
   LAECHG = True
   LASPH = True
   LCHARG = True
   LELF = True
   LORBIT = 11
   LREAL = Auto
   LVHAR = True
   LWAVE = False
   MAGMOM = 4*0.6 4*7.0 20*0.6
   NELM = 1000
   NSW = 0
   PREC = accurate
   SIGMA = 0.05

 POTCAR:    PAW_PBE Cs_sv 08Apr2002
 POTCAR:    PAW_PBE Eu 23Dec2003
 POTCAR:    PAW_PBE Si 05Jan2001
 POTCAR:    PAW_PBE S 06Sep2000
 POTCAR:    PAW_PBE Cs_sv 08Apr2002
   VRHFIN =Cs: 5s5p6s

   TITEL  = PAW_PBE Cs_sv 08Apr2002
   POMASS =  132.900; ZVAL   =    9.000    mass and valenz
   ENMAX  =  220.318; ENMIN  =  165.238 eV

   TITEL  = PAW_PBE Eu 23Dec2003
   POMASS =  151.965; ZVAL   =   17.000    mass and valenz
   ENMAX  =  249.668; ENMIN  =  187.251 eV

   TITEL  = PAW_PBE Si 05Jan2001
   POMASS =   28.085; ZVAL   =    4.000    mass and valenz
   ENMAX  =  245.345; ENMIN  =  184.009 eV

   TITEL  = PAW_PBE S 06Sep2000
   POMASS =   32.066; ZVAL   =    6.000    mass and valenz
   ENMAX  =  258.689; ENMIN  =  194.016 eV

 Optimization of the real space projectors (new method)

 maximal supplied QI-value         = 15.12
 optimisation between [QCUT,QGAM] = [ 11.64, 23.28] = [ 37.95,151.78] Ry
 Optimized for a Real-space Cutoff    1.58 Angstroem

   l    n(q)    QCUT    max X(q) W(low)/X(q) W(high)/X(q)  e(spline)
   0     11    11.641    25.322    0.32E-04    0.44E-04    0.76E-06
   0     11    11.641    99.187    0.29E-04    0.43E-04    0.73E-06
   1     11    11.641    11.761    0.14E-03    0.20E-04    0.36E-06
   1     11    11.641     8.275    0.16E-03    0.25E-04    0.39E-06
   2     10    11.641     3.829    0.40E-04    0.12E-03    0.26E-06
 Optimization of the real space projectors (new method)

[...]

   l    n(q)    QCUT    max X(q) W(low)/X(q) W(high)/X(q)  e(spline)
   0      8    11.508   159.560    0.71E-04    0.15E-03    0.51E-07
   0      8    11.508   115.863    0.70E-04    0.15E-03    0.51E-07
   1      8    11.508    88.339    0.16E-03    0.38E-04    0.82E-07
   1      8    11.508    48.592    0.15E-03    0.36E-04    0.79E-07
 Optimization of the real space projectors (new method)

 maximal supplied QI-value         = 19.84
 optimisation between [QCUT,QGAM] = [ 11.51, 23.22] = [ 37.09,150.92] Ry
 Optimized for a Real-space Cutoff    1.21 Angstroem

   l    n(q)    QCUT    max X(q) W(low)/X(q) W(high)/X(q)  e(spline)
   0      8    11.508   187.594    0.96E-04    0.18E-03    0.54E-07
   0      8    11.508   164.243    0.96E-04    0.18E-03    0.54E-07
   1      8    11.508    67.533    0.18E-03    0.65E-04    0.94E-07
   1      8    11.508    50.729    0.18E-03    0.63E-04    0.92E-07
  PAW_PBE Cs_sv 08Apr2002               :
  PAW_PBE Eu 23Dec2003                  :
  PAW_PBE Si 05Jan2001                  :
  PAW_PBE S 06Sep2000                   :

 POSCAR: Cs4 Eu4 Si4 S16
  positions in direct lattice
 exchange correlation table for  LEXCH =        8
   RHO(1)=    0.500       N(1)  =     2000
   RHO(2)=  100.500       N(2)  =     4000

 VTST: version 4.2, (08/11/21)

 CHAIN: initializing optimizer

 OPT: Using VASP Dynamics algorithm
 CHAIN: Read ICHAIN             0

 POSCAR: Cs4 Eu4 Si4 S16
  positions in direct lattice

 ion  position               nearest neighbor table
   1  0.499  0.494  0.966-
   2  0.001  0.506  0.466-
   3  0.999  0.006  0.034-
   4  0.501  0.994  0.534-
   5  0.290  0.475  0.228-  18 2.88  13 2.90  25 2.92  24 2.94  28 2.95  19 3.01  21 3.03
   6  0.210  0.525  0.728-  17 2.88  14 2.90  26 2.92  23 2.94  27 2.95  20 3.01  22 3.03
   7  0.790  0.025  0.772-  20 2.88  15 2.90  27 2.92  22 2.94  26 2.95  17 3.01  23 3.03
   8  0.710  0.975  0.272-  19 2.88  16 2.90  28 2.92  21 2.94  25 2.95  18 3.01  24 3.03
   9  0.789  0.518  0.167-  13 2.12  18 2.14  21 2.14  25 2.15
  10  0.711  0.482  0.667-  14 2.12  17 2.14  22 2.14  26 2.15
  11  0.289  0.982  0.833-  15 2.12  20 2.14  23 2.14  27 2.15
  12  0.211  0.018  0.333-  16 2.12  19 2.14  24 2.14  28 2.15
  13  0.044  0.512  0.097-   9 2.12   5 2.90
  14  0.456  0.488  0.597-  10 2.12   6 2.90
  15  0.544  0.988  0.903-  11 2.12   7 2.90
  16  0.956  0.012  0.403-  12 2.12   8 2.90
  17  0.613  0.431  0.777-  10 2.14   6 2.88   7 3.01
  18  0.887  0.569  0.277-   9 2.14   5 2.88   8 3.01
  19  0.113  0.069  0.223-  12 2.14   8 2.88   5 3.01
  20  0.387  0.931  0.723-  11 2.14   7 2.88   6 3.01
  21  0.574  0.746  0.145-   9 2.14   8 2.94   5 3.03
  22  0.926  0.254  0.645-  10 2.14   7 2.94   6 3.03
  23  0.074  0.754  0.855-  11 2.14   6 2.94   7 3.03
  24  0.426  0.246  0.355-  12 2.14   5 2.94   8 3.03
  25  0.612  0.257  0.155-   9 2.15   5 2.92   8 2.95
  26  0.888  0.743  0.655-  10 2.15   6 2.92   7 2.95
  27  0.112  0.243  0.845-  11 2.15   7 2.92   6 2.95
  28  0.388  0.757  0.345-  12 2.15   8 2.92   5 2.95

  LATTYP: Found a simple orthorhombic cell.
 ALAT       =     6.6096250000
 B/A-ratio  =     1.0307563591
 C/A-ratio  =     2.7621688069

  Lattice vectors:

 A1 = (   6.6096250000,   0.0000000000,   0.0000000000)
 A2 = (   0.0000000000,   6.8129130000,   0.0000000000)
 A3 = (   0.0000000000,   0.0000000000,  18.2569000000)

Analysis of symmetry for initial positions (statically):
 Subroutine PRICEL returns:
 Original cell was already a primitive cell.

 Routine SETGRP: Setting up the symmetry group for a
 simple orthorhombic supercell.

 Subroutine GETGRP returns: Found  4 space group operations
 (whereof  1 operations were pure point group operations)
 out of a pool of  8 trial point group operations.

The static configuration has the point symmetry C_1 .
 The point group associated with its full space group is D_2 .

Analysis of symmetry for dynamics (positions and initial velocities):
 Subroutine PRICEL returns:
 Original cell was already a primitive cell.

[...]

The dynamic configuration has the point symmetry C_1 .
 The point group associated with its full space group is D_2 .

Analysis of structural, dynamic, and magnetic symmetry:
 Subroutine PRICEL returns:
 Original cell was already a primitive cell.

 Routine SETGRP: Setting up the symmetry group for a
 simple orthorhombic supercell.

 Subroutine GETGRP returns: Found  4 space group operations
 (whereof  1 operations were pure point group operations)
 out of a pool of  8 trial point group operations.

The overall configuration has the point symmetry C_1 .
 The point group associated with its full space group is D_2 .

 Subroutine INISYM returns: Found  4 space group operations
 (whereof  1 operations are pure point group operations),
 and found     1 'primitive' translations

                                     Primitive cell

  volume of cell :     822.1228

  direct lattice vectors                    reciprocal lattice vectors
     6.609625000  0.000000000  0.000000000     0.151294514  0.000000000  0.000000000
     0.000000000  6.812913000  0.000000000     0.000000000  0.146780092  0.000000000
     0.000000000  0.000000000 18.256900000     0.000000000  0.000000000  0.054773812

  length of vectors
     6.609625000  6.812913000 18.256900000     0.151294514  0.146780092  0.054773812

  position of ions in fractional coordinates (direct lattice)
     0.499141000  0.493803000  0.966226000
     0.000859000  0.506197000  0.466226000
     0.999141000  0.006197000  0.033774000
     0.500859000  0.993803000  0.533774000
     0.290406000  0.475383000  0.227692000
     0.209594000  0.524617000  0.727692000
     0.790406000  0.024617000  0.772308000
     0.709594000  0.975383000  0.272308000
     0.789479000  0.518265000  0.167202000
     0.710521000  0.481735000  0.667202000
     0.289479000  0.981735000  0.832798000
     0.210521000  0.018265000  0.332798000
     0.044412000  0.512445000  0.097076000
     0.455588000  0.487555000  0.597076000
     0.544412000  0.987555000  0.902924000
     0.955588000  0.012445000  0.402924000
     0.612648000  0.431102000  0.777094000
     0.887352000  0.568898000  0.277094000
     0.112648000  0.068898000  0.222906000
     0.387352000  0.931102000  0.722906000
     0.574342000  0.745833000  0.144894000
     0.925658000  0.254167000  0.644894000
     0.074342000  0.754167000  0.855106000
     0.425658000  0.245833000  0.355106000
     0.611801000  0.256839000  0.154676000
     0.888199000  0.743161000  0.654676000
     0.111801000  0.243161000  0.845324000
     0.388199000  0.756839000  0.345324000

  ion indices of the primitive-cell ions
   primitive index   ion index
                 1           1
                 2           2
                 3           3
                 4           4
                 5           5
                 6           6
                 7           7
                 8           8
                 9           9
                10          10
                11          11
                12          12
                13          13
                14          14
                15          15
                16          16
                17          17
                18          18
                19          19
                20          20
                21          21
                22          22
                23          23
                24          24
                25          25
                26          26
                27          27
                28          28

 KPOINTS: Kpoints from vasprun.xml

Automatic generation of k-mesh.
 Grid dimensions read from file:
 generate k-points for:    4    4    1

 Generating k-lattice:

  Cartesian coordinates                     Fractional coordinates (reciprocal lattice)
     0.037823628  0.000000000  0.000000000     0.250000000  0.000000000  0.000000000
     0.000000000  0.036695023  0.000000000     0.000000000  0.250000000  0.000000000
     0.000000000  0.000000000  0.054773812     0.000000000  0.000000000  1.000000000

  Length of vectors
     0.037823628  0.036695023  0.054773812

  Shift w.r.t. Gamma in fractional coordinates (k-lattice)
     0.000000000  0.000000000  0.000000000

 TETIRR: Found     48 inequivalent tetrahedra from       96

 Subroutine IBZKPT returns following result:

 Found      9 irreducible k-points:

 Following reciprocal coordinates:
            Coordinates               Weight
  0.000000  0.000000  0.000000      1.000000
  0.250000  0.000000  0.000000      2.000000
  0.500000  0.000000  0.000000      1.000000
  0.000000  0.250000  0.000000      2.000000
  0.250000  0.250000  0.000000      4.000000
  0.500000  0.250000  0.000000      2.000000
  0.000000  0.500000  0.000000      1.000000
  0.250000  0.500000  0.000000      2.000000
  0.500000  0.500000  0.000000      1.000000

 Following cartesian coordinates:
            Coordinates               Weight
  0.000000  0.000000  0.000000      1.000000
  0.037824  0.000000  0.000000      2.000000
  0.075647  0.000000  0.000000      1.000000
  0.000000  0.036695  0.000000      2.000000
  0.037824  0.036695  0.000000      4.000000
  0.075647  0.036695  0.000000      2.000000
[...]
  318                map_forward                           0.000357                    4   7
  319                  map_gather                            0.000059                  2   8
  320                  m_alltoallv_z                         0.000032                  2   8
  321                  map_scatter                           0.000228                  2   8
  322                map_backward                          0.000138                    2   7
  323                  map_gather                            0.000033                  1   8
  324                  m_alltoallv_z                         0.000013                  1   8
  325                  map_scatter                           0.000070                  1   8
  326          m_sumb_d                              0.000008                          2   4
  327          pothar                                0.000095                          1   4
  328            m_sumb_d                              0.000008                        1   5
  329        brmix                                 0.019753                            1   3
  330          m_sumb_d                              0.000083                          6   4
  331          brpre                                 0.000064                          2   4
  332          setg0                                 0.002630                          1   4
  333          broyd                                 0.013791                          1   4
  334            m_sumb_d                              0.000190                       49   5
  335            brget                                 0.002995                      219   5
  336            brsav                                 0.000627                       47   5
  337        m_bcast_d                             0.000036                            2   3
  338      potlok                                0.090070                              2   2
  339        fft3d_mpi                             0.052776                           36   3
  340          fftbrc_mpi                            0.043699                         36   4
  341            fftbas_plan_mpi                       0.043683                       36   5
  342              map_forward                           0.011938                     40   6
  343                map_gather                            0.003305                   24   7
  344                m_alltoallv_z                         0.004869                   24   7
  345                map_scatter                           0.003505                   24   7
  346              map_backward                          0.010154                     32   6
  347                map_gather                            0.002699                   16   7
  348                m_alltoallv_z                         0.003908                   16   7
  349                map_scatter                           0.003256                   16   7
  350              dfftw_execute                         0.019584                     30   6
  351        m_sumb_d                              0.000027                            5   3
  352        pothar                                0.003657                            2   3
  353          m_sumb_d                              0.000298                          2   4
  354        m_bcast_d                             0.006360                            4   3
  355      potlok_metagga                        0.000000                              1   2
  356      set_dd_magatom                        0.000005                              1   2
  357      set_dd_paw                            2.360262                              1   2
  358        m_sumb_d                              0.000393                            7   3
  359      augmentation_charge                   0.269353                              1   2
  360        fft3d_mpi                             0.151409                            2   3
  361          fftbrc_mpi                            0.129532                          2   4
  362            fftbas_plan_mpi                       0.129528                        2   5
  363              dfftw_execute                         0.080051                      6   6
  364              map_backward                          0.049154                      4   6
  365                map_gather                            0.017339                    2   7
  366                m_alltoallv_z                         0.013295                    2   7
  367                map_scatter                           0.018506                    2   7
  368      fftwav_mpi                            5.218257                           2052   2
  369        fftwav                                5.215415                         2052   3
  370          fft3d                                 4.805751                       2052   4
  371      densta                                3.531124                              1   2

 Flat profile

 set_dd_paw                            647.033741         275
 eddav                                 200.348717         277
 lapack                                173.787545      367955
 raccmu_                               170.922806      367955
 redis_pw                               87.919410     2028270
 m_sumb_d                               82.207230     1133410
 dfftw_execute                          51.567947        7044
 m_alltoall_d                           38.928799     5344258
 setdij_                                33.470486         301
 augmentation_charge                    32.229200         275
 eccp                                   23.072165      189468
 total_time                             22.879166           1
 phaser                                 21.907788        5103
 fft3d                                  21.879673     2163823
 orth1                                  18.209159     1103955
 redis_proj                             17.200369     2574730
 densta                                 15.006950         278
 hamiltmu                               14.764608      367955
 fftwav                                 14.125976     1427913
 fft3d_mpi                              13.404134      745407
 init_acc                               11.239783           1
 w1_copy                                10.758729     2207730
 racc0mu_acc                            10.703557      367955
 overl                                  10.650006     1282370
 map_scatter                            10.383795       10615
 map_gather                              9.886844       10615
 m_alltoallv_z                           9.496120       10615
 rpromu_acc                              8.558648      275561
 m_bcast_z                               8.375322      370691
 soft_charge                             8.219414         274
 setup_precond                           6.918393      189468
 set_charge                              6.506353         274
 ggemm                                   6.142840      462689
 m_bcast_d                               6.131010      736465
 pw_charge                               5.829125      134617
 overl_mu                                5.794086      367955
 vhamil                                  3.364869      735910
 kinhamil                                3.289494      735910
 fftext_mpi                              3.105972      735910
 depsum                                  3.064176         274
 newband                                 2.962715      372941
 apply_precond                           2.909726      546442
 broyd                                   2.567361         273
 acc_init_cublas                         2.443999           1
 potlok                                  2.325894         275
 fftwav_mpi                              1.982978     1427913
 brmix                                   1.127155         273
 brget                                   0.843545       60648
 acc_init_cusolver                       0.800710           1
 setg0                                   0.727599         275
 elmin                                   0.667565           1
 fftbas_plan_mpi                         0.556748        9497
 rpro_isp                                0.527380         117
 w1_projall                              0.268120      273221
 rspher_all                              0.256953          14
 brsav                                   0.235356       17364
 lincom                                  0.195549        5004
 sphpro_fast                             0.148485           2
 acc_cufft_makeplan                      0.112526          19
 proall                                  0.092048           1
 map_backward                            0.084829       10034
 truncate_high_frequency_w1              0.072897      925378
 map_forward                             0.072247        8960
 fft_gq                                  0.062763         274
 orthch                                  0.041622           1
 stufak                                  0.033772           1
 force_and_stress                        0.031639           1
 pothar                                  0.029721         276
 brpre                                   0.018981         546
 choleski                                0.009157          18
 fftbrc_mpi                              0.006387        9497
 strelo                                  0.006350           1
 forhar                                  0.005319           2
 inisym                                  0.004577           1
 strnlr                                  0.003757           1
 strehar                                 0.003594           1
 forloc                                  0.002741           1
 strkin                                  0.002343           1
 fornlr                                  0.001304           1
 rsp                                     0.001297           1
 set_dd_magatom                          0.001265         275
 vectorpot                               0.001106         274
 brgrid                                  0.000460           1
 fewald                                  0.000338           1
 chggra                                  0.000287           1
 fordep                                  0.000097           1
 rcp                                     0.000045           1
 posmap                                  0.000031           2
 crpa_reader                             0.000027           1
 potlok_metagga                          0.000020         274
 acc_cufft_makeplans                     0.000010           3
 rotate_active_occupied_orbital          0.000000           1
 redis_pw_over_bands                     0.000000           1
  summed up times     1871.535799980164

 Accumulative profile

 total_time                           1871.535800           1
 elmin                                1806.194125           1
 eddav                                 959.743210         277
 set_dd_paw                            648.249791         275
 hamiltmu                              217.367713      367955
 raccmu_                               187.420449      367955
 lapack                                173.787545      367955
 redis_pw                              108.049957     2028270
 set_charge                            107.723809         274
 fft3d_mpi                             100.654695      745407
 setdij_                                83.024166         301
 m_sumb_d                               82.207230     1133410
 fftbrc_mpi                             82.054917        9497
 fftbas_plan_mpi                        82.048530        9497
 augmentation_charge                    74.088645         275
 dfftw_execute                          51.567947        7044
 newband                                48.111677      372941
 m_alltoall_d                           38.928799     5344258
 redis_proj                             35.998621     2574730
 fftwav_mpi                             32.792983     1427913
 fftwav                                 30.810005     1427913
 soft_charge                            23.163565         274
 eccp                                   23.072165      189468
 phaser                                 21.907788        5103
 fft3d                                  21.879673     2163823
 orth1                                  18.209159     1103955
 map_backward                           16.500674       10034
 densta                                 15.006950         278
 map_forward                            13.423161        8960
 force_and_stress                       12.041213           1
 kinhamil                               11.817788      735910
 init_acc                               11.239783           1
 w1_copy                                10.758729     2207730
 racc0mu_acc                            10.703557      367955
 overl                                  10.650006     1282370
 map_scatter                            10.383795       10615
 map_gather                              9.886844       10615
 m_alltoallv_z                           9.496120       10615
 rpromu_acc                              8.558648      275561
 fftext_mpi                              8.528294      735910
 m_bcast_z                               8.375322      370691
 w1_projall                              8.241107      273221
 setup_precond                           6.918393      189468
 ggemm                                   6.142840      462689
 m_bcast_d                               6.131010      736465
 pw_charge                               5.829125      134617
 overl_mu                                5.794086      367955
 brmix                                   5.599094         273
 potlok                                  4.305433         275
 broyd                                   3.702953         273
 vhamil                                  3.364869      735910
 depsum                                  3.153773         274
 apply_precond                           2.909726      546442
 acc_init_cublas                         2.443999           1
 fordep                                  1.644329           1
 strnlr                                  1.557918           1
 fft_gq                                  1.548284         274
 rpro_isp                                1.402453         117
 brget                                   0.843545       60648
 acc_init_cusolver                       0.800710           1
 setg0                                   0.727599         275
 fornlr                                  0.519178           1
 orthch                                  0.303343           1
 rspher_all                              0.256953          14
 brsav                                   0.235356       17364
 lincom                                  0.195549        5004
 proall                                  0.173339           1
 sphpro_fast                             0.154702           2
 acc_cufft_makeplans                     0.112536           3
 acc_cufft_makeplan                      0.112526          19
 truncate_high_frequency_w1              0.072897      925378
 stufak                                  0.033772           1
 pothar                                  0.032068         276
 brpre                                   0.018981         546
 choleski                                0.009157          18
 strelo                                  0.006459           1
 forhar                                  0.005394           2
 inisym                                  0.004608           1
 forloc                                  0.004144           1
 strehar                                 0.003624           1
 strkin                                  0.002357           1
 fewald                                  0.001770           1
 rsp                                     0.001297           1
 set_dd_magatom                          0.001265         275
 chggra                                  0.001118           1
 vectorpot                               0.001106         274
 brgrid                                  0.000460           1
 rcp                                     0.000045           1
 posmap                                  0.000031           2
 crpa_reader                             0.000027           1
 potlok_metagga                          0.000020         274
 rotate_active_occupied_orbital          0.000000           1
 redis_pw_over_bands                     0.000000           1

Profiling took   4.706491  2.288543  0.003241  0.003138 seconds
Profiling took   3.096063 seconds