 vasp.6.3.2 27Jun22 (build Jul  3 2023 11:46:21) complex
 executed on    LinuxNV_CrayMPICH date 2024.04.21  04:04:43

 INCAR:
   ADDGRID = True
   ALGO = Normal
   EDIFF = 0.0002
   ENCUT = 520.0
   IBRION = -1
   ICHARG = 0
   ISIF = 3
   ISMEAR = 0
   ISPIN = 2
   KPOINT_BSE = -1 0 0 0
   LAECHG = True
   LASPH = True
   LCHARG = True
   LELF = True
   LORBIT = 11
   LREAL = Auto
   LVHAR = True
   LWAVE = False
   MAGMOM = 1*7.0 3*0.6
   NELM = 1000
   NSW = 0
   PREC = accurate
   SIGMA = 0.05

 POTCAR:    PAW_PBE Gd 23Dec2003
 POTCAR:    PAW_PBE Sn_d 06Sep2000
 POTCAR:    PAW_PBE Rh_pv 25Jan2005
 POTCAR:    PAW_PBE Gd 23Dec2003
   VRHFIN =Gd : [core=Xe4]

   TITEL  = PAW_PBE Gd 23Dec2003
   POMASS =  157.250; ZVAL   =   18.000    mass and valenz
   ENMAX  =  256.472; ENMIN  =  192.354 eV

   TITEL  = PAW_PBE Sn_d 06Sep2000
   POMASS =  118.710; ZVAL   =   14.000    mass and valenz
   ENMAX  =  241.083; ENMIN  =  180.812 eV

   TITEL  = PAW_PBE Rh_pv 25Jan2005
   POMASS =  102.906; ZVAL   =   15.000    mass and valenz
   ENMAX  =  247.408; ENMIN  =  185.556 eV

 Optimization of the real space projectors (new method)

 maximal supplied QI-value         = 13.42
 optimisation between [QCUT,QGAM] = [ 11.67, 23.35] = [ 38.16,152.62] Ry
 Optimized for a Real-space Cutoff    1.63 Angstroem

   l    n(q)    QCUT    max X(q) W(low)/X(q) W(high)/X(q)  e(spline)
   0     11    11.673    10.501    0.14E-04    0.17E-05    0.21E-07
   0     11    11.673     9.148    0.21E-04    0.32E-05    0.45E-07
   1     11    11.673     4.035    0.33E-05    0.11E-04    0.84E-07
   1     11    11.673     4.388    0.11E-04    0.47E-04    0.34E-06
   2     10    11.673    20.656    0.12E-04    0.28E-04    0.54E-06
   2     10    11.673    12.651    0.11E-04    0.26E-04    0.51E-06
   3     10    11.673    61.921    0.19E-03    0.22E-03    0.23E-06
   3     10    11.673    48.328    0.20E-03    0.23E-03    0.23E-06
 Optimization of the real space projectors (new method)

[...]

   l    n(q)    QCUT    max X(q) W(low)/X(q) W(high)/X(q)  e(spline)
   2      9    11.641     5.880    0.49E-04    0.15E-04    0.99E-07
   2      9    11.641     7.804    0.17E-03    0.18E-03    0.15E-06
   0      9    11.641    20.557    0.10E-03    0.34E-04    0.76E-07
   0      9    11.641     9.400    0.13E-03    0.43E-04    0.95E-07
   1      9    11.641    94.178    0.25E-03    0.19E-03    0.20E-06
   1      9    11.641    56.401    0.24E-03    0.18E-03    0.20E-06
 Optimization of the real space projectors (new method)

 maximal supplied QI-value         = 15.68
 optimisation between [QCUT,QGAM] = [ 11.61, 23.21] = [ 37.72,150.90] Ry
 Optimized for a Real-space Cutoff    1.45 Angstroem

   l    n(q)    QCUT    max X(q) W(low)/X(q) W(high)/X(q)  e(spline)
   1     10    11.607     3.143    0.27E-04    0.48E-04    0.10E-06
   1     10    11.607     5.034    0.71E-04    0.17E-03    0.32E-06
   2      9    11.607    64.180    0.22E-03    0.59E-04    0.28E-06
   2      9    11.607    61.342    0.22E-03    0.61E-04    0.29E-06
   0     10    11.607    55.593    0.52E-04    0.32E-04    0.17E-06
   0     10    11.607    26.178    0.47E-04    0.29E-04    0.15E-06
  PAW_PBE Gd 23Dec2003                  :
  PAW_PBE Sn_d 06Sep2000                :
  PAW_PBE Rh_pv 25Jan2005               :

 POSCAR: Gd1 Sn1 Rh2
  positions in direct lattice
 exchange correlation table for  LEXCH =        8
   RHO(1)=    0.500       N(1)  =     2000
   RHO(2)=  100.500       N(2)  =     4000

 VTST: version 4.2, (08/11/21)

 CHAIN: initializing optimizer

 OPT: Using VASP Dynamics algorithm
 CHAIN: Read ICHAIN             0

 POSCAR: Gd1 Sn1 Rh2
  positions in direct lattice

 ion  position               nearest neighbor table
   1  0.000  0.000  0.000-   3 2.91   3 2.91   3 2.91   3 2.91   4 2.91   4 2.91   4 2.91   4 2.91
                             2 3.36   2 3.36   2 3.36   2 3.36   2 3.36   2 3.36
   2  0.500  0.500  0.500-   4 2.91   4 2.91   4 2.91   3 2.91   4 2.91   3 2.91   3 2.91   3 2.91
                             1 3.36   1 3.36   1 3.36   1 3.36   1 3.36   1 3.36
   3  0.750  0.750  0.750-   2 2.91   2 2.91   2 2.91   1 2.91   2 2.91   1 2.91   1 2.91   1 2.91
                             4 3.36   4 3.36   4 3.36   4 3.36   4 3.36   4 3.36
   4  0.250  0.250  0.250-   1 2.91   1 2.91   1 2.91   1 2.91   2 2.91   2 2.91   2 2.91   2 2.91
                             3 3.36   3 3.36   3 3.36   3 3.36   3 3.36   3 3.36

  LATTYP: Found a face centered cubic cell.
 ALAT       =     6.7109520000

  Lattice vectors:

 A1 = (   0.0000000000,   3.3554760000,   3.3554760000)
 A2 = (   3.3554760000,   0.0000000000,   3.3554760000)
 A3 = (   3.3554760000,   3.3554760000,   0.0000000000)

Analysis of symmetry for initial positions (statically):
 Subroutine PRICEL returns:
 Original cell was already a primitive cell.

 Routine SETGRP: Setting up the symmetry group for a
 face centered cubic supercell.

 Subroutine GETGRP returns: Found 48 space group operations
 (whereof 48 operations were pure point group operations)
 out of a pool of 48 trial point group operations.

The static configuration has the point symmetry O_h .

Analysis of symmetry for dynamics (positions and initial velocities):
 Subroutine PRICEL returns:
 Original cell was already a primitive cell.

[...]

The dynamic configuration has the point symmetry O_h .

Analysis of structural, dynamic, and magnetic symmetry:
 Subroutine PRICEL returns:
 Original cell was already a primitive cell.

 Routine SETGRP: Setting up the symmetry group for a
 face centered cubic supercell.

 Subroutine GETGRP returns: Found 48 space group operations
 (whereof 48 operations were pure point group operations)
 out of a pool of 48 trial point group operations.

The overall configuration has the point symmetry O_h .

 Subroutine INISYM returns: Found 48 space group operations
 (whereof 48 operations are pure point group operations),
 and found     1 'primitive' translations

                                     Primitive cell

  volume of cell :      75.5601

  direct lattice vectors                    reciprocal lattice vectors
     0.000000000  3.355476000  3.355476000    -0.149010155  0.149010155  0.149010155
     3.355476000  0.000000000  3.355476000     0.149010155 -0.149010155  0.149010155
     3.355476000  3.355476000  0.000000000     0.149010155  0.149010155 -0.149010155

  length of vectors
     4.745359667  4.745359667  4.745359667     0.258093160  0.258093160  0.258093160

  position of ions in fractional coordinates (direct lattice)
     0.000000000  0.000000000  0.000000000
     0.500000000  0.500000000  0.500000000
     0.750000000  0.750000000  0.750000000
     0.250000000  0.250000000  0.250000000

  ion indices of the primitive-cell ions
   primitive index   ion index
                 1           1
                 2           2
                 3           3
                 4           4

 KPOINTS: Kpoints from vasprun.xml

Automatic generation of k-mesh.
 Grid dimensions read from file:
 generate k-points for:    6    6    6

 Generating k-lattice:

  Cartesian coordinates                     Fractional coordinates (reciprocal lattice)
    -0.024835026  0.024835026  0.024835026     0.166666667 -0.000000000 -0.000000000
     0.024835026 -0.024835026  0.024835026    -0.000000000  0.166666667  0.000000000
     0.024835026  0.024835026 -0.024835026     0.000000000  0.000000000  0.166666667

  Length of vectors
     0.043015527  0.043015527  0.043015527

  Shift w.r.t. Gamma in fractional coordinates (k-lattice)
     0.000000000  0.000000000  0.000000000

 Subroutine IBZKPT returns following result:

 Found     16 irreducible k-points:

 Following reciprocal coordinates:
            Coordinates               Weight
  0.000000  0.000000  0.000000      1.000000
  0.166667  0.000000  0.000000      8.000000
  0.333333  0.000000  0.000000      8.000000
  0.500000  0.000000  0.000000      4.000000
  0.166667  0.166667  0.000000      6.000000
  0.333333  0.166667  0.000000     24.000000
  0.500000  0.166667  0.000000     24.000000
 -0.333333  0.166667  0.000000     24.000000
 -0.166667  0.166667  0.000000     12.000000
  0.333333  0.333333  0.000000      6.000000
  0.500000  0.333333  0.000000     24.000000
 -0.333333  0.333333  0.000000     12.000000
  0.500000  0.500000  0.000000      3.000000
  0.500000  0.333333  0.166667     24.000000
 -0.333333  0.333333  0.166667     24.000000
 -0.333333  0.500000  0.166667     12.000000

 Following cartesian coordinates:
            Coordinates               Weight
  0.000000  0.000000  0.000000      1.000000
 -0.024835  0.024835  0.024835      8.000000
 -0.049670  0.049670  0.049670      8.000000
 -0.074505  0.074505  0.074505      4.000000
  0.000000  0.000000  0.049670      6.000000
 -0.024835  0.024835  0.074505     24.000000
 -0.049670  0.049670  0.099340     24.000000
  0.074505 -0.074505 -0.024835     24.000000
  0.049670 -0.049670  0.000000     12.000000
  0.000000  0.000000  0.099340      6.000000
 -0.024835  0.024835  0.124175     24.000000
  0.099340 -0.099340  0.000000     12.000000
  0.000000  0.000000  0.149010      3.000000
  0.000000  0.049670  0.099340     24.000000
  0.124175 -0.074505 -0.024835     24.000000
  0.149010 -0.099340  0.000000     12.000000

 SYSTEM =  unknown system
 POSCAR =  Gd1 Sn1 Rh2

 Startparameter for this run:
   NWRITE =      2    write-flag & timer
   PREC   = accura    normal or accurate (medium, high low for compatibility)
   ISTART =      0    job   : 0-new  1-cont  2-samecut
   ICHARG =      0    charge: 1-file 2-atom 10-const
   ISPIN  =      2    spin polarized calculation?
   LNONCOLLINEAR =      F non collinear calculations
   LSORBIT =      F    spin-orbit coupling
   INIWAV =      1    electr: 0-lowe 1-rand  2-diag
   LASPH  =      T    aspherical Exc in radial PAW
 Electronic Relaxation 1
   ENCUT  =  520.0 eV  38.22 Ry    6.18 a.u.   8.82  8.82  8.82*2*pi/ulx,y,z
   ENINI  =  520.0     initial cutoff
   ENAUG  =  537.2 eV  augmentation charge cutoff
   NELM   =   1000;   NELMIN=  2; NELMDL= -5     # of ELM steps
   EDIFF  = 0.2E-03   stopping-criterion for ELM
   LREAL  =      T    real-space projection
   NLSPLINE    = F    spline interpolate recip. space projectors
   LCOMPAT=      F    compatible to vasp.4.4
   GGA_COMPAT  = T    GGA compatible to vasp.4.4-vasp.4.6
   LMAXPAW     = -100 max onsite density
   LMAXMIX     =    2 max onsite mixed and CHGCAR
   VOSKOWN=      0    Vosko Wilk Nusair interpolation
   ROPT   =   -0.00025  -0.00025  -0.00025
 Ionic relaxation
   EDIFFG = 0.2E-02   stopping-criterion for IOM
   NSW    =      0    number of steps for IOM
   NBLOCK =      1;   KBLOCK =      1    inner block; outer block
   IBRION =     -1    ionic relax: 0-MD 1-quasi-New 2-CG
   NFREE  =      0    steps in history (QN), initial steepest desc. (CG)
   ISIF   =      3    stress and relaxation
   IWAVPR =     10    prediction:  0-non 1-charg 2-wave 3-comb
   ISYM   =      2    0-nonsym 1-usesym 2-fastsym
   LCORR  =      T    Harris-Foulkes like correction to forces

   POTIM  = 0.5000    time-step for ionic-motion
   TEIN   =    0.0    initial temperature
[...]
  320                  map_gather                            0.000040                  2   8
  321                  m_alltoallv_z                         0.000025                  2   8
  322                  map_scatter                           0.000073                  2   8
  323                map_backward                          0.000079                    2   7
  324                  map_gather                            0.000018                  1   8
  325                  m_alltoallv_z                         0.000009                  1   8
  326                  map_scatter                           0.000037                  1   8
  327          m_sumb_d                              0.000037                          2   4
  328          pothar                                0.000074                          1   4
  329            m_sumb_d                              0.000007                        1   5
  330        brmix                                 0.002817                            1   3
  331          m_sumb_d                              0.000026                          6   4
  332          brpre                                 0.000012                          2   4
  333          setg0                                 0.000332                          1   4
  334          broyd                                 0.002061                          1   4
  335            m_sumb_d                              0.000188                       42   5
  336            brsav                                 0.000099                       41   5
  337            brget                                 0.000426                      184   5
  338        m_bcast_d                             0.000017                            2   3
  339      potlok                                0.014995                              2   2
  340        fft3d_mpi                             0.009955                           36   3
  341          fftbrc_mpi                            0.008501                         36   4
  342            fftbas_plan_mpi                       0.008482                       36   5
  343              map_forward                           0.002510                     40   6
  344                map_gather                            0.000842                   24   7
  345                m_alltoallv_z                         0.000697                   24   7
  346                map_scatter                           0.000801                   24   7
  347              map_backward                          0.002052                     32   6
  348                map_gather                            0.000635                   16   7
  349                m_alltoallv_z                         0.000552                   16   7
  350                map_scatter                           0.000693                   16   7
  351              dfftw_execute                         0.002419                     30   6
  352        m_sumb_d                              0.000026                            5   3
  353        pothar                                0.000534                            2   3
  354          m_sumb_d                              0.000050                          2   4
  355        m_bcast_d                             0.000831                            4   3
  356      potlok_metagga                        0.000000                              1   2
  357      set_dd_magatom                        0.000005                              1   2
  358      set_dd_paw                            0.931806                              1   2
  359        m_sumb_d                              0.455345                            7   3
  360      augmentation_charge                   0.060378                              1   2
  361        fft3d_mpi                             0.014753                            2   3
  362          fftbrc_mpi                            0.013387                          2   4
  363            fftbas_plan_mpi                       0.013386                        2   5
  364              dfftw_execute                         0.008639                      6   6
  365              map_backward                          0.004528                      4   6
  366                map_gather                            0.001019                    2   7
  367                m_alltoallv_z                         0.002606                    2   7
  368                map_scatter                           0.000895                    2   7
  369      fftwav_mpi                            0.367504                           1056   2
  370        fftwav                                0.366225                         1056   3
  371          fft3d                                 0.350847                       1056   4
  372      densta                                0.000831                              1   2
  373        m_sumb_d                              0.000417                           37   3

 Flat profile

 m_sumb_d                               24.058340       94516
 set_dd_paw                             18.015395          38
 eddav                                  12.937736          40
 lapack                                 12.707969       29572
 init_acc                               10.994733           1
 raccmu_                                 8.837076       29572
 total_time                              6.074197           1
 redis_pw                                5.052412      149890
 m_alltoall_d                            2.858034      392314
 setdij_                                 2.778818          64
 acc_init_cublas                         2.465762           1
 augmentation_charge                     1.807359          38
 phaser                                  1.776138        1488
 fft3d                                   1.641856      162658
 redis_proj                              1.276989      189624
 dfftw_execute                           1.174444        1356
 eccp                                    1.172305       14080
 fftwav                                  1.072721      108876
 orth1                                   0.973252       88780
 racc0mu_acc                             0.845043       29572
 rpromu_acc                              0.807132       23140
 acc_init_cusolver                       0.803221           1
 w1_copy                                 0.786426      161346
 overl                                   0.777790       93516
 soft_charge                             0.711094          37
 m_bcast_z                               0.608094       30980
 hamiltmu                                0.549564       29572
 setup_precond                           0.510798       14080
 m_bcast_d                               0.501003       59225
 overl_mu                                0.453145       29572
 m_alltoallv_z                           0.400941        1609
 ggemm                                   0.383231       37252
 rpro_isp                                0.284276         208
 newband                                 0.255981       30852
 vhamil                                  0.251059       53782
 kinhamil                                0.245513       53782
 pw_charge                               0.235085        9760
 fftext_mpi                              0.227762       53782
 fft3d_mpi                               0.224810       55221
 apply_precond                           0.221413       39702
 depsum                                  0.208895          37
 map_gather                              0.149826        1609
 acc_cufft_makeplan                      0.147073          19
 set_charge                              0.144557          37
 fftwav_mpi                              0.144103      108876
 map_scatter                             0.143976        1609
 potlok                                  0.097362          38
 fftbas_plan_mpi                         0.088068        1439
 rspher_all                              0.087040          14
 elmin                                   0.065988           1
 lincom                                  0.041678        1312
 proall                                  0.039820           1
 sphpro_fast                             0.025884           2
 broyd                                   0.025758          36
 w1_projall                              0.022653       21892
 brmix                                   0.015584          36
 setg0                                   0.012259          38
 densta                                  0.010647          41
 force_and_stress                        0.008638           1
 choleski                                0.007615          32
 brget                                   0.007611        3468
 orthch                                  0.007370           1
 map_backward                            0.007026        1502
 map_forward                             0.006888        1376
 truncate_high_frequency_w1              0.005461       67862
 inisym                                  0.004629           1
 strnlr                                  0.004064           1
 pothar                                  0.003101          39
 brsav                                   0.001822         817
 fornlr                                  0.001411           1
 forhar                                  0.000908           2
 stufak                                  0.000849           1
 fftbrc_mpi                              0.000842        1439
 strelo                                  0.000811           1
 strehar                                 0.000625           1
 fft_gq                                  0.000565          37
 forloc                                  0.000514           1
 brpre                                   0.000509          72
 fewald                                  0.000342           1
 chggra                                  0.000214           1
 strkin                                  0.000188           1
 set_dd_magatom                          0.000161          38
 vectorpot                               0.000154          37
 brgrid                                  0.000083           1
 rsp                                     0.000050           1
 fordep                                  0.000042           1
 posmap                                  0.000033           2
 crpa_reader                             0.000027           1
 acc_cufft_makeplans                     0.000014           3
 rcp                                     0.000013           1
 potlok_metagga                          0.000005          37
 rotate_active_occupied_orbital          0.000001           1
 redis_pw_over_bands                     0.000000           1
  summed up times     129.3026709556580

 Accumulative profile

 total_time                            129.302671           1
 elmin                                 103.080644           1
 eddav                                  62.766742          40
 set_dd_paw                             35.585754          38
 m_sumb_d                               24.058340       94516
 lapack                                 12.707969       29572
 hamiltmu                               11.811193       29572
 init_acc                               10.994733           1
 raccmu_                                10.135264       29572
 redis_pw                                6.412509      149890
 set_charge                              4.099682          37
 setdij_                                 4.015461          64
 force_and_stress                        3.585515           1
 newband                                 2.978049       30852
 m_alltoall_d                            2.858034      392314
 redis_proj                              2.774925      189624
 fft3d_mpi                               2.583071       55221
 fftwav_mpi                              2.472430      108876
 acc_init_cublas                         2.465762           1
 augmentation_charge                     2.391957          38
 fftwav                                  2.328327      108876
 fftbrc_mpi                              1.972010        1439
 fftbas_plan_mpi                         1.971168        1439
 phaser                                  1.776138        1488
 fft3d                                   1.641856      162658
 soft_charge                             1.392256          37
 dfftw_execute                           1.174444        1356
 eccp                                    1.172305       14080
 orth1                                   0.973252       88780
 kinhamil                                0.875305       53782
 racc0mu_acc                             0.845043       29572
 rpromu_acc                              0.807132       23140
 acc_init_cusolver                       0.803221           1
 w1_copy                                 0.786426      161346
 overl                                   0.777790       93516
 strnlr                                  0.679376           1
 w1_projall                              0.635229       21892
 fftext_mpi                              0.629792       53782
 rpro_isp                                0.615075         208
 m_bcast_z                               0.608094       30980
 setup_precond                           0.510798       14080
 m_bcast_d                               0.501003       59225
 overl_mu                                0.453145       29572
 map_forward                             0.421305        1376
 m_alltoallv_z                           0.400941        1609
 ggemm                                   0.383231       37252
 fordep                                  0.379098           1
 potlok                                  0.369823          38
 map_backward                            0.287351        1502
 vhamil                                  0.251059       53782
 pw_charge                               0.235085        9760
 fornlr                                  0.226365           1
 apply_precond                           0.221413       39702
 depsum                                  0.211030          37
 orthch                                  0.208487           1
 map_gather                              0.149826        1609
 acc_cufft_makeplans                     0.147087           3
 acc_cufft_makeplan                      0.147073          19
 map_scatter                             0.143976        1609
 rspher_all                              0.087040          14
 proall                                  0.086377           1
 brmix                                   0.067848          36
 lincom                                  0.041678        1312
 broyd                                   0.038346          36
 fft_gq                                  0.029691          37
 sphpro_fast                             0.026647           2
 densta                                  0.018813          41
 setg0                                   0.012259          38
 choleski                                0.007615          32
 brget                                   0.007611        3468
 truncate_high_frequency_w1              0.005461       67862
 inisym                                  0.004662           1
 pothar                                  0.003497          39
 brsav                                   0.001822         817
 forhar                                  0.000936           2
 strelo                                  0.000875           1
 stufak                                  0.000849           1
 chggra                                  0.000747           1
 strehar                                 0.000715           1
 forloc                                  0.000549           1
 brpre                                   0.000509          72
 fewald                                  0.000456           1
 strkin                                  0.000201           1
 set_dd_magatom                          0.000161          38
 vectorpot                               0.000154          37
 brgrid                                  0.000083           1
 rsp                                     0.000050           1
 posmap                                  0.000033           2
 crpa_reader                             0.000027           1
 rcp                                     0.000013           1
 potlok_metagga                          0.000005          37
 rotate_active_occupied_orbital          0.000001           1
 redis_pw_over_bands                     0.000000           1

Profiling took   0.343502  0.171609  0.003560  0.003482 seconds
Profiling took   0.213901 seconds