 vasp.6.3.2 27Jun22 (build Jul  3 2023 11:46:21) complex
 executed on    LinuxNV_CrayMPICH date 2024.04.21  22:16:39

 INCAR:
   ADDGRID = True
   ALGO = Normal
   EDIFF = 0.002
   ENCUT = 520.0
   IBRION = -1
   ICHARG = 0
   ISIF = 3
   ISMEAR = -5
   ISPIN = 2
   KPOINT_BSE = -1 0 0 0
   LAECHG = True
   LASPH = True
   LCHARG = True
   LELF = True
   LORBIT = 11
   LREAL = Auto
   LVHAR = True
   LWAVE = False
   MAGMOM = 4*0.6 4*7.0 32*0.6
   NELM = 1000
   NSW = 0
   PREC = accurate
   SIGMA = 0.05

 POTCAR:    PAW_PBE Cs_sv 08Apr2002
 POTCAR:    PAW_PBE Gd 23Dec2003
 POTCAR:    PAW_PBE C 08Apr2002
 POTCAR:    PAW_PBE O 08Apr2002
 POTCAR:    PAW_PBE Cs_sv 08Apr2002
   VRHFIN =Cs: 5s5p6s

   TITEL  = PAW_PBE Cs_sv 08Apr2002
   POMASS =  132.900; ZVAL   =    9.000    mass and valenz
   ENMAX  =  220.318; ENMIN  =  165.238 eV

   TITEL  = PAW_PBE Gd 23Dec2003
   POMASS =  157.250; ZVAL   =   18.000    mass and valenz
   ENMAX  =  256.472; ENMIN  =  192.354 eV

   TITEL  = PAW_PBE C 08Apr2002
   POMASS =   12.011; ZVAL   =    4.000    mass and valenz
   ENMAX  =  400.000; ENMIN  =  300.000 eV

   TITEL  = PAW_PBE O 08Apr2002
   POMASS =   16.000; ZVAL   =    6.000    mass and valenz
   ENMAX  =  400.000; ENMIN  =  300.000 eV

 Optimization of the real space projectors (new method)

 maximal supplied QI-value         = 15.12
 optimisation between [QCUT,QGAM] = [ 11.64, 23.28] = [ 37.95,151.78] Ry
 Optimized for a Real-space Cutoff    1.58 Angstroem

   l    n(q)    QCUT    max X(q) W(low)/X(q) W(high)/X(q)  e(spline)
   0     11    11.641    25.322    0.32E-04    0.44E-04    0.76E-06
   0     11    11.641    99.187    0.29E-04    0.43E-04    0.73E-06
   1     11    11.641    11.761    0.14E-03    0.20E-04    0.36E-06
   1     11    11.641     8.275    0.16E-03    0.25E-04    0.39E-06
   2     10    11.641     3.829    0.40E-04    0.12E-03    0.26E-06
 Optimization of the real space projectors (new method)

[...]

   l    n(q)    QCUT    max X(q) W(low)/X(q) W(high)/X(q)  e(spline)
   0      7    11.561   115.676    0.20E-03    0.60E-03    0.21E-06
   0      7    11.561    87.132    0.20E-03    0.59E-03    0.21E-06
   1      7    11.561     4.429    0.23E-03    0.35E-03    0.15E-06
   1      7    11.561     2.733    0.18E-03    0.25E-03    0.12E-06
 Optimization of the real space projectors (new method)

 maximal supplied QI-value         = 24.76
 optimisation between [QCUT,QGAM] = [ 11.64, 23.27] = [ 37.91,151.63] Ry
 Optimized for a Real-space Cutoff    1.14 Angstroem

   l    n(q)    QCUT    max X(q) W(low)/X(q) W(high)/X(q)  e(spline)
   0      8    11.635    20.381    0.10E-03    0.33E-03    0.24E-06
   0      8    11.635    15.268    0.11E-03    0.35E-03    0.26E-06
   1      7    11.635     5.964    0.24E-03    0.31E-03    0.30E-06
   1      7    11.635     5.382    0.22E-03    0.25E-03    0.26E-06
  PAW_PBE Cs_sv 08Apr2002               :
  PAW_PBE Gd 23Dec2003                  :
  PAW_PBE C 08Apr2002                   :
  PAW_PBE O 08Apr2002                   :

 POSCAR: Cs4 Gd4 C8 O24
  positions in direct lattice
 exchange correlation table for  LEXCH =        8
   RHO(1)=    0.500       N(1)  =     2000
   RHO(2)=  100.500       N(2)  =     4000

 VTST: version 4.2, (08/11/21)

 CHAIN: initializing optimizer

 OPT: Using VASP Dynamics algorithm
 CHAIN: Read ICHAIN             0

 POSCAR: Cs4 Gd4 C8 O24
  positions in direct lattice

 ion  position               nearest neighbor table
   1  0.245  0.031  0.037-
   2  0.755  0.969  0.963-
   3  0.241  0.190  0.527-
   4  0.759  0.810  0.473-
   5  0.261  0.522  0.049-  39 2.36  32 2.38  25 2.47  23 2.48  20 2.53  24 2.54  17 2.54  30 2.62
                            18 2.63
   6  0.739  0.478  0.951-  40 2.36  31 2.38  26 2.47  24 2.48  19 2.53  23 2.54  18 2.54  29 2.62
                            17 2.63
   7  0.241  0.714  0.543-  34 2.35  35 2.36  27 2.40  37 2.42  30 2.44  21 2.45  36 2.53  20 2.54

   8  0.759  0.286  0.457-  33 2.35  36 2.36  28 2.40  38 2.42  29 2.44  22 2.45  35 2.53  19 2.54

   9  0.585  0.400  0.233-  22 1.29  17 1.30  19 1.31
  10  0.415  0.600  0.767-  21 1.29  18 1.30  20 1.31
  11  0.005  0.723  0.213-  27 1.29  26 1.30  23 1.31
  12  0.995  0.277  0.787-  28 1.29  25 1.30  24 1.31
  13  0.544  0.141  0.740-  34 1.28  31 1.30  29 1.32
  14  0.456  0.859  0.260-  33 1.28  32 1.30  30 1.32
  15  0.029  0.298  0.289-  39 1.28  38 1.30  35 1.31
  16  0.971  0.702  0.711-  40 1.28  37 1.30  36 1.31
  17  0.505  0.443  0.128-   9 1.30   5 2.54   6 2.63
  18  0.495  0.557  0.872-  10 1.30   6 2.54   5 2.63
  19  0.724  0.382  0.206-   9 1.31   6 2.53   8 2.54
  20  0.276  0.618  0.794-  10 1.31   5 2.53   7 2.54
  21  0.463  0.627  0.637-  10 1.29   7 2.45
  22  0.537  0.373  0.363-   9 1.29   8 2.45
  23  0.047  0.626  0.117-  11 1.31   5 2.48   6 2.54
  24  0.953  0.374  0.883-  12 1.31   6 2.48   5 2.54
  25  0.134  0.262  0.839-  12 1.30   5 2.47
  26  0.866  0.738  0.161-  11 1.30   6 2.47
  27  0.095  0.799  0.352-  11 1.29   7 2.40
  28  0.905  0.201  0.648-  12 1.29   8 2.40
  29  0.609  0.273  0.675-  13 1.32   8 2.44   6 2.62
  30  0.391  0.727  0.325-  14 1.32   7 2.44   5 2.62
  31  0.558  0.177  0.889-  13 1.30   6 2.38
  32  0.442  0.823  0.111-  14 1.30   5 2.38
  33  0.531  0.013  0.340-  14 1.28   8 2.35
  34  0.469  0.987  0.660-  13 1.28   7 2.35
  35  0.065  0.429  0.402-  15 1.31   7 2.36   8 2.53
  36  0.935  0.571  0.598-  16 1.31   8 2.36   7 2.53
  37  0.104  0.844  0.706-  16 1.30   7 2.42
  38  0.896  0.156  0.294-  15 1.30   8 2.42
  39  0.119  0.308  0.183-  15 1.28   5 2.36
  40  0.881  0.692  0.817-  16 1.28   6 2.36

  LATTYP: Found a triclinic cell.
 ALAT       =    11.5820612851
 B/A-ratio  =     1.4257284306
 C/A-ratio  =     0.7407976688
 COS(alpha) =     0.0036331047
 COS(beta)  =     0.4170444173
 COS(gamma) =     0.8353482472

  Lattice vectors:

 A1 = (  -4.8302340000,   6.0571170000,   8.6095480000)
 A2 = (  -0.0599930000,  14.0906740000,   8.6095480000)
 A3 = (  -8.5799640000,   0.0000000000,   0.0000000000)

Analysis of symmetry for initial positions (statically):
 Subroutine PRICEL returns:
 Original cell was already a primitive cell.

 Routine SETGRP: Setting up the symmetry group for a
 triclinic supercell.

 Subroutine GETGRP returns: Found  2 space group operations
 (whereof  2 operations were pure point group operations)
 out of a pool of  2 trial point group operations.

The static configuration has the point symmetry S_2 .

Analysis of symmetry for dynamics (positions and initial velocities):
 Subroutine PRICEL returns:
 Original cell was already a primitive cell.

[...]

The dynamic configuration has the point symmetry S_2 .

Analysis of structural, dynamic, and magnetic symmetry:
 Subroutine PRICEL returns:
 Original cell was already a primitive cell.

 Routine SETGRP: Setting up the symmetry group for a
 triclinic supercell.

 Subroutine GETGRP returns: Found  2 space group operations
 (whereof  2 operations were pure point group operations)
 out of a pool of  2 trial point group operations.

The overall configuration has the point symmetry S_2 .

 Subroutine INISYM returns: Found  2 space group operations
 (whereof  2 operations are pure point group operations),
 and found     1 'primitive' translations

                                     Primitive cell

  volume of cell :     593.4357

  direct lattice vectors                    reciprocal lattice vectors
     8.579964000  0.000000000  0.000000000     0.116550606  0.055271348  0.026503328
    -3.809723000  8.033557000  0.000000000    -0.000000000  0.124477862  0.028575603
    -1.020511000 -1.976440000  8.609548000     0.000000000 -0.000000000  0.116150116

  length of vectors
     8.579964000  8.891120706  8.892248003     0.131686719  0.127715713  0.116150116

  position of ions in fractional coordinates (direct lattice)
     0.244855000  0.030789000  0.036988000
     0.755145000  0.969211000  0.963012000
     0.241433000  0.189640000  0.526918000
     0.758567000  0.810360000  0.473082000
     0.261051000  0.522146000  0.048815000
     0.738949000  0.477854000  0.951185000
     0.241166000  0.713845000  0.543151000
     0.758834000  0.286155000  0.456849000
     0.585390000  0.399622000  0.233264000
     0.414610000  0.600378000  0.766736000
     0.004749000  0.722848000  0.212841000
     0.995251000  0.277152000  0.787159000
     0.543507000  0.141340000  0.739891000
     0.456493000  0.858660000  0.260109000
     0.028539000  0.297930000  0.289372000
     0.971461000  0.702070000  0.710628000
     0.505015000  0.442556000  0.127638000
     0.494985000  0.557444000  0.872362000
     0.724441000  0.382098000  0.205732000
     0.275559000  0.617902000  0.794268000
     0.462807000  0.627268000  0.637334000
     0.537193000  0.372732000  0.362666000
     0.046990000  0.626083000  0.117133000
     0.953010000  0.373917000  0.882867000
     0.133861000  0.261595000  0.839499000
     0.866139000  0.738405000  0.160501000
     0.094617000  0.799381000  0.352182000
     0.905383000  0.200619000  0.647818000
     0.609158000  0.273254000  0.675029000
     0.390842000  0.726746000  0.324971000
     0.557956000  0.177006000  0.889428000
     0.442044000  0.822994000  0.110572000
     0.531358000  0.012746000  0.340194000
     0.468642000  0.987254000  0.659806000
     0.065291000  0.429243000  0.401925000
     0.934709000  0.570757000  0.598075000
     0.103853000  0.844070000  0.705878000
     0.896147000  0.155930000  0.294122000
     0.119358000  0.308089000  0.183161000
     0.880642000  0.691911000  0.816839000

  ion indices of the primitive-cell ions
   primitive index   ion index
                 1           1
                 2           2
                 3           3
                 4           4
                 5           5
                 6           6
                 7           7
                 8           8
                 9           9
                10          10
                11          11
                12          12
                13          13
                14          14
                15          15
                16          16
                17          17
                18          18
                19          19
                20          20
                21          21
                22          22
                23          23
                24          24
                25          25
                26          26
                27          27
                28          28
                29          29
                30          30
                31          31
                32          32
                33          33
                34          34
                35          35
                36          36
                37          37
                38          38
                39          39
                40          40

 KPOINTS: Kpoints from vasprun.xml

Automatic generation of k-mesh.
 Grid dimensions read from file:
 generate k-points for:    3    3    3

 Generating k-lattice:

  Cartesian coordinates                     Fractional coordinates (reciprocal lattice)
[...]
  318                map_forward                           0.000335                    4   7
  319                  map_gather                            0.000054                  2   8
  320                  m_alltoallv_z                         0.000032                  2   8
  321                  map_scatter                           0.000214                  2   8
  322                map_backward                          0.000121                    2   7
  323                  map_gather                            0.000029                  1   8
  324                  m_alltoallv_z                         0.000014                  1   8
  325                  map_scatter                           0.000056                  1   8
  326          m_sumb_d                              0.000010                          2   4
  327          pothar                                0.000104                          1   4
  328            m_sumb_d                              0.000020                        1   5
  329        brmix                                 0.017714                            1   3
  330          m_sumb_d                              0.000057                          6   4
  331          brpre                                 0.000058                          2   4
  332          setg0                                 0.002754                          1   4
  333          broyd                                 0.012168                          1   4
  334            m_sumb_d                              0.000188                       49   5
  335            brget                                 0.002625                      219   5
  336            brsav                                 0.000579                       47   5
  337        m_bcast_d                             0.000030                            2   3
  338      potlok                                0.079654                              2   2
  339        fft3d_mpi                             0.049286                           36   3
  340          fftbrc_mpi                            0.040698                         36   4
  341            fftbas_plan_mpi                       0.040681                       36   5
  342              map_forward                           0.010880                     40   6
  343                map_gather                            0.002976                   24   7
  344                m_alltoallv_z                         0.004520                   24   7
  345                map_scatter                           0.003140                   24   7
  346              map_backward                          0.009335                     32   6
  347                map_gather                            0.002589                   16   7
  348                m_alltoallv_z                         0.003783                   16   7
  349                map_scatter                           0.002697                   16   7
  350              dfftw_execute                         0.018559                     30   6
  351        m_sumb_d                              0.000035                            5   3
  352        pothar                                0.003034                            2   3
  353          m_sumb_d                              0.000229                          2   4
  354        m_bcast_d                             0.005273                            4   3
  355      potlok_metagga                        0.000000                              1   2
  356      set_dd_magatom                        0.000005                              1   2
  357      set_dd_paw                            3.061882                              1   2
  358        m_sumb_d                              0.000517                            7   3
  359      augmentation_charge                   0.246964                              1   2
  360        fft3d_mpi                             0.119162                            2   3
  361          fftbrc_mpi                            0.099457                          2   4
  362            fftbas_plan_mpi                       0.099455                        2   5
  363              dfftw_execute                         0.057525                      6   6
  364              map_backward                          0.041657                      4   6
  365                map_gather                            0.014684                    2   7
  366                m_alltoallv_z                         0.012645                    2   7
  367                map_scatter                           0.014317                    2   7
  368      fftwav_mpi                            9.525443                           4116   2
  369        fftwav                                9.519665                         4116   3
  370          fft3d                                 8.847572                       4116   4
  371      densta                                9.666480                              1   2

 Flat profile

 set_dd_paw                           1479.750526         485
 eddav                                 730.922580         487
 raccmu_                               725.667699     1374663
 lapack                                658.918229     1374663
 redis_pw                              333.601369     7403526
 m_sumb_d                              313.216980     4177362
 m_alltoall_d                          140.363832    19445202
 phaser                                 83.585195       13818
 eccp                                   75.720259      668164
 orth1                                  74.946937     4124185
 fft3d                                  69.776853     7884053
 dfftw_execute                          69.311271       12084
 redis_proj                             65.181034     9416844
 setdij_                                61.792162         511
 augmentation_charge                    61.198601         485
 hamiltmu                               51.837635     1374663
 fftwav                                 50.074249     5202599
 densta                                 41.717006         488
 racc0mu_acc                            40.781389     1374663
 overl                                  39.915316     4694772
 w1_copy                                39.259146     8044362
 rpromu_acc                             31.477707     1038495
 m_bcast_z                              30.298809     1380151
 ggemm                                  29.372662     1715563
 soft_charge                            27.523823         484
 setup_precond                          24.612615      668164
 m_bcast_d                              22.621289     2750301
 overl_mu                               21.605366     1374663
 total_time                             21.516499           1
 fft3d_mpi                              21.472879     2698091
 pw_charge                              18.185962      485903
 m_alltoallv_z                          15.008267       18595
 map_scatter                            14.039098       18595
 map_gather                             13.620594       18595
 vhamil                                 12.378705     2681454
 kinhamil                               12.263355     2681454
 init_acc                               11.701832           1
 fftext_mpi                             11.477295     2681454
 apply_precond                          11.015217     2013290
 depsum                                 10.975212         484
 newband                                10.688502     1388299
 set_charge                             10.628652         484
 fftwav_mpi                              6.888155     5202599
 potlok                                  3.931017         485
 broyd                                   3.908254         483
 acc_init_cublas                         3.386531           1
 brmix                                   1.772996         483
 brget                                   1.324872      111552
 w1_projall                              1.106227     1033763
 elmin                                   1.089716           1
 setg0                                   1.085640         485
 acc_init_cusolver                       1.008259           1
 rpro_isp                                0.944560         182
 fftbas_plan_mpi                         0.873011       16637
 lincom                                  0.585012       13664
 sphpro_fast                             0.416632           2
 brsav                                   0.366139       32190
 rspher_all                              0.345511          14
 acc_cufft_makeplan                      0.283713          19
 truncate_high_frequency_w1              0.262000     3349618
 map_backward                            0.141921       17594
 map_forward                             0.112365       15680
 proall                                  0.110478           1
 fft_gq                                  0.087418         484
 orthch                                  0.061116           1
 pothar                                  0.046626         486
 stufak                                  0.039202           1
 force_and_stress                        0.038477           1
 brpre                                   0.027533         966
 choleski                                0.023318          28
 fftbrc_mpi                              0.010997       16637
 strnlr                                  0.007100           1
 forhar                                  0.006323           2
 inisym                                  0.004526           1
 strelo                                  0.003951           1
 forloc                                  0.003153           1
 strehar                                 0.003040           1
 vectorpot                               0.002963         484
 strkin                                  0.002682           1
 fornlr                                  0.002422           1
 set_dd_magatom                          0.002224         485
 rsp                                     0.002183           1
 brgrid                                  0.000382           1
 fewald                                  0.000346           1
 chggra                                  0.000288           1
 fordep                                  0.000150           1
 rcp                                     0.000060           1
 potlok_metagga                          0.000045         484
 posmap                                  0.000029           2
 crpa_reader                             0.000027           1
 acc_cufft_makeplans                     0.000012           3
 rotate_active_occupied_orbital          0.000000           1
 redis_pw_over_bands                     0.000000           1
  summed up times     5620.342209100723

 Accumulative profile

 total_time                           5620.342209           1
 elmin                                5539.738502           1
 eddav                                3683.139894         487
 set_dd_paw                           1480.721140         485
 hamiltmu                              896.032150     1374663
 raccmu_                               788.054454     1374663
 lapack                                658.918229     1374663
 redis_pw                              402.834194     7403526
 m_sumb_d                              313.216980     4177362
 set_charge                            212.191067         484
 newband                               165.038937     1388299
 fft3d_mpi                             153.804677     2698091
 m_alltoall_d                          140.363832    19445202
 redis_proj                            136.312040     9416844
 setdij_                               131.488153         511
 augmentation_charge                   120.046363         485
 fftbrc_mpi                            113.117525       16637
 fftbas_plan_mpi                       113.106528       16637
 fftwav_mpi                            107.524983     5202599
 fftwav                                100.636829     5202599
 phaser                                 83.585195       13818
 eccp                                   75.720259      668164
 orth1                                  74.946937     4124185
 fft3d                                  69.776853     7884053
 dfftw_execute                          69.311271       12084
 soft_charge                            68.938369         484
 kinhamil                               43.761356     2681454
 densta                                 41.717006         488
 racc0mu_acc                            40.781389     1374663
 overl                                  39.915316     4694772
 w1_copy                                39.259146     8044362
 fftext_mpi                             31.498001     2681454
 rpromu_acc                             31.477707     1038495
 w1_projall                             31.408717     1033763
 m_bcast_z                              30.298809     1380151
 ggemm                                  29.372662     1715563
 map_backward                           24.765930       17594
 setup_precond                          24.612615      668164
 m_bcast_d                              22.621289     2750301
 overl_mu                               21.605366     1374663
 pw_charge                              18.185962      485903
 map_forward                            18.156315       15680
 m_alltoallv_z                          15.008267       18595
 force_and_stress                       14.095968           1
 map_scatter                            14.039098       18595
 map_gather                             13.620594       18595
 vhamil                                 12.378705     2681454
 init_acc                               11.701832           1
 depsum                                 11.194679         484
 apply_precond                          11.015217     2013290
 brmix                                   8.632994         483
 potlok                                  6.872359         485
 broyd                                   5.702910         483
 acc_init_cublas                         3.386531           1
 strnlr                                  2.979614           1
 rpro_isp                                2.685463         182
 fft_gq                                  2.513380         484
 fordep                                  1.513251           1
 brget                                   1.324872      111552
 setg0                                   1.085640         485
 acc_init_cusolver                       1.008259           1
 fornlr                                  0.991563           1
 lincom                                  0.585012       13664
 orthch                                  0.476687           1
 sphpro_fast                             0.434839           2
 brsav                                   0.366139       32190
 rspher_all                              0.345511          14
 acc_cufft_makeplans                     0.283725           3
 acc_cufft_makeplan                      0.283713          19
 proall                                  0.277028           1
 truncate_high_frequency_w1              0.262000     3349618
 pothar                                  0.051933         486
 stufak                                  0.039202           1
 brpre                                   0.027533         966
 choleski                                0.023318          28
 forhar                                  0.006375           2
 inisym                                  0.004555           1
 strelo                                  0.003960           1
 fewald                                  0.003928           1
 forloc                                  0.003235           1
 strehar                                 0.003043           1
 vectorpot                               0.002963         484
 strkin                                  0.002701           1
 set_dd_magatom                          0.002224         485
 rsp                                     0.002183           1
 chggra                                  0.001089           1
 brgrid                                  0.000382           1
 rcp                                     0.000060           1
 potlok_metagga                          0.000045         484
 posmap                                  0.000029           2
 crpa_reader                             0.000027           1
 rotate_active_occupied_orbital          0.000000           1
 redis_pw_over_bands                     0.000000           1

Profiling took  17.121724  8.078399  0.003408  0.003304 seconds
Profiling took  11.120622 seconds