 vasp.6.3.2 27Jun22 (build Jul  3 2023 11:46:21) complex
 executed on    LinuxNV_CrayMPICH date 2024.04.21  23:37:00

 INCAR:
   ADDGRID = True
   ALGO = Fast
   EDIFF = 0.0001
   ENCUT = 520.0
   IBRION = -1
   ISIF = 3
   ISMEAR = -5
   ISPIN = 2
   LAECHG = True
   LASPH = True
   LCHARG = True
   LORBIT = 11
   LREAL = Auto
   LVHAR = True
   LWAVE = False
   MAGMOM = 1*7.0 12*0.6
   NELM = 1000
   NSW = 0
   PREC = Accurate
   SIGMA = 0.05

 POTCAR:    PAW_PBE Gd 23Dec2003
 POTCAR:    PAW_PBE Al 04Jan2001
 POTCAR:    PAW_PBE Cu_pv 06Sep2000
 POTCAR:    PAW_PBE Gd 23Dec2003
   VRHFIN =Gd : [core=Xe4]

   TITEL  = PAW_PBE Gd 23Dec2003
   POMASS =  157.250; ZVAL   =   18.000    mass and valenz
   ENMAX  =  256.472; ENMIN  =  192.354 eV

   TITEL  = PAW_PBE Al 04Jan2001
   POMASS =   26.981; ZVAL   =    3.000    mass and valenz
   ENMAX  =  240.300; ENMIN  =  180.225 eV

   TITEL  = PAW_PBE Cu_pv 06Sep2000
   POMASS =   63.546; ZVAL   =   17.000    mass and valenz
   ENMAX  =  368.648; ENMIN  =  276.486 eV

 Optimization of the real space projectors (new method)

 maximal supplied QI-value         = 13.42
 optimisation between [QCUT,QGAM] = [ 11.67, 23.35] = [ 38.16,152.62] Ry
 Optimized for a Real-space Cutoff    1.63 Angstroem

   l    n(q)    QCUT    max X(q) W(low)/X(q) W(high)/X(q)  e(spline)
   0     11    11.673    10.501    0.14E-04    0.17E-05    0.21E-07
   0     11    11.673     9.148    0.21E-04    0.32E-05    0.45E-07
   1     11    11.673     4.035    0.33E-05    0.11E-04    0.84E-07
   1     11    11.673     4.388    0.11E-04    0.47E-04    0.34E-06
   2     10    11.673    20.656    0.12E-04    0.28E-04    0.54E-06
   2     10    11.673    12.651    0.11E-04    0.26E-04    0.51E-06
   3     10    11.673    61.921    0.19E-03    0.22E-03    0.23E-06
   3     10    11.673    48.328    0.20E-03    0.23E-03    0.23E-06
 Optimization of the real space projectors (new method)

[...]

   l    n(q)    QCUT    max X(q) W(low)/X(q) W(high)/X(q)  e(spline)
   0      8    11.508   176.870    0.11E-03    0.16E-03    0.40E-07
   0      8    11.508   105.762    0.11E-03    0.16E-03    0.39E-07
   1      8    11.508    55.370    0.23E-03    0.10E-03    0.75E-07
   1      8    11.508    20.208    0.21E-03    0.91E-04    0.68E-07
 Optimization of the real space projectors (new method)

 maximal supplied QI-value         = 18.90
 optimisation between [QCUT,QGAM] = [ 11.53, 23.24] = [ 37.21,151.29] Ry
 Optimized for a Real-space Cutoff    1.36 Angstroem

   l    n(q)    QCUT    max X(q) W(low)/X(q) W(high)/X(q)  e(spline)
   1      9    11.527     3.172    0.21E-04    0.38E-04    0.11E-06
   1      9    11.527     4.083    0.67E-04    0.79E-04    0.20E-06
   2      9    11.527    65.342    0.13E-03    0.28E-03    0.26E-06
   2      9    11.527    61.381    0.13E-03    0.29E-03    0.26E-06
   0      9    11.527    65.742    0.32E-04    0.21E-04    0.72E-07
   0      9    11.527    30.431    0.28E-04    0.19E-04    0.65E-07
  PAW_PBE Gd 23Dec2003                  :
  PAW_PBE Al 04Jan2001                  :
  PAW_PBE Cu_pv 06Sep2000               :

 POSCAR: Gd1 Al6 Cu6
  positions in direct lattice
 exchange correlation table for  LEXCH =        8
   RHO(1)=    0.500       N(1)  =     2000
   RHO(2)=  100.500       N(2)  =     4000

 VTST: version 4.2, (08/11/21)

 CHAIN: initializing optimizer

 OPT: Using VASP Dynamics algorithm
 CHAIN: Read ICHAIN             0

 POSCAR: Gd1 Al6 Cu6
  positions in direct lattice

 ion  position               nearest neighbor table
   1  0.000  0.000  0.000-   4 2.98   5 2.98   2 3.04   3 3.04   7 3.10   6 3.10   7 3.10   6 3.10

   2  0.349  0.349  0.000-   3 2.63   8 2.64   9 2.64  11 2.64  10 2.64  13 2.67  12 2.67   7 2.84
                             7 2.84   1 3.04   4 3.15   5 3.15   4 3.15   5 3.15
   3  0.651  0.651  0.000-   2 2.63   8 2.64  10 2.64  11 2.64   9 2.64  13 2.67  12 2.67   6 2.84
                             6 2.84   1 3.04   5 3.15   4 3.15   4 3.15   5 3.15
   4  0.653  0.000  0.653-   5 2.64   8 2.66  10 2.66  11 2.66   9 2.66  13 2.74  13 2.74   7 2.90
                             6 2.90   1 2.98   3 3.15   3 3.15   2 3.15   2 3.15
   5  0.347  0.000  0.347-   4 2.64   8 2.66   9 2.66  10 2.66  11 2.66  12 2.74  12 2.74   6 2.90
                             7 2.90   1 2.98   2 3.15   2 3.15   3 3.15   3 3.15
   6  0.797  0.297  0.500-   9 2.53  10 2.53  11 2.53   8 2.53  12 2.65  13 2.65   3 2.84   3 2.84
                             5 2.90   4 2.90   1 3.10   1 3.10
   7  0.203  0.703  0.500-   8 2.53   9 2.53  10 2.53  11 2.53  13 2.65  12 2.65   2 2.84   2 2.84
                             4 2.90   5 2.90   1 3.10   1 3.10
   8  0.500  0.000  0.000-  13 2.53  12 2.53   7 2.53   6 2.53   2 2.64   3 2.64   4 2.66   5 2.66

   9  0.500  0.500  0.500-  12 2.53  13 2.53   6 2.53   7 2.53   3 2.64   2 2.64   4 2.66   5 2.66

[...]

  11  0.000  0.500  0.000-  12 2.53  13 2.53   7 2.53   6 2.53   2 2.64   3 2.64   5 2.66   4 2.66

  12  0.229  0.500  0.729-   8 2.53   9 2.53  11 2.53  10 2.53   6 2.65   7 2.65   2 2.67   3 2.67
                             5 2.74   5 2.74
  13  0.771  0.500  0.271-   9 2.53  10 2.53  11 2.53   8 2.53   7 2.65   6 2.65   2 2.67   3 2.67
                             4 2.74   4 2.74

  LATTYP: Found a body centered orthorhombic cell.
 ALAT       =     5.0878900000
 B/A-ratio  =     1.6902495927
 C/A-ratio  =     1.7124037666

  Lattice vectors:

 A1 = (  -2.5439450000,   4.2999020000,   4.3562610000)
 A2 = (   2.5439450000,  -4.2999020000,   4.3562610000)
 A3 = (   2.5439450000,   4.2999020000,  -4.3562610000)

Analysis of symmetry for initial positions (statically):
 Subroutine PRICEL returns:
 Original cell was already a primitive cell.

 Routine SETGRP: Setting up the symmetry group for a
 body centered orthorhombic supercell.

 Subroutine GETGRP returns: Found  8 space group operations
 (whereof  8 operations were pure point group operations)
 out of a pool of  8 trial point group operations.

The static configuration has the point symmetry D_2h.

Analysis of symmetry for dynamics (positions and initial velocities):
 Subroutine PRICEL returns:
 Original cell was already a primitive cell.

[...]

The dynamic configuration has the point symmetry D_2h.

Analysis of structural, dynamic, and magnetic symmetry:
 Subroutine PRICEL returns:
 Original cell was already a primitive cell.

 Routine SETGRP: Setting up the symmetry group for a
 body centered orthorhombic supercell.

 Subroutine GETGRP returns: Found  8 space group operations
 (whereof  8 operations were pure point group operations)
 out of a pool of  8 trial point group operations.

The overall configuration has the point symmetry D_2h.

 Subroutine INISYM returns: Found  8 space group operations
 (whereof  8 operations are pure point group operations),
 and found     1 'primitive' translations

                                     Primitive cell

  volume of cell :     190.6076

  direct lattice vectors                    reciprocal lattice vectors
    -2.543945000  4.299902000  4.356261000     0.000000000  0.116281720  0.114777329
     2.543945000 -4.299902000  4.356261000     0.196545130 -0.000000000  0.114777329
     2.543945000  4.299902000 -4.356261000     0.196545130  0.116281720  0.000000000

  length of vectors
     6.628561177  6.628561177  6.628561177     0.163386883  0.227604532  0.228366868

  position of ions in fractional coordinates (direct lattice)
     0.000000000  0.000000000  0.000000000
     0.348990000  0.348990000  0.000000000
     0.651010000  0.651010000  0.000000000
     0.653253000  0.000000000  0.653253000
     0.346747000  0.000000000  0.346747000
     0.796854000  0.296854000  0.500000000
     0.203146000  0.703146000  0.500000000
     0.500000000  0.000000000  0.000000000
     0.500000000  0.500000000  0.500000000
     1.000000000  1.000000000  0.500000000
     0.000000000  0.500000000  1.000000000
     0.229276000  0.500000000  0.729276000
     0.770724000  0.500000000  0.270724000

  ion indices of the primitive-cell ions
   primitive index   ion index
                 1           1
                 2           2
                 3           3
                 4           4
                 5           5
                 6           6
                 7           7
                 8           8
                 9           9
                10          10
                11          11
                12          12
                13          13

 KPOINTS: Kpoints from vasprun.xml

Automatic generation of k-mesh.
 Grid dimensions read from file:
 generate k-points for:    5    5    5

 Generating k-lattice:

  Cartesian coordinates                     Fractional coordinates (reciprocal lattice)
     0.000000000  0.023256344  0.022955466     0.200000000  0.000000000 -0.000000000
     0.039309026 -0.000000000  0.022955466     0.000000000  0.200000000 -0.000000000
     0.039309026  0.023256344  0.000000000     0.000000000 -0.000000000  0.200000000

  Length of vectors
     0.032677377  0.045520906  0.045673374

  Shift w.r.t. Gamma in fractional coordinates (k-lattice)
     0.000000000  0.000000000  0.000000000

 TETIRR: Found    307 inequivalent tetrahedra from      750

 Subroutine IBZKPT returns following result:

 Found     27 irreducible k-points:

 Following reciprocal coordinates:
            Coordinates               Weight
  0.000000  0.000000  0.000000      1.000000
  0.200000  0.000000  0.000000      4.000000
  0.400000  0.000000  0.000000      4.000000
  0.000000  0.200000  0.000000      4.000000
  0.200000  0.200000  0.000000      8.000000
  0.400000  0.200000  0.000000      8.000000
 -0.400000  0.200000  0.000000      8.000000
 -0.200000  0.200000  0.000000      4.000000
  0.000000  0.400000  0.000000      4.000000
  0.200000  0.400000  0.000000      8.000000
  0.400000  0.400000  0.000000      8.000000
 -0.400000  0.400000  0.000000      4.000000
 -0.200000  0.400000  0.000000      8.000000
  0.200000  0.200000  0.200000      8.000000
 -0.200000  0.200000  0.200000      2.000000
 -0.400000  0.400000  0.200000      4.000000
 -0.200000  0.400000  0.200000      4.000000
  0.400000 -0.400000  0.200000      4.000000
 -0.400000 -0.400000  0.200000      8.000000
 -0.200000 -0.400000  0.200000      4.000000
  0.200000 -0.200000  0.200000      2.000000
  0.400000 -0.200000  0.200000      4.000000
 -0.400000 -0.200000  0.200000      4.000000
 -0.200000 -0.200000  0.200000      2.000000
 -0.400000  0.400000  0.400000      2.000000
  0.400000 -0.400000  0.400000      2.000000
 -0.400000 -0.400000  0.400000      2.000000

 Following cartesian coordinates:
            Coordinates               Weight
  0.000000  0.000000  0.000000      1.000000
  0.000000  0.023256  0.022955      4.000000
  0.000000  0.046513  0.045911      4.000000
  0.039309  0.000000  0.022955      4.000000
  0.039309  0.023256  0.045911      8.000000
  0.039309  0.046513  0.068866      8.000000
  0.039309 -0.046513 -0.022955      8.000000
  0.039309 -0.023256  0.000000      4.000000
  0.078618  0.000000  0.045911      4.000000
  0.078618  0.023256  0.068866      8.000000
  0.078618  0.046513  0.091822      8.000000
[...]
  382            m_sumb_d                              0.000179                       47   5
  383        m_bcast_d                             0.000021                            2   3
  384      potlok                                0.031006                              2   2
  385        fft3d_mpi                             0.020244                           36   3
  386          fftbrc_mpi                            0.016951                         36   4
  387            fftbas_plan_mpi                       0.016937                       36   5
  388              map_forward                           0.004986                     40   6
  389                map_gather                            0.001627                   24   7
  390                m_alltoallv_z                         0.001673                   24   7
  391                map_scatter                           0.001497                   24   7
  392              map_backward                          0.003994                     32   6
  393                map_gather                            0.001370                   16   7
  394                m_alltoallv_z                         0.001213                   16   7
  395                map_scatter                           0.001234                   16   7
  396              dfftw_execute                         0.006373                     30   6
  397        m_sumb_d                              0.000030                            5   3
  398        pothar                                0.001251                            2   3
  399          m_sumb_d                              0.000018                          2   4
  400        m_bcast_d                             0.002004                            4   3
  401      potlok_metagga                        0.000000                              1   2
  402      set_dd_magatom                        0.000004                              1   2
  403      set_dd_paw                            2.066227                              1   2
  404        m_sumb_d                              0.929311                            7   3
  405      augmentation_charge                   0.105807                              1   2
  406        fft3d_mpi                             0.034317                            2   3
  407          fftbrc_mpi                            0.029918                          2   4
  408            fftbas_plan_mpi                       0.029917                        2   5
  409              dfftw_execute                         0.018596                      6   6
  410              map_backward                          0.011135                      4   6
  411                map_gather                            0.002821                    2   7
  412                m_alltoallv_z                         0.004557                    2   7
  413                map_scatter                           0.003750                    2   7
  414      densta                                4.696679                              1   2

 Flat profile

 set_dd_paw                            198.513566         168
 m_sumb_d                              180.538690       67483
 raccmu_                                78.634343      142367
 eccp                                   71.155890      874099
 densta                                 42.485115         171
 eccp_nl                                36.414260      662959
 w1_gemv                                35.077457     1477368
 i2                                     34.998185      130581
 phaser                                 29.034789        9531
 eddiag                                 22.935540         165
 redis_pw                               21.943253      142047
 eddrmm                                 19.501106         165
 cnorma                                 17.573254      662959
 m_alltoall_d                           14.342759     2423961
 setdij_                                12.871754         194
 fft3d                                  12.533702     1785284
 overl1                                 12.213971      738684
 augmentation_charge                    11.877902         167
 init_acc                               11.012076           1
 fftwav                                 10.878385     1090406
 total_time                             10.338570           1
 hamilt_local                            9.708804      204930
 soft_charge                             9.442033         166
 dfftw_execute                           9.091080        4404
 w1_copy                                 7.726116     1468926
 w1_dscal                                7.662230     1247176
 setup_precond                           7.462278      211140
 apply_precond                           6.380393     1401271
 w1_gaxpy                                6.200913     1184339
 w1_dot                                  5.702606      200666
 newband                                 5.617826      151547
 eddav                                   5.608608           5
 rpromu_acc                              5.434177      143339
 w1_daxpy                                5.231074      924588
 lapack                                  5.169206       11786
 pw_charge                               4.957367      163371
 racc0mu_acc                             4.889964      142367
 hamiltmu                                4.068154      142367
 redis_proj                              3.651358      131634
 acc_init_cublas                         3.451473           1
 depsum                                  3.292757         166
 kinhamil                                2.993208      694878
 vhamil                                  2.906468      694878
 fftext_mpi                              2.749932      694878
 m_alltoallv_z                           2.405816        6503
 zhegv                                   2.179300      261628
 overl_mu                                2.172668      142367
 fft3d_mpi                               1.804174      700713
 choleski                                1.791973        8964
 map_scatter                             1.632375        6503
 set_charge                              1.531404         166
 fftwav_mpi                              1.479993     1090406
 orth1                                   1.446006       88980
 orthch                                  1.372103         166
 map_gather                              1.272109        6503
 i3                                      1.194493      130581
 acc_init_cusolver                       1.040111           1
 rpro_isp                                0.875302         351
 broyd                                   0.630914         166
 potlok                                  0.617881         168
 overl                                   0.503016       56610
 m_bcast_z                               0.481975       16754
 lincom                                  0.364303       18144
 elmin                                   0.328893           1
 acc_cufft_makeplan                      0.317162          19
 fftbas_plan_mpi                         0.287544        5835
 brmix                                   0.216983         166
 ggemm                                   0.215124       15026
 brget                                   0.201387       34763
 m_bcast_d                               0.195539       23913
 rspher_all                              0.182009          14
 setg0                                   0.149196         168
 sphpro_fast                             0.148810           2
 i1                                      0.142475      130581
 w1_projall                              0.128108      139127
 proall                                  0.057277           1
 brsav                                   0.054577        9858
 truncate_high_frequency_w1              0.052925      701088
 map_backward                            0.032875        6162
 map_forward                             0.032814        5508
 force_and_stress                        0.015189           1
 pothar                                  0.013984         169
 fft_gq                                  0.008815         166
 strnlr                                  0.007720           1
 stufak                                  0.005910           1
 brpre                                   0.005016         332
 inisym                                  0.004398           1
 fftbrc_mpi                              0.003539        5835
 fornlr                                  0.002694           1
 strelo                                  0.001831           1
 forhar                                  0.001483           2
 strehar                                 0.001328           1
 shift_bands_between_low_high            0.001120        8910
 strkin                                  0.000905           1
 forloc                                  0.000804           1
 set_dd_magatom                          0.000761         168
 vectorpot                               0.000699         167
 fewald                                  0.000332           1
 rsp                                     0.000295           1
 chggra                                  0.000232           1
 brgrid                                  0.000173           1
 fordep                                  0.000081           1
 posmap                                  0.000028           2
 crpa_reader                             0.000025           1
 rcp                                     0.000025           1
 acc_cufft_makeplans                     0.000010           3
 potlok_metagga                          0.000008         167
 rotate_active_occupied_orbital          0.000000           1
 redis_pw_over_bands                     0.000000           1
  summed up times     1041.889612197876

 Accumulative profile

 total_time                           1041.889612           1
 elmin                                 994.680098           1
 eddrmm                                433.639393         165
 set_dd_paw                            348.130556         168
 m_sumb_d                              180.538690       67483
 i3                                    121.452783      130581
 i2                                    113.688526      130581
 hamiltmu                               99.410216      142367
 raccmu_                                85.696975      142367
 eccp                                   71.155890      874099
 eddiag                                 61.496619         165
 cnorma                                 53.987514      662959
 w1_gemv                                47.291428     1477368
 set_charge                             42.817067         166
 densta                                 42.485115         171
 newband                                36.648021      151547
 eccp_nl                                36.414260      662959
 eddav                                  30.403101           5
 phaser                                 29.034789        9531
 redis_pw                               28.454880      142047
 orthch                                 23.137496         166
 setdij_                                22.160700         194
 fft3d_mpi                              21.136515      700713
 fftwav_mpi                             20.317891     1090406
 soft_charge                            20.114283         166
 fftwav                                 18.837898     1090406
 augmentation_charge                    17.712342         167
 fftbrc_mpi                             14.758152        5835
 fftbas_plan_mpi                        14.754613        5835
 m_alltoall_d                           14.342759     2423961
 hamilt_local                           13.484701      204930
 fft3d                                  12.533702     1785284
 overl1                                 12.213971      738684
 redis_proj                             11.482489      131634
 init_acc                               11.012076           1
 kinhamil                               10.514515      694878
 dfftw_execute                           9.091080        4404
 force_and_stress                        8.647208           1
 w1_copy                                 7.726116     1468926
 w1_dscal                                7.662230     1247176
 fftext_mpi                              7.521308      694878
 setup_precond                           7.462278      211140
 apply_precond                           6.380393     1401271
 w1_gaxpy                                6.200913     1184339
 w1_dot                                  5.702606      200666
 rpromu_acc                              5.434177      143339
 w1_daxpy                                5.231074      924588
 lapack                                  5.169206       11786
 pw_charge                               4.957367      163371
 racc0mu_acc                             4.889964      142367
 w1_projall                              4.747865      139127
 acc_init_cublas                         3.451473           1
 depsum                                  3.331242         166
 vhamil                                  2.906468      694878
 map_backward                            2.732092        6162
 map_forward                             2.643897        5508
 strnlr                                  2.482759           1
 m_alltoallv_z                           2.405816        6503
 i1                                      2.247930      130581
 zhegv                                   2.179300      261628
 rpro_isp                                2.177948         351
 overl_mu                                2.172668      142367
 choleski                                1.791973        8964
 map_scatter                             1.632375        6503
 potlok                                  1.516468         168
 orth1                                   1.446006       88980
 brmix                                   1.301401         166
 map_gather                              1.272109        6503
 acc_init_cusolver                       1.040111           1
 broyd                                   0.918841         166
 fornlr                                  0.828518           1
 fordep                                  0.684059           1
 overl                                   0.503016       56610
 m_bcast_z                               0.481975       16754
 lincom                                  0.364303       18144
 acc_cufft_makeplans                     0.317172           3
 acc_cufft_makeplan                      0.317162          19
 fft_gq                                  0.298965         166
 ggemm                                   0.215124       15026
 proall                                  0.203739           1
 brget                                   0.201387       34763
 m_bcast_d                               0.195539       23913
 rspher_all                              0.182009          14
 sphpro_fast                             0.154170           2
 setg0                                   0.149196         168
 brsav                                   0.054577        9858
 truncate_high_frequency_w1              0.052925      701088
 pothar                                  0.015560         169
 stufak                                  0.005910           1
 brpre                                   0.005016         332
 inisym                                  0.004426           1
 strelo                                  0.001841           1
 forhar                                  0.001545           2
 strehar                                 0.001365           1
 fewald                                  0.001178           1
 shift_bands_between_low_high            0.001120        8910
 strkin                                  0.000912           1
 forloc                                  0.000838           1
 chggra                                  0.000798           1
 set_dd_magatom                          0.000761         168
 vectorpot                               0.000699         167
 rsp                                     0.000295           1
 brgrid                                  0.000173           1
 posmap                                  0.000028           2
 crpa_reader                             0.000025           1
 rcp                                     0.000025           1
 potlok_metagga                          0.000008         167
 rotate_active_occupied_orbital          0.000000           1
 redis_pw_over_bands                     0.000000           1

Profiling took   2.368969  1.750309  0.003219  0.003091 seconds
Profiling took   2.000313 seconds