 vasp.6.3.2 27Jun22 (build Jul  3 2023 11:46:21) complex
 executed on    LinuxNV_CrayMPICH date 2024.04.21  00:42:17

 INCAR:
   ADDGRID = True
   ALGO = Normal
   EDIFF = 0.0021
   ENCUT = 520.0
   IBRION = -1
   ICHARG = 0
   ISIF = 3
   ISMEAR = -5
   ISPIN = 2
   KPOINT_BSE = -1 0 0 0
   LAECHG = True
   LASPH = True
   LCHARG = True
   LELF = True
   LORBIT = 11
   LREAL = Auto
   LVHAR = True
   LWAVE = False
   MAGMOM = 4*0.6 6*7.0 32*0.6
   NELM = 1000
   NSW = 0
   PREC = accurate
   SIGMA = 0.05

 POTCAR:    PAW_PBE Ca_sv 06Sep2000
 POTCAR:    PAW_PBE Gd 23Dec2003
 POTCAR:    PAW_PBE Si 05Jan2001
 POTCAR:    PAW_PBE O 08Apr2002
 POTCAR:    PAW_PBE Ca_sv 06Sep2000
   VRHFIN =Ca: 3s3p4s

   TITEL  = PAW_PBE Ca_sv 06Sep2000
   POMASS =   40.078; ZVAL   =   10.000    mass and valenz
   ENMAX  =  266.622; ENMIN  =  199.967 eV

   TITEL  = PAW_PBE Gd 23Dec2003
   POMASS =  157.250; ZVAL   =   18.000    mass and valenz
   ENMAX  =  256.472; ENMIN  =  192.354 eV

   TITEL  = PAW_PBE Si 05Jan2001
   POMASS =   28.085; ZVAL   =    4.000    mass and valenz
   ENMAX  =  245.345; ENMIN  =  184.009 eV

   TITEL  = PAW_PBE O 08Apr2002
   POMASS =   16.000; ZVAL   =    6.000    mass and valenz
   ENMAX  =  400.000; ENMIN  =  300.000 eV

 Optimization of the real space projectors (new method)

 maximal supplied QI-value         = 16.25
 optimisation between [QCUT,QGAM] = [ 11.54, 23.24] = [ 37.28,151.24] Ry
 Optimized for a Real-space Cutoff    1.58 Angstroem

   l    n(q)    QCUT    max X(q) W(low)/X(q) W(high)/X(q)  e(spline)
   0     11    11.539    11.817    0.25E-04    0.22E-05    0.26E-07
   0     11    11.539     8.461    0.39E-04    0.49E-05    0.55E-07
   1     11    11.539     3.957    0.21E-05    0.44E-05    0.32E-07
   1     11    11.539     4.314    0.56E-04    0.44E-04    0.19E-06
   2     10    11.539    14.565    0.25E-03    0.21E-04    0.75E-06
   2     10    11.539    14.552    0.23E-03    0.22E-04    0.72E-06
 Optimization of the real space projectors (new method)

[...]

   l    n(q)    QCUT    max X(q) W(low)/X(q) W(high)/X(q)  e(spline)
   0      8    11.508   159.560    0.71E-04    0.15E-03    0.51E-07
   0      8    11.508   115.863    0.70E-04    0.15E-03    0.51E-07
   1      8    11.508    88.339    0.16E-03    0.38E-04    0.82E-07
   1      8    11.508    48.592    0.15E-03    0.36E-04    0.79E-07
 Optimization of the real space projectors (new method)

 maximal supplied QI-value         = 24.76
 optimisation between [QCUT,QGAM] = [ 11.64, 23.27] = [ 37.91,151.63] Ry
 Optimized for a Real-space Cutoff    1.14 Angstroem

   l    n(q)    QCUT    max X(q) W(low)/X(q) W(high)/X(q)  e(spline)
   0      8    11.635    20.381    0.10E-03    0.33E-03    0.24E-06
   0      8    11.635    15.268    0.11E-03    0.35E-03    0.26E-06
   1      7    11.635     5.964    0.24E-03    0.31E-03    0.30E-06
   1      7    11.635     5.382    0.22E-03    0.25E-03    0.26E-06
  PAW_PBE Ca_sv 06Sep2000               :
  PAW_PBE Gd 23Dec2003                  :
  PAW_PBE Si 05Jan2001                  :
  PAW_PBE O 08Apr2002                   :

 POSCAR: Ca4 Gd6 Si6 O26
  positions in direct lattice
 exchange correlation table for  LEXCH =        8
   RHO(1)=    0.500       N(1)  =     2000
   RHO(2)=  100.500       N(2)  =     4000

 VTST: version 4.2, (08/11/21)

 CHAIN: initializing optimizer

 OPT: Using VASP Dynamics algorithm
 CHAIN: Read ICHAIN             0

 POSCAR: Ca4 Gd6 Si6 O26
  positions in direct lattice

 ion  position               nearest neighbor table
   1  0.333  0.667  0.996-  38 2.40  36 2.40  40 2.40  17 2.51  21 2.51  19 2.51
   2  0.667  0.333  0.004-  37 2.40  35 2.40  39 2.40  18 2.51  22 2.51  20 2.51
   3  0.667  0.333  0.496-  37 2.40  35 2.40  39 2.40  18 2.51  22 2.51  20 2.51
   4  0.333  0.667  0.504-  38 2.40  36 2.40  40 2.40  17 2.51  21 2.51  19 2.51
   5  0.248  0.241  0.250-  41 2.33  30 2.34  27 2.34  19 2.36  23 2.45  28 2.45  35 2.60  11 3.12
                            15 3.28
   6  0.752  0.759  0.750-  42 2.33  32 2.34  25 2.34  20 2.36  24 2.45  26 2.45  36 2.60  12 3.12
                            16 3.28
   7  0.759  0.007  0.250-  41 2.33  33 2.34  31 2.34  21 2.36  25 2.45  32 2.45  37 2.60  13 3.12
                            11 3.28
   8  0.241  0.993  0.750-  42 2.33  34 2.34  29 2.34  22 2.36  27 2.45  30 2.45  38 2.60  14 3.12
                            12 3.28
   9  0.993  0.752  0.250-  41 2.33  26 2.34  24 2.34  17 2.36  34 2.45  29 2.45  39 2.60  15 3.12
                            13 3.28
  10  0.007  0.248  0.750-  42 2.33  28 2.34  23 2.34  18 2.36  33 2.45  31 2.45  40 2.60  16 3.12
                            14 3.28
  11  0.026  0.395  0.250-  37 1.62  17 1.64  28 1.65  23 1.65   5 3.12   7 3.28
  12  0.974  0.605  0.750-  38 1.62  18 1.64  26 1.65  24 1.65   6 3.12   8 3.28
  13  0.605  0.631  0.250-  39 1.62  19 1.64  32 1.65  25 1.65   7 3.12   9 3.28
  14  0.395  0.369  0.750-  40 1.62  20 1.64  30 1.65  27 1.65   8 3.12  10 3.28
  15  0.369  0.974  0.250-  35 1.62  21 1.64  34 1.65  29 1.65   9 3.12   5 3.28
  16  0.631  0.026  0.750-  36 1.62  22 1.64  33 1.65  31 1.65  10 3.12   6 3.28
  17  0.120  0.594  0.250-  11 1.64   9 2.36   1 2.51   4 2.51
  18  0.880  0.406  0.750-  12 1.64  10 2.36   2 2.51   3 2.51
  19  0.406  0.526  0.250-  13 1.64   5 2.36   1 2.51   4 2.51
  20  0.594  0.474  0.750-  14 1.64   6 2.36   2 2.51   3 2.51
  21  0.474  0.880  0.250-  15 1.64   7 2.36   1 2.51   4 2.51
  22  0.526  0.120  0.750-  16 1.64   8 2.36   2 2.51   3 2.51
  23  0.090  0.334  0.065-  11 1.65  10 2.34   5 2.45
  24  0.910  0.666  0.935-  12 1.65   9 2.34   6 2.45
  25  0.666  0.756  0.065-  13 1.65   6 2.34   7 2.45
  26  0.910  0.666  0.565-  12 1.65   9 2.34   6 2.45
  27  0.334  0.244  0.935-  14 1.65   5 2.34   8 2.45
  28  0.090  0.334  0.435-  11 1.65  10 2.34   5 2.45
  29  0.244  0.910  0.065-  15 1.65   8 2.34   9 2.45
  30  0.334  0.244  0.565-  14 1.65   5 2.34   8 2.45
  31  0.756  0.090  0.935-  16 1.65   7 2.34  10 2.45
  32  0.666  0.756  0.435-  13 1.65   6 2.34   7 2.45
  33  0.756  0.090  0.565-  16 1.65   7 2.34  10 2.45
  34  0.244  0.910  0.435-  15 1.65   8 2.34   9 2.45
  35  0.479  0.171  0.250-  15 1.62   3 2.40   2 2.40   5 2.60
  36  0.521  0.829  0.750-  16 1.62   4 2.40   1 2.40   6 2.60
  37  0.829  0.309  0.250-  11 1.62   3 2.40   2 2.40   7 2.60
  38  0.171  0.691  0.750-  12 1.62   4 2.40   1 2.40   8 2.60
  39  0.691  0.521  0.250-  13 1.62   3 2.40   2 2.40   9 2.60
  40  0.309  0.479  0.750-  14 1.62   4 2.40   1 2.40  10 2.60
  41  0.000  0.000  0.250-   5 2.33   9 2.33   7 2.33
  42  0.000  0.000  0.750-   6 2.33  10 2.33   8 2.33

  LATTYP: Found a hexagonal cell.
 ALAT       =     9.5167044986
 C/A-ratio  =     0.7310118751

  Lattice vectors:

 A1 = (   4.7583520000,  -8.2417080000,   0.0000000000)
 A2 = (   4.7583520000,   8.2417080000,   0.0000000000)
 A3 = (   0.0000000000,   0.0000000000,   6.9568240000)

Analysis of symmetry for initial positions (statically):
 Subroutine PRICEL returns:
 Original cell was already a primitive cell.

 Routine SETGRP: Setting up the symmetry group for a
 hexagonal supercell.

 Subroutine GETGRP returns: Found 12 space group operations
 (whereof  6 operations were pure point group operations)
 out of a pool of 24 trial point group operations.

The static configuration has the point symmetry S_6 .
 The point group associated with its full space group is C_6h.

Analysis of symmetry for dynamics (positions and initial velocities):
 Subroutine PRICEL returns:
 Original cell was already a primitive cell.

[...]

The dynamic configuration has the point symmetry S_6 .
 The point group associated with its full space group is C_6h.

Analysis of structural, dynamic, and magnetic symmetry:
 Subroutine PRICEL returns:
 Original cell was already a primitive cell.

 Routine SETGRP: Setting up the symmetry group for a
 hexagonal supercell.

 Subroutine GETGRP returns: Found 12 space group operations
 (whereof  6 operations were pure point group operations)
 out of a pool of 24 trial point group operations.

The overall configuration has the point symmetry S_6 .
 The point group associated with its full space group is C_6h.

 Subroutine INISYM returns: Found 12 space group operations
 (whereof  6 operations are pure point group operations),
 and found     1 'primitive' translations

                                     Primitive cell

  volume of cell :     545.6508

  direct lattice vectors                    reciprocal lattice vectors
     4.758352000 -8.241708000  0.000000000     0.105078397 -0.060667036  0.000000000
     4.758352000  8.241708000  0.000000000     0.105078397  0.060667036 -0.000000000
     0.000000000  0.000000000  6.956824000    -0.000000000  0.000000000  0.143743754

  length of vectors
     9.516704499  9.516704499  6.956824000     0.121334079  0.121334079  0.143743754

  position of ions in fractional coordinates (direct lattice)
     0.333333000  0.666667000  0.996244000
     0.666667000  0.333333000  0.003756000
     0.666667000  0.333333000  0.496244000
     0.333333000  0.666667000  0.503756000
     0.248077000  0.241269000  0.250000000
     0.751923000  0.758731000  0.750000000
     0.758731000  0.006808000  0.250000000
     0.241269000  0.993192000  0.750000000
     0.993192000  0.751923000  0.250000000
     0.006808000  0.248077000  0.750000000
     0.025827000  0.395174000  0.250000000
     0.974173000  0.604826000  0.750000000
     0.604826000  0.630654000  0.250000000
     0.395174000  0.369346000  0.750000000
     0.369346000  0.974173000  0.250000000
     0.630654000  0.025827000  0.750000000
     0.120025000  0.593582000  0.250000000
     0.879975000  0.406418000  0.750000000
     0.406418000  0.526443000  0.250000000
     0.593582000  0.473557000  0.750000000
     0.473557000  0.879975000  0.250000000
     0.526443000  0.120025000  0.750000000
     0.090206000  0.333867000  0.065056000
     0.909794000  0.666133000  0.934944000
     0.666133000  0.756339000  0.065056000
     0.909794000  0.666133000  0.565056000
     0.333867000  0.243661000  0.934944000
     0.090206000  0.333867000  0.434944000
     0.243661000  0.909794000  0.065056000
     0.333867000  0.243661000  0.565056000
     0.756339000  0.090206000  0.934944000
     0.666133000  0.756339000  0.434944000
     0.756339000  0.090206000  0.565056000
     0.243661000  0.909794000  0.434944000
     0.479309000  0.170702000  0.250000000
     0.520691000  0.829298000  0.750000000
     0.829298000  0.308607000  0.250000000
     0.170702000  0.691393000  0.750000000
     0.691393000  0.520691000  0.250000000
     0.308607000  0.479309000  0.750000000
     0.000000000  0.000000000  0.250000000
     0.000000000  0.000000000  0.750000000

  ion indices of the primitive-cell ions
   primitive index   ion index
                 1           1
                 2           2
                 3           3
                 4           4
                 5           5
                 6           6
                 7           7
                 8           8
                 9           9
                10          10
                11          11
[...]
  318                map_forward                           0.000299                    4   7
  319                  map_gather                            0.000052                  2   8
  320                  m_alltoallv_z                         0.000025                  2   8
  321                  map_scatter                           0.000185                  2   8
  322                map_backward                          0.000113                    2   7
  323                  map_gather                            0.000029                  1   8
  324                  m_alltoallv_z                         0.000011                  1   8
  325                  map_scatter                           0.000056                  1   8
  326          m_sumb_d                              0.000009                          2   4
  327          pothar                                0.000088                          1   4
  328            m_sumb_d                              0.000008                        1   5
  329        brmix                                 0.011391                            1   3
  330          m_sumb_d                              0.000129                          6   4
  331          brpre                                 0.000048                          2   4
  332          setg0                                 0.002039                          1   4
  333          broyd                                 0.006825                          1   4
  334            m_sumb_d                              0.000204                       39   5
  335            brget                                 0.001697                      169   5
  336            brsav                                 0.000373                       37   5
  337        m_bcast_d                             0.000035                            2   3
  338      potlok                                0.069890                              2   2
  339        fft3d_mpi                             0.041122                           36   3
  340          fftbrc_mpi                            0.034827                         36   4
  341            fftbas_plan_mpi                       0.034811                       36   5
  342              map_forward                           0.009714                     40   6
  343                map_gather                            0.002789                   24   7
  344                m_alltoallv_z                         0.003869                   24   7
  345                map_scatter                           0.002820                   24   7
  346              map_backward                          0.007916                     32   6
  347                map_gather                            0.002715                   16   7
  348                m_alltoallv_z                         0.002643                   16   7
  349                map_scatter                           0.002353                   16   7
  350              dfftw_execute                         0.015522                     30   6
  351        m_sumb_d                              0.000030                            5   3
  352        pothar                                0.002766                            2   3
  353          m_sumb_d                              0.000045                          2   4
  354        m_bcast_d                             0.004660                            4   3
  355      potlok_metagga                        0.000000                              1   2
  356      set_dd_magatom                        0.000004                              1   2
  357      set_dd_paw                            4.056997                              1   2
  358        m_sumb_d                              0.942313                            7   3
  359      augmentation_charge                   0.272987                              1   2
  360        fft3d_mpi                             0.122355                            2   3
  361          fftbrc_mpi                            0.104530                          2   4
  362            fftbas_plan_mpi                       0.104529                        2   5
  363              dfftw_execute                         0.068070                      6   6
  364              map_backward                          0.036146                      4   6
  365                map_gather                            0.012843                    2   7
  366                m_alltoallv_z                         0.012175                    2   7
  367                map_scatter                           0.011115                    2   7
  368      fftwav_mpi                            5.838142                           3078   2
  369        fftwav                                5.834016                         3078   3
  370          fft3d                                 5.391775                       3078   4
  371      densta                                4.185023                              1   2

 Flat profile

 set_dd_paw                            109.888070          35
 m_sumb_d                               51.505077      240786
 eddav                                  43.401244          37
 raccmu_                                40.789051       78908
 lapack                                 37.728798       78908
 total_time                             21.468394           1
 redis_pw                               19.656280      427392
 init_acc                               11.805918           1
 fft3d                                  10.107908      467772
 setdij_                                 8.502129          61
 m_alltoall_d                            7.952423     1125726
 dfftw_execute                           7.640071        1284
 densta                                  5.782293          38
 phaser                                  5.264854         783
 augmentation_charge                     5.194891          35
 eccp                                    4.372145       37962
 orth1                                   4.245807      236868
 redis_proj                              3.557556      544110
 fftwav                                  3.550303      313110
 hamiltmu                                2.823046       78908
 rpromu_acc                              2.715038       63104
 acc_init_cublas                         2.462992           1
 racc0mu_acc                             2.289599       78908
 w1_copy                                 2.241966      463986
 overl                                   2.237451      271380
 m_bcast_z                               2.224334       83012
 fft3d_mpi                               1.820886      155999
 ggemm                                   1.638243       98222
 m_alltoallv_z                           1.499316        1495
 soft_charge                             1.386327          34
 setup_precond                           1.375488       37962
 m_bcast_d                               1.318341      157891
 overl_mu                                1.225170       78908
 map_scatter                             1.204116        1495
 map_gather                              1.147028        1495
 pw_charge                               1.046994       25332
 acc_init_cusolver                       0.803227           1
 rpro_isp                                0.718403         117
 vhamil                                  0.706618      154662
 kinhamil                                0.700628      154662
 set_charge                              0.682204          34
 fftext_mpi                              0.652753      154662
 apply_precond                           0.634044      116700
 newband                                 0.631889       79574
 depsum                                  0.581407          34
 rspher_all                              0.413896          14
 fftwav_mpi                              0.413257      313110
 sphpro_fast                             0.322336           2
 potlok                                  0.268466          35
 elmin                                   0.136442           1
 acc_cufft_makeplan                      0.120447          19
 brmix                                   0.117359          33
 proall                                  0.093053           1
 fftbas_plan_mpi                         0.091051        1337
 setg0                                   0.066455          35
 broyd                                   0.063713          33
 w1_projall                              0.057660       59594
 orthch                                  0.042121           1
 stufak                                  0.036332           1
 brget                                   0.029807        2931
 force_and_stress                        0.029636           1
 lincom                                  0.028487         684
 truncate_high_frequency_w1              0.015208      192624
 choleski                                0.011860          18
 map_forward                             0.008743        1280
 map_backward                            0.008149        1394
 brsav                                   0.007112         699
 fft_gq                                  0.006027          34
 pothar                                  0.005758          36
 forhar                                  0.005627           2
 inisym                                  0.005586           1
 strnlr                                  0.005427           1
 strelo                                  0.003544           1
 forloc                                  0.002880           1
 strehar                                 0.002734           1
 rsp                                     0.002388           1
 fornlr                                  0.001863           1
 strkin                                  0.001794           1
 brpre                                   0.001776          66
 fftbrc_mpi                              0.000854        1337
 fewald                                  0.000349           1
 brgrid                                  0.000345           1
 chggra                                  0.000267           1
 set_dd_magatom                          0.000165          35
 fordep                                  0.000157           1
 vectorpot                               0.000150          34
 posmap                                  0.000100           2
 rcp                                     0.000061           1
 crpa_reader                             0.000029           1
 acc_cufft_makeplans                     0.000013           3
 potlok_metagga                          0.000002          34
 rotate_active_occupied_orbital          0.000000           1
 redis_pw_over_bands                     0.000000           1
  summed up times     441.6102039813995

 Accumulative profile

 total_time                            441.610204           1
 elmin                                 370.976459           1
 eddav                                 210.726926          37
 set_dd_paw                            143.477743          35
 m_sumb_d                               51.505077      240786
 hamiltmu                               50.315657       78908
 raccmu_                                44.303820       78908
 lapack                                 37.728798       78908
 redis_pw                               23.545048      427392
 setdij_                                16.561294          61
 set_charge                             15.628664          34
 force_and_stress                       14.840764           1
 fft3d_mpi                              14.503064      155999
 fftwav_mpi                             12.988618      313110
 fftwav                                 12.575361      313110
 init_acc                               11.805918           1
 fftbrc_mpi                             11.599328        1337
 fftbas_plan_mpi                        11.598474        1337
 fft3d                                  10.107908      467772
 augmentation_charge                     9.551738          35
 newband                                 9.442802       79574
 m_alltoall_d                            7.952423     1125726
 dfftw_execute                           7.640071        1284
 redis_proj                              7.621211      544110
 densta                                  5.782293          38
 phaser                                  5.264854         783
 soft_charge                             4.967497          34
 eccp                                    4.372145       37962
 orth1                                   4.245807      236868
 rpromu_acc                              2.715038       63104
 kinhamil                                2.482172      154662
 acc_init_cublas                         2.462992           1
 strnlr                                  2.416865           1
 racc0mu_acc                             2.289599       78908
 w1_copy                                 2.241966      463986
 overl                                   2.237451      271380
 m_bcast_z                               2.224334       83012
 rpro_isp                                2.158263         117
 map_forward                             2.075695        1280
 map_backward                            1.791657        1394
 fftext_mpi                              1.781544      154662
 w1_projall                              1.764131       59594
 ggemm                                   1.638243       98222
 fordep                                  1.622438           1
 m_alltoallv_z                           1.499316        1495
 setup_precond                           1.375488       37962
 m_bcast_d                               1.318341      157891
 overl_mu                                1.225170       78908
 map_scatter                             1.204116        1495
 map_gather                              1.147028        1495
 pw_charge                               1.046994       25332
 fornlr                                  0.803872           1
 acc_init_cusolver                       0.803227           1
 vhamil                                  0.706618      154662
 potlok                                  0.650929          35
 apply_precond                           0.634044      116700
 depsum                                  0.597125          34
 rspher_all                              0.413896          14
 orthch                                  0.404744           1
 sphpro_fast                             0.336426           2
 brmix                                   0.296011          33
 proall                                  0.224712           1
 fft_gq                                  0.148493          34
 acc_cufft_makeplans                     0.120460           3
 acc_cufft_makeplan                      0.120447          19
 broyd                                   0.107473          33
 setg0                                   0.066455          35
 stufak                                  0.036332           1
 brget                                   0.029807        2931
 lincom                                  0.028487         684
 truncate_high_frequency_w1              0.015208      192624
 choleski                                0.011860          18
 brsav                                   0.007112         699
 pothar                                  0.006126          36
 forhar                                  0.005688           2
 inisym                                  0.005686           1
 forloc                                  0.004760           1
 strelo                                  0.003665           1
 fewald                                  0.003540           1
 strehar                                 0.002738           1
 rsp                                     0.002388           1
 strkin                                  0.001798           1
 brpre                                   0.001776          66
 chggra                                  0.000977           1
 brgrid                                  0.000345           1
 set_dd_magatom                          0.000165          35
 vectorpot                               0.000150          34
 posmap                                  0.000100           2
 rcp                                     0.000061           1
 crpa_reader                             0.000029           1
 potlok_metagga                          0.000002          34
 rotate_active_occupied_orbital          0.000000           1
 redis_pw_over_bands                     0.000000           1

Profiling took   0.961627  0.470921  0.003441  0.003346 seconds
Profiling took   0.586554 seconds