 vasp.6.3.2 27Jun22 (build Jul  3 2023 11:46:21) complex
 executed on    LinuxNV_CrayMPICH date 2024.04.21  23:48:01

 INCAR:
   ADDGRID = True
   ALGO = Normal
   EDIFF = 0.0025
   ENCUT = 520.0
   IBRION = -1
   ICHARG = 0
   ISIF = 3
   ISMEAR = -5
   ISPIN = 2
   ISYM = 0
   LAECHG = True
   LASPH = True
   LCHARG = True
   LDAU = True
   LDAUJ = 0.0 0.0 0.0 0.0
   LDAUL = 0 0 2 0
   LDAUPRINT = 1
   LDAUTYPE = 2
   LDAUU = 0.0 0.0 4.38 0.0
   LMAXMIX = 6
   LORBIT = 11
   LREAL = Auto
   LVHAR = True
   LWAVE = False
   MAGMOM = 7*0.0 3*7.0 1*-0.002 1*-0.007 1*-0.002 1*-0.004 1*-0.002 1*0.0 2*-0.001 2*-0.002 1*0.0 1*-0.001 1*-0.004 1*-0.006 1*-0.003 1*-0.008 1*-0.003 1*-0.001 1*-0.014 1*-0.001 1*-0.004 1*-0.001 1*-0.008 1*-0.002 1*-0.005 1*-0.008 1*-0.002 1*-0.004 1*-0.006 1*0.0 1*-0.004 1*-0.003 1*-0.001 1*-0.002 2*-0.001 1*-0.002 1*-0.001 2*-0.002
   NELM = 1000
   NSW = 0
   PREC = Accurate
   SIGMA = 0.05

 POTCAR:    PAW_PBE Li_sv 10Sep2004
 POTCAR:    PAW_PBE Eu 23Dec2003
 POTCAR:    PAW_PBE Mo_pv 04Feb2005
 POTCAR:    PAW_PBE O 08Apr2002
 POTCAR:    PAW_PBE Li_sv 10Sep2004
   VRHFIN =Li: 1s2s2p

   TITEL  = PAW_PBE Li_sv 10Sep2004
   POMASS =    7.010; ZVAL   =    3.000    mass and valenz
   ENMAX  =  499.034; ENMIN  =  374.276 eV

   TITEL  = PAW_PBE Eu 23Dec2003
   POMASS =  151.965; ZVAL   =   17.000    mass and valenz
   ENMAX  =  249.668; ENMIN  =  187.251 eV

   TITEL  = PAW_PBE Mo_pv 04Feb2005
   POMASS =   95.940; ZVAL   =   12.000    mass and valenz
   ENMAX  =  224.584; ENMIN  =  168.438 eV

   TITEL  = PAW_PBE O 08Apr2002
   POMASS =   16.000; ZVAL   =    6.000    mass and valenz
   ENMAX  =  400.000; ENMIN  =  300.000 eV

 Optimization of the real space projectors (new method)

 maximal supplied QI-value         = 22.11
 optimisation between [QCUT,QGAM] = [ 11.50, 23.22] = [ 37.02,150.92] Ry
 Optimized for a Real-space Cutoff    1.08 Angstroem

   l    n(q)    QCUT    max X(q) W(low)/X(q) W(high)/X(q)  e(spline)
   0      7    11.497    10.506    0.36E-04    0.62E-04    0.14E-07
   0      7    11.497     8.367    0.65E-04    0.14E-03    0.28E-07
   1      7    11.497     8.983    0.21E-03    0.43E-03    0.90E-07
 Optimization of the real space projectors (new method)

[...]

   l    n(q)    QCUT    max X(q) W(low)/X(q) W(high)/X(q)  e(spline)
   1     11    11.607     4.274    0.94E-05    0.70E-04    0.79E-06
   1     11    11.607     7.035    0.16E-04    0.12E-03    0.14E-05
   2     11    11.607    64.474    0.17E-03    0.12E-03    0.48E-06
   2     11    11.607    61.199    0.17E-03    0.12E-03    0.48E-06
   0     12    11.607    31.789    0.39E-04    0.85E-05    0.14E-06
   0     12    11.607    13.589    0.21E-04    0.62E-05    0.11E-06
 Optimization of the real space projectors (new method)

 maximal supplied QI-value         = 24.76
 optimisation between [QCUT,QGAM] = [ 11.64, 23.27] = [ 37.91,151.63] Ry
 Optimized for a Real-space Cutoff    1.14 Angstroem

   l    n(q)    QCUT    max X(q) W(low)/X(q) W(high)/X(q)  e(spline)
   0      8    11.635    20.381    0.10E-03    0.33E-03    0.24E-06
   0      8    11.635    15.268    0.11E-03    0.35E-03    0.26E-06
   1      7    11.635     5.964    0.24E-03    0.31E-03    0.30E-06
   1      7    11.635     5.382    0.22E-03    0.25E-03    0.26E-06
  PAW_PBE Li_sv 10Sep2004               :
  PAW_PBE Eu 23Dec2003                  :
  PAW_PBE Mo_pv 04Feb2005               :
  PAW_PBE O 08Apr2002                   :

 POSCAR: Li7 Eu3 Mo8 O32
  positions in direct lattice
 exchange correlation table for  LEXCH =        8
   RHO(1)=    0.500       N(1)  =     2000
   RHO(2)=  100.500       N(2)  =     4000

 VTST: version 4.2, (08/11/21)

 CHAIN: initializing optimizer

 OPT: Using VASP Dynamics algorithm
 CHAIN: Read ICHAIN             0

 POSCAR: Li7 Eu3 Mo8 O32
  positions in direct lattice

 ion  position               nearest neighbor table
   1  0.197  0.397  0.130-  20 1.98  27 2.10  39 2.13
   2  0.698  0.898  0.130-  19 1.98  28 2.10  40 2.12
   3  0.303  0.102  0.870-  22 1.98  29 2.10  41 2.12
   4  0.804  0.604  0.867-  21 2.01  30 2.08  42 2.11
   5  0.250  0.750  0.999-  43 2.00  45 2.01  49 2.06  47 2.08
   6  0.750  0.250  1.000-  46 2.01  44 2.01  50 2.07  48 2.07
   7  0.978  0.795  0.562-
   8  0.476  0.295  0.562-  41 2.40  36 2.41  29 2.44  23 2.44  26 2.45  31 2.48  38 2.49  33 2.50

   9  0.521  0.706  0.442-  37 2.41  40 2.41  26 2.44  34 2.45  35 2.45  23 2.46  28 2.49  32 2.52

[...]

  11  0.091  0.609  0.320-  47 1.77  32 1.79  39 1.81  23 1.86
  12  0.595  0.106  0.319-  48 1.77  40 1.80  24 1.81  31 1.84
  13  0.407  0.892  0.681-  49 1.77  34 1.80  41 1.82  25 1.82
  14  0.908  0.393  0.682-  42 1.77  50 1.77  33 1.84  26 1.86
  15  0.364  0.482  0.801-  20 1.77  44 1.79  29 1.83  35 1.83
  16  0.866  0.978  0.801-  19 1.77  30 1.78  43 1.79  36 1.88
  17  0.134  0.019  0.199-  22 1.77  46 1.79  37 1.83  27 1.83
  18  0.634  0.520  0.198-  21 1.76  45 1.78  28 1.81  38 1.86
  19  0.695  0.993  0.931-  16 1.77   2 1.98
  20  0.194  0.494  0.932-  15 1.77   1 1.98
  21  0.805  0.507  0.068-  18 1.76   4 2.01
  22  0.305  0.007  0.068-  17 1.77   3 1.98
  23  0.336  0.549  0.405-  11 1.86   8 2.44   9 2.46
  24  0.833  0.051  0.403-  12 1.81  10 2.42
  25  0.167  0.952  0.597-  13 1.82  10 2.41
  26  0.665  0.451  0.595-  14 1.86   9 2.44   8 2.45
  27  0.142  0.185  0.226-  17 1.83   1 2.10  10 2.43
  28  0.642  0.685  0.225-  18 1.81   2 2.10   9 2.49
  29  0.358  0.316  0.774-  15 1.83   3 2.10   8 2.44
  30  0.857  0.816  0.777-  16 1.78   4 2.08
  31  0.399  0.166  0.427-  12 1.84   8 2.48  10 2.52
  32  0.898  0.664  0.426-  11 1.79   9 2.52
  33  0.103  0.334  0.573-  14 1.84   8 2.50  10 2.51
  34  0.598  0.835  0.572-  13 1.80   9 2.45
  35  0.311  0.647  0.644-  15 1.83   9 2.45
  36  0.808  0.150  0.641-  16 1.88   8 2.41  10 2.46
  37  0.193  0.853  0.354-  17 1.83   9 2.41
  38  0.691  0.352  0.357-  18 1.86  10 2.44   8 2.49
  39  0.052  0.453  0.292-  11 1.81   1 2.13  10 2.46
  40  0.552  0.952  0.291-  12 1.80   2 2.12   9 2.41
  41  0.448  0.048  0.708-  13 1.82   3 2.12   8 2.40
  42  0.948  0.546  0.708-  14 1.77   4 2.11
  43  0.111  0.946  0.863-  16 1.79   5 2.00
  44  0.611  0.447  0.862-  15 1.79   6 2.01
  45  0.390  0.553  0.137-  18 1.78   5 2.01
  46  0.889  0.053  0.138-  17 1.79   6 2.01
  47  0.065  0.760  0.161-  11 1.77   5 2.08
  48  0.567  0.259  0.162-  12 1.77   6 2.07
  49  0.434  0.740  0.839-  13 1.77   5 2.06
  50  0.935  0.241  0.839-  14 1.77   6 2.07

IMPORTANT INFORMATION: All symmetrisations will be switched off!
NOSYMM: (Re-)initialisation of all symmetry stuff for point group C_1.

                                     Primitive cell

  volume of cell :     670.9103

  direct lattice vectors                    reciprocal lattice vectors
     6.917697000  0.000000000  0.000000000     0.144556780 -0.039387563 -0.000300733
     2.655028000  9.744251000  0.000000000     0.000000000  0.102624614 -0.043291630
     1.164710000  4.198623000  9.953011000     0.000000000  0.000000000  0.100472108

  length of vectors
     6.917697000 10.099485196 10.864962607     0.149827010  0.111382120  0.100472108

  position of ions in fractional coordinates (direct lattice)
     0.197318000  0.397471000  0.130197000
     0.697756000  0.898061000  0.129936000
     0.302575000  0.102099000  0.869904000
     0.803962000  0.604334000  0.867029000
     0.249844000  0.750218000  0.999326000
     0.750039000  0.249988000  0.999966000
     0.978055000  0.795025000  0.562124000
     0.475830000  0.294999000  0.561524000
     0.521163000  0.706435000  0.441998000
     0.024441000  0.200221000  0.440353000
     0.090714000  0.609001000  0.319768000
     0.594534000  0.106339000  0.319174000
     0.407397000  0.891684000  0.681006000
     0.908301000  0.393329000  0.681831000
     0.364145000  0.481863000  0.801258000
     0.865599000  0.978440000  0.801178000
     0.134471000  0.018856000  0.198707000
     0.634315000  0.520117000  0.197780000
     0.695326000  0.992877000  0.931470000
     0.193569000  0.493745000  0.931854000
     0.805158000  0.506917000  0.068243000
     0.305327000  0.006699000  0.068225000
     0.336220000  0.548587000  0.404841000
     0.832575000  0.050698000  0.403051000
     0.166855000  0.951762000  0.596533000
     0.665207000  0.451240000  0.594934000
     0.141832000  0.184851000  0.226050000
     0.641668000  0.684774000  0.224703000
     0.357985000  0.315520000  0.774084000
     0.856704000  0.815864000  0.777011000
     0.398823000  0.165909000  0.427454000
     0.897684000  0.663555000  0.425994000
     0.102794000  0.334233000  0.572565000
     0.597508000  0.835319000  0.572441000
     0.310999000  0.646717000  0.644126000
     0.808423000  0.149625000  0.641143000
     0.193027000  0.852718000  0.353948000
     0.690869000  0.352223000  0.357400000
     0.052230000  0.452738000  0.292015000
     0.551873000  0.951980000  0.291203000
     0.448403000  0.048445000  0.708340000
     0.948378000  0.546108000  0.707831000
     0.110745000  0.946268000  0.863015000
     0.610552000  0.446720000  0.862214000
     0.389944000  0.553389000  0.136957000
     0.888669000  0.052932000  0.137604000
     0.064775000  0.759609000  0.161283000
     0.566978000  0.259034000  0.161852000
     0.433751000  0.739874000  0.839413000
     0.934687000  0.240591000  0.839143000

  ion indices of the primitive-cell ions
   primitive index   ion index
                 1           1
                 2           2
                 3           3
                 4           4
                 5           5
                 6           6
                 7           7
                 8           8
                 9           9
                10          10
                11          11
                12          12
                13          13
                14          14
                15          15
                16          16
                17          17
                18          18
                19          19
                20          20
                21          21
                22          22
                23          23
                24          24
                25          25
                26          26
                27          27
                28          28
                29          29
                30          30
                31          31
                32          32
                33          33
                34          34
                35          35
                36          36
                37          37
                38          38
                39          39
                40          40
                41          41
                42          42
                43          43
                44          44
                45          45
                46          46
                47          47
                48          48
                49          49
                50          50

 KPOINTS: Kpoints from vasprun.xml

Automatic generation of k-mesh.
 Grid dimensions read from file:
 generate k-points for:    4    3    2

 Generating k-lattice:

[...]
  307        strehar                               0.003421                            1   3
  308          m_sumb_d                              0.000004                          1   4
  309        chggra                                0.001094                            1   3
  310          fft3d_mpi                             0.000682                          3   4
  311            fftbrc_mpi                            0.000545                        3   5
  312              fftbas_plan_mpi                       0.000543                      3   6
  313                map_forward                           0.000323                    4   7
  314                  map_gather                            0.000057                  2   8
  315                  m_alltoallv_z                         0.000030                  2   8
  316                  map_scatter                           0.000196                  2   8
  317                map_backward                          0.000130                    2   7
  318                  map_gather                            0.000030                  1   8
  319                  m_alltoallv_z                         0.000012                  1   8
  320                  map_scatter                           0.000063                  1   8
  321          m_sumb_d                              0.000008                          2   4
  322          pothar                                0.000105                          1   4
  323            m_sumb_d                              0.000019                        1   5
  324        brmix                                 0.022919                            1   3
  325          m_sumb_d                              0.000056                          6   4
  326          brpre                                 0.000057                          2   4
  327          setg0                                 0.003364                          1   4
  328          broyd                                 0.015997                          1   4
  329            brget                                 0.004031                      326   5
  330            brsav                                 0.001849                      163   5
  331            m_sumb_d                              0.000960                       47   5
  332        m_bcast_d                             0.000124                            2   3
  333      potlok                                0.085520                              2   2
  334        fft3d_mpi                             0.050916                           36   3
  335          fftbrc_mpi                            0.042448                         36   4
  336            fftbas_plan_mpi                       0.042427                       36   5
  337              map_forward                           0.011870                     40   6
  338                map_gather                            0.003164                   24   7
  339                m_alltoallv_z                         0.004925                   24   7
  340                map_scatter                           0.003539                   24   7
  341              map_backward                          0.009932                     32   6
  342                map_gather                            0.002882                   16   7
  343                m_alltoallv_z                         0.003767                   16   7
  344                map_scatter                           0.002989                   16   7
  345              dfftw_execute                         0.018743                     30   6
  346        m_sumb_d                              0.000040                            5   3
  347        pothar                                0.003541                            2   3
  348          m_sumb_d                              0.000239                          2   4
  349        m_bcast_d                             0.005874                            4   3
  350      potlok_metagga                        0.000000                              1   2
  351      set_dd_magatom                        0.000004                              1   2
  352      set_dd_paw                            4.036903                              1   2
  353        m_sumb_d                              0.210725                            7   3
  354      augmentation_charge                   0.292515                              1   2
  355        fft3d_mpi                             0.146687                            2   3
  356          fftbrc_mpi                            0.124156                          2   4
  357            fftbas_plan_mpi                       0.124153                        2   5
  358              dfftw_execute                         0.076325                      6   6
  359              map_backward                          0.047536                      4   6
  360                map_gather                            0.017453                    2   7
  361                m_alltoallv_z                         0.012301                    2   7
  362                map_scatter                           0.017768                    2   7
  363      densta                               12.348860                              1   2

 Flat profile

 set_dd_paw                            394.074500         103
 eddav                                 206.517256         105
 raccmu_                               195.830758      358997
 lapack                                178.549146      358997
 m_sumb_d                              105.680670     1089206
 redis_pw                               86.367920     1949147
 m_alltoall_d                           37.356492     5100739
 phaser                                 25.824577        3122
 total_time                             24.876980           1
 densta                                 22.792056         106
 dfftw_execute                          20.435123        2856
 eccp                                   20.178335      167580
 orth1                                  19.573959     1077215
 fft3d                                  18.651513     2093949
 setdij_                                18.101547         129
 redis_proj                             16.680073     2485192
 augmentation_charge                    15.195275         103
 hamiltmu                               14.697667      358997
 fftwav                                 13.559834     1390352
 init_acc                               11.549092           1
 racc0mu_acc                            10.541488      358997
 w1_copy                                10.373140     2110791
 overl                                  10.297915     1239642
 rpromu_acc                              9.664683      279197
 m_bcast_z                               8.731912      365381
 ggemm                                   7.636767      444257
 soft_charge                             6.590415         102
 setup_precond                           6.202630      167580
 m_bcast_d                               5.871561      718205
 overl_mu                                5.686507      358997
 fft3d_mpi                               5.632514      707226
 pw_charge                               5.424233      129990
 map_scatter                             4.001715        4039
 m_alltoallv_z                           3.798883        4039
 map_gather                              3.774850        4039
 kinhamil                                3.213303      703597
 vhamil                                  3.178718      703597
 fftext_mpi                              2.982255      703597
 apply_precond                           2.982168      536017
 newband                                 2.760666      361937
 depsum                                  2.706034         102
 acc_init_cublas                         2.410196           1
 fftwav_mpi                              1.900594     1390352
 rpro_isp                                1.133657         182
 potlok                                  0.908391         103
 acc_init_cusolver                       0.795881           1
 broyd                                   0.731183         101
 sphpro_fast                             0.567946           2
 rspher_all                              0.464122          14
 elmin                                   0.393063           1
 brmix                                   0.390463         101
 setg0                                   0.261723         103
 w1_projall                              0.259464      273737
 brget                                   0.243459       19007
 fftbas_plan_mpi                         0.211920        3629
 lincom                                  0.127631        2968
 proall                                  0.127418           1
 acc_cufft_makeplan                      0.119256          19
 orthch                                  0.077977           1
 set_charge                              0.072078         102
 truncate_high_frequency_w1              0.068222      871177
 brsav                                   0.064282        5269
 stufak                                  0.055622           1
 force_and_stress                        0.048257           1
 map_backward                            0.032655        3830
 map_forward                             0.026325        3428
 fft_gq                                  0.022213         102
 choleski                                0.018397          28
 pothar                                  0.013083         104
 strnlr                                  0.008585           1
 brpre                                   0.006167         202
 forhar                                  0.004555           2
 strelo                                  0.004179           1
 strehar                                 0.003417           1
 strkin                                  0.003250           1
 fornlr                                  0.002917           1
 forloc                                  0.002565           1
 rsp                                     0.002517           1
 fftbrc_mpi                              0.002471        3629
 vectorpot                               0.000623         102
 set_dd_magatom                          0.000468         103
 brgrid                                  0.000443           1
 fewald                                  0.000347           1
 chggra                                  0.000299           1
 fordep                                  0.000162           1
 rcp                                     0.000086           1
 crpa_reader                             0.000029           1
 acc_cufft_makeplans                     0.000012           3
 potlok_metagga                          0.000011         102
 rotate_active_occupied_orbital          0.000000           1
 redis_pw_over_bands                     0.000000           1
  summed up times     1580.133709907532

 Accumulative profile

 total_time                           1580.133710           1
 elmin                                1498.386417           1
 eddav                                 995.954252         105
 set_dd_paw                            416.398344         103
 hamiltmu                              241.414574      358997
 raccmu_                               212.058754      358997
 lapack                                178.549146      358997
 m_sumb_d                              105.680670     1089206
 redis_pw                              105.592188     1949147
 set_charge                             53.661287         102
 fft3d_mpi                              42.985648      707226
 newband                                42.501818      361937
 setdij_                                38.769338         129
 m_alltoall_d                           37.356492     5100739
 redis_proj                             34.812297     2485192
 fftbrc_mpi                             32.283940        3629
 fftbas_plan_mpi                        32.281470        3629
 augmentation_charge                    30.449551         103
 fftwav_mpi                             29.042747     1390352
 fftwav                                 27.142154     1390352
 phaser                                 25.824577        3122
 densta                                 22.792056         106
 soft_charge                            20.670788         102
 dfftw_execute                          20.435123        2856
 eccp                                   20.178335      167580
 orth1                                  19.573959     1077215
 fft3d                                  18.651513     2093949
 force_and_stress                       17.602148           1
 init_acc                               11.549092           1
 kinhamil                               11.479435      703597
 racc0mu_acc                            10.541488      358997
 w1_copy                                10.373140     2110791
 overl                                  10.297915     1239642
 rpromu_acc                              9.664683      279197
 m_bcast_z                               8.731912      365381
 fftext_mpi                              8.266132      703597
 w1_projall                              8.257807      273737
 ggemm                                   7.636767      444257
 setup_precond                           6.202630      167580
 map_backward                            6.106450        3830
 m_bcast_d                               5.871561      718205
 overl_mu                                5.686507      358997
 map_forward                             5.527978        3428
 pw_charge                               5.424233      129990
 map_scatter                             4.001715        4039
 strnlr                                  3.937890           1
 m_alltoallv_z                           3.798883        4039
 map_gather                              3.774850        4039
 rpro_isp                                3.482754         182
 vhamil                                  3.178718      703597
 apply_precond                           2.982168      536017
 depsum                                  2.761384         102
 acc_init_cublas                         2.410196           1
 fordep                                  1.788025           1
 brmix                                   1.771352         101
 potlok                                  1.713021         103
 fornlr                                  1.315045           1
 broyd                                   1.101180         101
 acc_init_cusolver                       0.795881           1
 sphpro_fast                             0.594778           2
 fft_gq                                  0.572330         102
 rspher_all                              0.464122          14
 orthch                                  0.456978           1
 proall                                  0.349254           1
 setg0                                   0.261723         103
 brget                                   0.243459       19007
 lincom                                  0.127631        2968
 acc_cufft_makeplans                     0.119268           3
 acc_cufft_makeplan                      0.119256          19
 truncate_high_frequency_w1              0.068222      871177
 brsav                                   0.064282        5269
 stufak                                  0.055622           1
 choleski                                0.018397          28
 pothar                                  0.014461         104
 brpre                                   0.006167         202
 forhar                                  0.004598           2
 strelo                                  0.004243           1
 fewald                                  0.003823           1
 strehar                                 0.003421           1
 strkin                                  0.003259           1
 forloc                                  0.002607           1
 rsp                                     0.002517           1
 chggra                                  0.001094           1
 vectorpot                               0.000623         102
 set_dd_magatom                          0.000468         103
 brgrid                                  0.000443           1
 rcp                                     0.000086           1
 crpa_reader                             0.000029           1
 potlok_metagga                          0.000011         102
 rotate_active_occupied_orbital          0.000000           1
 redis_pw_over_bands                     0.000000           1

Profiling took   4.442694  2.187189  0.003330  0.003223 seconds
Profiling took   2.860923 seconds