 vasp.6.3.2 27Jun22 (build Jul  3 2023 11:46:21) complex
 executed on    LinuxNV_CrayMPICH date 2024.05.14  14:30:45

 INCAR:
   ALGO = Fast
   EDIFF = 0.0001
   EDIFFG = -0.05
   ENCUT = 500
   GGA = PE
   IBRION = 2
   ISIF = 0
   ISMEAR = 1
   ISPIN = 2
   ISTART = 1
   ISYM = 0
   LASPH = True
   LCHARG = False
   LMAXMIX = 4
   LORBIT = 11
   LREAL = True
   LVTOT = False
   LWAVE = True
   MAGMOM = 1*-2.5 1*-2.5 1*-2.5 1*-2.5 1*-2.5 1*-2.5 1*-2.5 1*-2.5 1*-2.5 1*-2.5 1*-0 1*-2.5 1*2.5 1*2.5 1*2.5 1*2.5 1*-2.5 1*-2.5 1*-2.5 1*-2.5 1*2.5 1*2.5 1*2.5 1*2.5 1*-2.5 1*-2.5 1*-2.5 1*-2.5 1*2.5 1*2.5 1*2.5 1*2.5 1*0 1*-0 1*0 1*-0 1*-0.0250 1*-0.0250 1*-0.0250 1*-0.0250 1*0 1*0 1*0 1*0 1*-0 1*0 1*-0 1*-0 1*-0 1*-0 1*-0 1*-0 1*-0 1*-0 1*0 1*0 1*0 1*0 1*0 1*0 1*0 1*0 1*-0 1*-0
   NCORE = 4
   NELM = 80
   NELMIN = 8
   NSW = 300
   PREC = Accurate
   SIGMA = 0.2
   SYMPREC = 1e-10

 POTCAR:    PAW_PBE Cr_pv 02Aug2007
 POTCAR:    PAW_PBE N 08Apr2002
 POTCAR:    PAW_PBE Cr_pv 02Aug2007
   VRHFIN =Cr : p6d5s1

   TITEL  = PAW_PBE Cr_pv 02Aug2007
   POMASS =   51.996; ZVAL   =   12.000    mass and valenz
   ENMAX  =  265.681; ENMIN  =  199.261 eV

   TITEL  = PAW_PBE N 08Apr2002
   POMASS =   14.001; ZVAL   =    5.000    mass and valenz
   ENMAX  =  400.000; ENMIN  =  300.000 eV

  PAW_PBE Cr_pv 02Aug2007               :
  PAW_PBE N 08Apr2002                   :

 POSCAR: Cr32 N32
  positions in direct lattice
  velocities in cartesian coordinates
 exchange correlation table for  LEXCH =        8
   RHO(1)=    0.500       N(1)  =     2000
   RHO(2)=  100.500       N(2)  =     4000

 VTST: version 4.2, (08/11/21)

 CHAIN: initializing optimizer

 OPT: Using VASP Conjugate-Gradient optimizer
 CHAIN: Read ICHAIN             0

 POSCAR: Cr32 N32
  positions in direct lattice
  velocities in cartesian coordinates

 ion  position               nearest neighbor table
   1  0.000  0.000  0.396-  33 2.07  34 2.07  39 2.08  45 2.08  37 2.08  47 2.08   8 2.93  13 2.93
                             7 2.93  14 2.93   5 2.93  16 2.93   6 2.93  15 2.93   3 2.94   3 2.94
   2  0.000  0.500  0.396-  33 2.07  34 2.07  40 2.08  46 2.08  38 2.08  48 2.08   7 2.93  14 2.93
                             8 2.93  13 2.93   6 2.93  15 2.93   5 2.93  16 2.93   4 2.94   4 2.94
   3  0.500  0.000  0.396-  35 2.07  36 2.07  37 2.08  47 2.08  39 2.08  45 2.08   6 2.93  15 2.93
                             5 2.93  16 2.93   7 2.93  14 2.93   8 2.93  13 2.93   1 2.94   1 2.94
   4  0.500  0.500  0.396-  35 2.07  36 2.07  38 2.08  48 2.08  40 2.08  46 2.08   5 2.93  16 2.93
                             6 2.93  15 2.93   8 2.93  13 2.93   7 2.93  14 2.93   2 2.94   2 2.94
   5  0.250  0.250  0.354-  37 2.07  38 2.07  35 2.08  33 2.08   4 2.93   3 2.93   1 2.93   2 2.93
                            13 2.94   7 2.94   7 2.94
   6  0.250  0.750  0.354-  37 2.07  38 2.07  36 2.08  34 2.08   3 2.93   4 2.93   2 2.93   1 2.93
                            14 2.94   8 2.94   8 2.94
   7  0.750  0.250  0.354-  39 2.07  40 2.07  33 2.08  35 2.08   2 2.93   1 2.93   3 2.93   4 2.93
                            15 2.94   5 2.94   5 2.94
   8  0.750  0.750  0.354-  39 2.07  40 2.07  34 2.08  36 2.08   1 2.93   2 2.93   4 2.93   3 2.93
                            16 2.94   6 2.94   6 2.94
   9  0.000  0.000  0.479-  41 2.07  42 2.07  53 2.07  55 2.07  47 2.08  45 2.08  17 2.83  16 2.93
                            15 2.93  13 2.93  14 2.93  11 2.94  11 2.94   1 2.94  21 2.97  22 2.97
  10  0.000  0.500  0.479-  41 2.07  42 2.07  54 2.07  56 2.07  48 2.08  46 2.08  18 2.83  15 2.93
                            16 2.93  14 2.93  13 2.93  12 2.94  12 2.94   2 2.94  22 2.97  21 2.97
  11  0.500  0.000  0.479-  43 2.07  44 2.07  55 2.07  53 2.07  45 2.08  47 2.08  19 2.83  14 2.93
                            13 2.93  15 2.93  16 2.93   9 2.94   9 2.94   3 2.94  23 2.97  24 2.97
  12  0.500  0.500  0.479-  43 2.07  44 2.07  56 2.07  54 2.07  46 2.08  48 2.08  20 2.83  13 2.93
                            14 2.93  16 2.93  15 2.93  10 2.94  10 2.94   4 2.94  24 2.97  23 2.97
  13  0.250  0.250  0.438-  45 2.07  46 2.07  33 2.08  43 2.08  41 2.08  35 2.08   1 2.93  12 2.93
                            11 2.93   2 2.93   4 2.93   9 2.93   3 2.93  10 2.93   5 2.94  15 2.94
  14  0.250  0.750  0.438-  45 2.07  46 2.07  34 2.08  44 2.08  42 2.08  36 2.08   2 2.93  11 2.93
                             1 2.93  12 2.93   3 2.93  10 2.93   9 2.93   4 2.93   6 2.94  16 2.94
  15  0.750  0.250  0.438-  47 2.07  48 2.07  35 2.08  41 2.08  33 2.08  43 2.08   3 2.93  10 2.93
                             9 2.93   4 2.93   2 2.93  11 2.93   1 2.93  12 2.93   7 2.94  13 2.94
  16  0.750  0.750  0.438-  47 2.07  48 2.07  36 2.08  42 2.08  34 2.08  44 2.08   4 2.93   9 2.93
                             3 2.93  10 2.93   1 2.93  12 2.93  11 2.93   2 2.93   8 2.94  14 2.94
  17  0.000  0.000  0.559-  53 2.01  55 2.01  50 2.07  49 2.07  61 2.19  63 2.19   9 2.83  21 2.84
                            22 2.84  24 2.84  23 2.84  25 2.87  19 2.94  19 2.94  29 3.13  30 3.13
  18  0.000  0.500  0.559-  54 2.01  56 2.01  49 2.07  50 2.07  62 2.19  64 2.19  10 2.83  22 2.84
                            21 2.84  23 2.84  24 2.84  26 2.86  20 2.94  20 2.94  30 3.13  29 3.13
  19  0.500  0.000  0.559-  55 2.01  53 2.01  52 2.07  51 2.07  63 2.19  61 2.19  11 2.83  23 2.84
                            24 2.84  22 2.84  21 2.84  27 2.87  17 2.94  17 2.94  31 3.13  32 3.13
  20  0.500  0.500  0.559-  56 2.01  54 2.01  51 2.07  52 2.07  64 2.19  62 2.19  12 2.83  24 2.84
                            23 2.84  21 2.84  22 2.84  28 2.86  18 2.94  18 2.94  32 3.13  31 3.13
  21  0.250  0.250  0.523-  49 2.01  51 2.01  54 2.07  53 2.07  41 2.13  43 2.13  17 2.84  18 2.84
                            19 2.84  20 2.84  23 2.94  23 2.94   9 2.97  10 2.97  12 2.97  11 2.97
  22  0.250  0.750  0.523-  50 2.01  52 2.01  53 2.07  54 2.07  42 2.13  44 2.13  17 2.84  18 2.84
                            19 2.84  20 2.84  24 2.94  24 2.94  10 2.97   9 2.97  11 2.97  12 2.97
  23  0.750  0.250  0.523-  51 2.01  49 2.01  56 2.07  55 2.07  43 2.13  41 2.13  19 2.84  20 2.84
                            17 2.84  18 2.84  21 2.94  21 2.94  11 2.97  12 2.97  10 2.97   9 2.97
  24  0.750  0.750  0.523-  52 2.01  50 2.01  55 2.07  56 2.07  44 2.13  42 2.13  19 2.84  20 2.84
                            17 2.84  18 2.84  22 2.94  22 2.94  12 2.97  11 2.97   9 2.97  10 2.97
  25  0.000  1.000  0.641-  63 1.93  61 1.93  58 2.08  57 2.08  30 2.74  32 2.74  29 2.74  31 2.74
                            17 2.87  27 2.94  27 2.94
  26  0.000  0.500  0.641-  64 1.93  62 1.93  57 2.08  58 2.08  29 2.74  30 2.74  31 2.74  32 2.74
                            18 2.86  28 2.94  28 2.94
  27  0.500  1.000  0.641-  61 1.93  63 1.93  60 2.08  59 2.08  32 2.74  30 2.74  31 2.74  29 2.74
                            19 2.87  25 2.94  25 2.94
  28  0.500  0.500  0.641-  62 1.93  64 1.93  59 2.08  60 2.08  32 2.74  31 2.74  29 2.74  30 2.74
                            20 2.86  26 2.94  26 2.94
  29  0.250  0.250  0.611-  57 1.92  59 1.92  61 2.08  62 2.08  49 2.30  51 2.30  26 2.74  25 2.74
                            28 2.74  27 2.74  31 2.94  31 2.94  21 3.13  17 3.13  18 3.13  20 3.13
  30  0.250  0.750  0.611-  58 1.92  60 1.92  61 2.08  62 2.08  50 2.30  52 2.30  25 2.74  27 2.74
                            26 2.74  28 2.74  32 2.94  32 2.94  22 3.13  18 3.13  17 3.13  20 3.13
  31  0.750  0.250  0.611-  59 1.92  57 1.92  63 2.08  64 2.08  51 2.30  49 2.30  27 2.74  28 2.74
                            26 2.74  25 2.74  29 2.94  29 2.94  23 3.13  19 3.13  20 3.13  18 3.13
  32  0.750  0.750  0.611-  60 1.92  58 1.92  63 2.08  64 2.08  52 2.30  50 2.30  27 2.74  28 2.74
                            25 2.74  26 2.74  30 2.94  30 2.94  24 3.13  20 3.13  19 3.13  18 3.13
  33  0.000  0.250  0.396-   1 2.07   2 2.07   7 2.08  13 2.08   5 2.08  15 2.08
  34  0.000  0.750  0.396-   1 2.07   2 2.07   8 2.08  14 2.08   6 2.08  16 2.08
  35  0.500  0.250  0.396-   3 2.07   4 2.07   5 2.08  15 2.08   7 2.08  13 2.08
  36  0.500  0.750  0.396-   3 2.07   4 2.07   6 2.08  16 2.08   8 2.08  14 2.08
  37  0.250  0.000  0.354-   5 2.07   6 2.07   3 2.08   1 2.08
  38  0.250  0.500  0.354-   5 2.07   6 2.07   4 2.08   2 2.08
  39  0.750  0.000  0.354-   7 2.07   8 2.07   1 2.08   3 2.08
  40  0.750  0.500  0.354-   7 2.07   8 2.07   2 2.08   4 2.08
  41  0.000  0.250  0.479-   9 2.07  10 2.07  15 2.08  13 2.08  21 2.13  23 2.13
  42  0.000  0.750  0.479-   9 2.07  10 2.07  16 2.08  14 2.08  22 2.13  24 2.13
  43  0.500  0.250  0.479-  11 2.07  12 2.07  13 2.08  15 2.08  23 2.13  21 2.13
  44  0.500  0.750  0.479-  11 2.07  12 2.07  14 2.08  16 2.08  24 2.13  22 2.13
  45  0.250  0.000  0.438-  13 2.07  14 2.07   1 2.08  11 2.08   9 2.08   3 2.08
  46  0.250  0.500  0.438-  13 2.07  14 2.07   2 2.08  12 2.08  10 2.08   4 2.08
  47  0.750  0.000  0.438-  15 2.07  16 2.07   3 2.08   9 2.08   1 2.08  11 2.08
  48  0.750  0.500  0.438-  15 2.07  16 2.07   4 2.08  10 2.08   2 2.08  12 2.08
  49  1.000  0.250  0.561-  21 2.01  23 2.01  18 2.07  17 2.07  29 2.30  31 2.30
  50  0.000  0.750  0.561-  22 2.01  24 2.01  17 2.07  18 2.07  30 2.30  32 2.30
  51  0.500  0.250  0.561-  23 2.01  21 2.01  20 2.07  19 2.07  31 2.30  29 2.30
  52  0.500  0.750  0.561-  24 2.01  22 2.01  19 2.07  20 2.07  32 2.30  30 2.30
  53  0.250  1.000  0.521-  17 2.01  19 2.01  22 2.07  21 2.07   9 2.07  11 2.07
  54  0.250  0.500  0.521-  18 2.01  20 2.01  21 2.07  22 2.07  10 2.07  12 2.07
  55  0.750  1.000  0.521-  19 2.01  17 2.01  24 2.07  23 2.07  11 2.07   9 2.07
  56  0.750  0.500  0.521-  20 2.01  18 2.01  23 2.07  24 2.07  12 2.07  10 2.07
  57  0.000  0.250  0.646-  29 1.92  31 1.92  26 2.08  25 2.08
  58  0.000  0.750  0.646-  30 1.92  32 1.92  25 2.08  26 2.08
  59  0.500  0.250  0.646-  31 1.92  29 1.92  28 2.08  27 2.08
  60  0.500  0.750  0.646-  32 1.92  30 1.92  27 2.08  28 2.08
  61  0.250  1.000  0.605-  27 1.93  25 1.93  30 2.08  29 2.08  17 2.19  19 2.19
  62  0.250  0.500  0.605-  28 1.93  26 1.93  29 2.08  30 2.08  18 2.19  20 2.19
  63  0.750  1.000  0.605-  25 1.93  27 1.93  32 2.08  31 2.08  19 2.19  17 2.19
  64  0.750  0.500  0.605-  26 1.93  28 1.93  32 2.08  31 2.08  20 2.19  18 2.19

IMPORTANT INFORMATION: All symmetrisations will be switched off!
NOSYMM: (Re-)initialisation of all symmetry stuff for point group C_1.

                                     Primitive cell

  volume of cell :    1715.2601

  direct lattice vectors                    reciprocal lattice vectors
     5.882628000  0.000000000 -0.000362000     0.169992051  0.000005103 -0.000000000
    -0.000248000  8.261064000 -0.000163000    -0.000000000  0.121049782  0.000000000
     0.000000000  0.000000000 35.295767000     0.000001743  0.000000559  0.028332009

  length of vectors
     5.882628011  8.261064005 35.295767000     0.169992051  0.121049782  0.028332009

  position of ions in fractional coordinates (direct lattice)
     0.000000000  0.000000000  0.395833000
     0.000000000  0.500000000  0.395833000
     0.500000000  0.000000000  0.395833000
     0.500000000  0.500000000  0.395833000
[...]
  325                  map_gather                            0.000393                  9   8
  326                  m_alltoallv_z                         0.000123                  9   8
  327                  map_scatter                           0.001112                  9   8
  328          m_sumb_d                              0.000085                         18   4
  329          pothar                                0.001140                          9   4
  330            m_sumb_d                              0.000132                        9   5
  331        brmix                                 0.175501                            9   3
  332          m_sumb_d                              0.002194                         54   4
  333          brpre                                 0.001094                         18   4
  334          setg0                                 0.065420                          9   4
  335          broyd                                 0.042283                          9   4
  336            m_sumb_d                              0.004292                      154   5
  337            brget                                 0.012505                      536   5
  338            brsav                                 0.003380                      138   5
  339        m_bcast_d                             0.000471                           18   3
  340      potlok                                0.139786                              9   2
  341        fft3d_mpi                             0.079832                          234   3
  342          fftbrc_mpi                            0.063964                        234   4
  343            fftbas_plan_mpi                       0.063845                      234   5
  344              map_forward                           0.030503                    252   6
  345                map_gather                            0.005816                  144   7
  346                m_alltoallv_z                         0.002002                  144   7
  347                map_scatter                           0.020075                  144   7
  348              map_backward                          0.025085                    216   6
  349                map_gather                            0.004766                  108   7
  350                m_alltoallv_z                         0.001439                  108   7
  351                map_scatter                           0.015314                  108   7
  352        m_sumb_d                              0.000314                           45   3
  353        pothar                                0.001304                            9   3
  354          m_sumb_d                              0.000104                          9   4
  355        m_bcast_d                             0.000247                           18   3
  356      potlok_metagga                        0.000000                              9   2
  357      set_dd_magatom                        0.000034                              9   2
  358      set_dd_paw                           51.022159                              9   2
  359        m_sumb_d                              0.079184                           63   3
  360      m_sumb_d                              4.273950                           8979   2
  361      wavpre_noio                           3.195929                              8   2
  362        stufak                                1.186818                            8   3
  363      densta                                0.043710                              1   2
  364        m_sumb_d                              0.002060                           41   3

 Flat profile

 set_dd_paw                            668.812296         118
 eccp                                   72.957083      688774
 redis_pw                               36.050168      247448
 m_sumb_d                               30.783574      127403
 raccmu_                                30.776930      116515
 i2                                     28.347374       81849
 hamilt_local                           23.878241      203840
 fft3d                                  23.466147     1717321
 eddiag                                 18.516820          91
 m_alltoall_d                           18.121044     2848524
 eddav                                  17.945687           9
 eccp_nl                                17.489642      464774
 hamiltmu                               17.007517      116515
 total_time                             16.832748           1
 phaser                                 16.156434        3304
 fftwav                                 15.780951     1123737
 cnorma                                 15.742896      464774
 lapack                                 14.631927       34666
 pw_charge                              13.844840      226240
 eddrmm                                 13.176825          91
 init_acc                               12.833014           1
 w1_gemv                                12.389859      508966
 soft_charge                             9.230485         101
 setup_precond                           7.857887      224000
 rpromu_acc                              7.480462      126595
 w1_copy                                 6.042057     1169232
 newband                                 5.675119      119315
 w1_dot                                  5.012559      174101
 rpro_isp                                4.686587         504
 redis_proj                              4.580926      253556
 overl1                                  4.123914      254483
 racc0mu_acc                             3.970256      116515
 w1_dscal                                3.858102      640389
 w1_daxpy                                3.491511      581346
 depsum                                  3.306149         101
 setdij_                                 3.046705         173
 orth1                                   2.981725      157478
 elmin                                   2.662526           9
 orthch                                  2.661922         100
 kinhamil                                2.508684      593584
 vhamil                                  2.505866      593584
 acc_init_cublas                         2.485115           1
 apply_precond                           2.434806      525788
 proall                                  2.373182           9
 fftext_mpi                              2.320019      593584
 wavpre_noio                             2.009111           8
 augmentation_charge                     1.971316         101
 overl_mu                                1.830126      116515
 choleski                                1.723773        2800
 potlok                                  1.589056         109
 w1_gaxpy                                1.449364      302515
 fftwav_mpi                              1.448553     1123737
 m_bcast_z                               1.437655       43628
 stufak                                  1.336349           9
 dfftw_execute                           1.332159        1239
 sphpro_fast                             1.303988          10
 fft3d_mpi                               1.135844      597056
 force_and_stress                        1.126417           9
 overl                                   1.027939      123852
 acc_init_cusolver                       0.943216           1
 zhegv                                   0.867977      116572
 m_alltoallv_z                           0.856834        3892
 map_scatter                             0.773282        3892
 i3                                      0.759734       81849
 brmix                                   0.690603         100
 rspher_all                              0.687128          37
 ggemm                                   0.612226       44746
 m_bcast_d                               0.584076       69588
 setg0                                   0.565623         118
 map_gather                              0.488289        3892
 lincom                                  0.342040        5600
 densta                                  0.324895         101
 fftbas_plan_mpi                         0.161443        3472
 broyd                                   0.152154         100
 set_charge                              0.134392         101
 acc_cufft_makeplan                      0.124129          19
 w1_projall                              0.100406      106435
 i1                                      0.097242       81849
 brget                                   0.090895        4041
 forhar                                  0.069653          18
 map_backward                            0.048025        3658
 truncate_high_frequency_w1              0.046404      613744
 fft_gq                                  0.044270         101
 fornlr                                  0.042032           9
 rsp                                     0.040600           9
 forloc                                  0.034654           9
 map_forward                             0.034482        3286
 brsav                                   0.026100        1154
 pothar                                  0.015501         118
 brpre                                   0.011928         200
 chggra                                  0.005327           9
 fftbrc_mpi                              0.001892        3472
 fordep                                  0.001067           9
 rcp                                     0.000925           9
 brgrid                                  0.000909           1
 fewald                                  0.000491           9
 set_dd_magatom                          0.000474         118
 vectorpot                               0.000438         101
 shift_bands_between_low_high            0.000347        2548
 crpa_reader                             0.000027           1
 acc_cufft_makeplans                     0.000018           3
 potlok_metagga                          0.000013         109
 rotate_active_occupied_orbital          0.000002           9
 redis_pw_over_bands                     0.000001           9
  summed up times     1261.342398881912

 Accumulative profile

 total_time                           1261.342399           1
 elmin                                1072.304038           9
 set_dd_paw                            669.371378         118
 eddrmm                                270.790392          91
 i3                                     89.479896       81849
 eddav                                  82.696752           9
 eddiag                                 77.778611          91
 eccp                                   72.957083      688774
 force_and_stress                       70.301926           9
 hamiltmu                               61.254486      116515
 i2                                     58.713916       81849
 set_charge                             54.551106         101
 newband                                47.305160      119315
 soft_charge                            46.923474         101
 redis_pw                               45.220498      247448
 fftwav_mpi                             36.893003     1123737
 raccmu_                                36.577312      116515
 fftwav                                 35.444450     1123737
 orthch                                 33.704993         100
 cnorma                                 33.232538      464774
 m_sumb_d                               30.783574      127403
 hamilt_local                           27.515602      203840
 fft3d                                  23.466147     1717321
 m_alltoall_d                           18.121044     2848524
 eccp_nl                                17.489642      464774
 w1_gemv                                16.513774      508966
 phaser                                 16.156434        3304
 lapack                                 14.631927       34666
 pw_charge                              13.844840      226240
 redis_proj                             13.531640      253556
 init_acc                               12.833014           1
 fornlr                                 12.628119           9
 rpro_isp                               12.015851         504
 kinhamil                                8.801152      593584
 fft3d_mpi                               8.634898      597056
 setup_precond                           7.857887      224000
 rpromu_acc                              7.480462      126595
 fftext_mpi                              6.292468      593584
 w1_copy                                 6.042057     1169232
 w1_dot                                  5.012559      174101
 proall                                  4.869202           9
 augmentation_charge                     4.161435         101
 overl1                                  4.123914      254483
 racc0mu_acc                             3.970256      116515
 w1_dscal                                3.858102      640389
 fftbrc_mpi                              3.696406        3472
 fftbas_plan_mpi                         3.694514        3472
 w1_projall                              3.521046      106435
 w1_daxpy                                3.491511      581346
 depsum                                  3.331804         101
 wavpre_noio                             3.195929           8
 setdij_                                 3.130702         173
 orth1                                   2.981725      157478
 potlok                                  2.708644         109
 vhamil                                  2.505866      593584
 acc_init_cublas                         2.485115           1
 apply_precond                           2.434806      525788
 overl_mu                                1.830126      116515
 choleski                                1.723773        2800
 map_backward                            1.610558        3658
 brmix                                   1.597111         100
 i1                                      1.516052       81849
 w1_gaxpy                                1.449364      302515
 m_bcast_z                               1.437655       43628
 stufak                                  1.336349           9
 dfftw_execute                           1.332159        1239
 sphpro_fast                             1.331501          10
 fft_gq                                  1.218198         101
 overl                                   1.027939      123852
 fordep                                  0.964631           9
 acc_init_cusolver                       0.943216           1
 zhegv                                   0.867977      116572
 m_alltoallv_z                           0.856834        3892
 map_scatter                             0.773282        3892
 rspher_all                              0.687128          37
 ggemm                                   0.612226       44746
 map_forward                             0.590353        3286
 m_bcast_d                               0.584076       69588
 setg0                                   0.565623         118
 map_gather                              0.488289        3892
 densta                                  0.353388         101
 lincom                                  0.342040        5600
 broyd                                   0.306595         100
 acc_cufft_makeplans                     0.124147           3
 acc_cufft_makeplan                      0.124129          19
 brget                                   0.090895        4041
 forhar                                  0.070195          18
 truncate_high_frequency_w1              0.046404      613744
 fewald                                  0.043956           9
 rsp                                     0.040600           9
 forloc                                  0.036125           9
 brsav                                   0.026100        1154
 pothar                                  0.017335         118
 chggra                                  0.016288           9
 brpre                                   0.011928         200
 rcp                                     0.000925           9
 brgrid                                  0.000909           1
 set_dd_magatom                          0.000474         118
 vectorpot                               0.000438         101
 shift_bands_between_low_high            0.000347        2548
 crpa_reader                             0.000027           1
 potlok_metagga                          0.000013         109
 rotate_active_occupied_orbital          0.000002           9
 redis_pw_over_bands                     0.000001           9

Profiling took   1.858965  1.377356  0.003337  0.003237 seconds
Profiling took   1.540101 seconds