 vasp.6.3.2 27Jun22 (build Jul  3 2023 11:46:21) complex
 executed on    LinuxNV_CrayMPICH date 2024.04.22  03:06:02

 INCAR:
   ADDGRID = True
   ALGO = Fast
   EDIFF = 5e-05
   ENCUT = 520.0
   IBRION = -1
   ISIF = 3
   ISMEAR = -5
   ISPIN = 2
   LAECHG = True
   LASPH = True
   LCHARG = True
   LORBIT = 11
   LREAL = Auto
   LVHAR = True
   LWAVE = False
   MAGMOM = 2*7.0 4*5.0
   NELM = 1000
   NSW = 0
   PREC = Accurate
   SIGMA = 0.05

 POTCAR:    PAW_PBE Gd 23Dec2003
 POTCAR:    PAW_PBE Co 02Aug2007
 POTCAR:    PAW_PBE Gd 23Dec2003
   VRHFIN =Gd : [core=Xe4]

   TITEL  = PAW_PBE Gd 23Dec2003
   POMASS =  157.250; ZVAL   =   18.000    mass and valenz
   ENMAX  =  256.472; ENMIN  =  192.354 eV

   TITEL  = PAW_PBE Co 02Aug2007
   POMASS =   58.933; ZVAL   =    9.000    mass and valenz
   ENMAX  =  267.968; ENMIN  =  200.976 eV

 Optimization of the real space projectors (new method)

 maximal supplied QI-value         = 13.42
 optimisation between [QCUT,QGAM] = [ 11.67, 23.35] = [ 38.16,152.62] Ry
 Optimized for a Real-space Cutoff    1.63 Angstroem

   l    n(q)    QCUT    max X(q) W(low)/X(q) W(high)/X(q)  e(spline)
   0     11    11.673    10.501    0.14E-04    0.17E-05    0.21E-07
   0     11    11.673     9.148    0.21E-04    0.32E-05    0.45E-07
   1     11    11.673     4.035    0.33E-05    0.11E-04    0.84E-07
   1     11    11.673     4.388    0.11E-04    0.47E-04    0.34E-06
   2     10    11.673    20.656    0.12E-04    0.28E-04    0.54E-06
   2     10    11.673    12.651    0.11E-04    0.26E-04    0.51E-06
   3     10    11.673    61.921    0.19E-03    0.22E-03    0.23E-06
   3     10    11.673    48.328    0.20E-03    0.23E-03    0.23E-06
 Optimization of the real space projectors (new method)

 maximal supplied QI-value         = 16.25
 optimisation between [QCUT,QGAM] = [ 11.54, 23.24] = [ 37.28,151.24] Ry
 Optimized for a Real-space Cutoff    1.45 Angstroem

   l    n(q)    QCUT    max X(q) W(low)/X(q) W(high)/X(q)  e(spline)
   2      9    11.539    65.824    0.19E-03    0.47E-04    0.16E-06
   2      9    11.539    61.429    0.20E-03    0.48E-04    0.16E-06
   0     10    11.539    56.174    0.76E-04    0.45E-04    0.23E-06
   0     10    11.539    31.263    0.69E-04    0.41E-04    0.21E-06
   1     10    11.539    19.828    0.78E-04    0.14E-03    0.70E-07
   1     10    11.539    15.139    0.65E-04    0.12E-03    0.64E-07
  PAW_PBE Gd 23Dec2003                  :
  PAW_PBE Co 02Aug2007                  :

 POSCAR: Gd2 Co4
  positions in direct lattice
 exchange correlation table for  LEXCH =        8
   RHO(1)=    0.500       N(1)  =     2000
   RHO(2)=  100.500       N(2)  =     4000

 VTST: version 4.2, (08/11/21)

 CHAIN: initializing optimizer

 OPT: Using VASP Dynamics algorithm
 CHAIN: Read ICHAIN             0

 POSCAR: Gd2 Co4
  positions in direct lattice

 ion  position               nearest neighbor table
   1  0.250  0.250  0.250-   3 3.00   3 3.00   4 3.00   4 3.00   5 3.00   6 3.00   3 3.00   5 3.00
                             6 3.00   4 3.00   5 3.00   6 3.00   2 3.13   2 3.13   2 3.13   2 3.13
   2  0.000  0.000  0.000-   3 3.00   4 3.00   3 3.00   6 3.00   5 3.00   6 3.00   4 3.00   5 3.00
                             6 3.00   3 3.00   4 3.00   5 3.00   1 3.13   1 3.13   1 3.13   1 3.13
   3  0.625  0.625  0.125-   6 2.56   4 2.56   5 2.56   6 2.56   4 2.56   5 2.56   2 3.00   1 3.00
                             2 3.00   1 3.00   1 3.00   2 3.00
   4  0.625  0.125  0.625-   6 2.56   3 2.56   3 2.56   5 2.56   6 2.56   5 2.56   2 3.00   1 3.00
                             1 3.00   2 3.00   1 3.00   2 3.00
   5  0.125  0.625  0.625-   6 2.56   3 2.56   4 2.56   3 2.56   4 2.56   6 2.56   1 3.00   2 3.00
                             1 3.00   2 3.00   1 3.00   2 3.00
   6  0.625  0.625  0.625-   3 2.56   4 2.56   5 2.56   3 2.56   4 2.56   5 2.56   2 3.00   1 3.00
                             2 3.00   1 3.00   2 3.00   1 3.00

  LATTYP: Found a face centered cubic cell.
 ALAT       =     7.2352960000

  Lattice vectors:

 A1 = (   0.0000000000,   3.6176480000,   3.6176480000)
 A2 = (   3.6176480000,   0.0000000000,   3.6176480000)
 A3 = (   3.6176480000,   3.6176480000,   0.0000000000)

Analysis of symmetry for initial positions (statically):
 Subroutine PRICEL returns:
 Original cell was already a primitive cell.

 Routine SETGRP: Setting up the symmetry group for a
 face centered cubic supercell.

 Subroutine GETGRP returns: Found 48 space group operations
 (whereof 24 operations were pure point group operations)
 out of a pool of 48 trial point group operations.

The static configuration has the point symmetry T_d .
 The point group associated with its full space group is O_h .

Analysis of symmetry for dynamics (positions and initial velocities):
 Subroutine PRICEL returns:
 Original cell was already a primitive cell.

[...]

The dynamic configuration has the point symmetry T_d .
 The point group associated with its full space group is O_h .

Analysis of structural, dynamic, and magnetic symmetry:
 Subroutine PRICEL returns:
 Original cell was already a primitive cell.

 Routine SETGRP: Setting up the symmetry group for a
 face centered cubic supercell.

 Subroutine GETGRP returns: Found 48 space group operations
 (whereof 24 operations were pure point group operations)
 out of a pool of 48 trial point group operations.

The overall configuration has the point symmetry T_d .
 The point group associated with its full space group is O_h .

 Subroutine INISYM returns: Found 48 space group operations
 (whereof 24 operations are pure point group operations),
 and found     1 'primitive' translations

                                     Primitive cell

  volume of cell :      94.6910

  direct lattice vectors                    reciprocal lattice vectors
     0.000000000  3.617648000  3.617648000    -0.138211346  0.138211346  0.138211346
     3.617648000  0.000000000  3.617648000     0.138211346 -0.138211346  0.138211346
     3.617648000  3.617648000  0.000000000     0.138211346  0.138211346 -0.138211346

  length of vectors
     5.116126865  5.116126865  5.116126865     0.239389074  0.239389074  0.239389074

  position of ions in fractional coordinates (direct lattice)
     0.250000000  0.250000000  0.250000000
     0.000000000  0.000000000  0.000000000
     0.625000000  0.625000000  0.125000000
     0.625000000  0.125000000  0.625000000
     0.125000000  0.625000000  0.625000000
     0.625000000  0.625000000  0.625000000

  ion indices of the primitive-cell ions
   primitive index   ion index
                 1           1
                 2           2
                 3           3
                 4           4
                 5           5
                 6           6

 KPOINTS: Kpoints from vasprun.xml

Automatic generation of k-mesh.
 Grid dimensions read from file:
 generate k-points for:    6    6    6

 Generating k-lattice:

  Cartesian coordinates                     Fractional coordinates (reciprocal lattice)
    -0.023035224  0.023035224  0.023035224     0.166666667  0.000000000  0.000000000
     0.023035224 -0.023035224  0.023035224     0.000000000  0.166666667 -0.000000000
     0.023035224  0.023035224 -0.023035224    -0.000000000 -0.000000000  0.166666667

  Length of vectors
     0.039898179  0.039898179  0.039898179

  Shift w.r.t. Gamma in fractional coordinates (k-lattice)
     0.500000000  0.500000000  0.500000000

 TETIRR: Found    403 inequivalent tetrahedra from     5184

 Subroutine IBZKPT returns following result:

 Found     28 irreducible k-points:

 Following reciprocal coordinates:
            Coordinates               Weight
  0.083333  0.083333  0.083333      8.000000
  0.250000  0.083333  0.083333     24.000000
  0.416667  0.083333  0.083333     24.000000
 -0.416667  0.083333  0.083333     24.000000
 -0.250000  0.083333  0.083333     24.000000
 -0.083333  0.083333  0.083333     24.000000
  0.250000  0.250000  0.083333     24.000000
  0.416667  0.250000  0.083333     48.000000
 -0.416667  0.250000  0.083333     48.000000
 -0.250000  0.250000  0.083333     48.000000
 -0.083333  0.250000  0.083333     48.000000
  0.416667  0.416667  0.083333     24.000000
 -0.416667  0.416667  0.083333     48.000000
 -0.250000  0.416667  0.083333     48.000000
 -0.083333  0.416667  0.083333     48.000000
 -0.416667 -0.416667  0.083333     24.000000
 -0.250000 -0.416667  0.083333     48.000000
 -0.250000 -0.250000  0.083333     24.000000
  0.250000  0.250000  0.250000      8.000000
  0.416667  0.250000  0.250000     24.000000
 -0.416667  0.250000  0.250000     24.000000
 -0.250000  0.250000  0.250000     24.000000
  0.416667  0.416667  0.250000     24.000000
 -0.416667  0.416667  0.250000     48.000000
 -0.250000  0.416667  0.250000     48.000000
 -0.416667 -0.416667  0.250000     24.000000
  0.416667  0.416667  0.416667      8.000000
 -0.416667  0.416667  0.416667     24.000000

 Following cartesian coordinates:
            Coordinates               Weight
  0.011518  0.011518  0.011518      8.000000
 -0.011518  0.034553  0.034553     24.000000
 -0.034553  0.057588  0.057588     24.000000
  0.080623 -0.057588 -0.057588     24.000000
  0.057588 -0.034553 -0.034553     24.000000
  0.034553 -0.011518 -0.011518     24.000000
  0.011518  0.011518  0.057588     24.000000
 -0.011518  0.034553  0.080623     48.000000
  0.103659 -0.080623 -0.034553     48.000000
  0.080623 -0.057588 -0.011518     48.000000
  0.057588 -0.034553  0.011518     48.000000
  0.011518  0.011518  0.103659     24.000000
  0.126694 -0.103659 -0.011518     48.000000
  0.103659 -0.080623  0.011518     48.000000
  0.080623 -0.057588  0.034553     48.000000
  0.011518  0.011518 -0.126694     24.000000
 -0.011518  0.034553 -0.103659     48.000000
  0.011518  0.011518 -0.080623     24.000000
  0.034553  0.034553  0.034553      8.000000
  0.011518  0.057588  0.057588     24.000000
  0.126694 -0.057588 -0.057588     24.000000
  0.103659 -0.034553 -0.034553     24.000000
  0.034553  0.034553  0.080623     24.000000
  0.149729 -0.080623 -0.034553     48.000000
  0.126694 -0.057588 -0.011518     48.000000
  0.034553  0.034553 -0.149729     24.000000
  0.057588  0.057588  0.057588      8.000000
  0.172764 -0.057588 -0.057588     24.000000

 SYSTEM =  unknown system
 POSCAR =  Gd2 Co4

 Startparameter for this run:
   NWRITE =      2    write-flag & timer
   PREC   = accura    normal or accurate (medium, high low for compatibility)
   ISTART =      0    job   : 0-new  1-cont  2-samecut
   ICHARG =      2    charge: 1-file 2-atom 10-const
   ISPIN  =      2    spin polarized calculation?
   LNONCOLLINEAR =      F non collinear calculations
   LSORBIT =      F    spin-orbit coupling
   INIWAV =      1    electr: 0-lowe 1-rand  2-diag
   LASPH  =      T    aspherical Exc in radial PAW
 Electronic Relaxation 1
   ENCUT  =  520.0 eV  38.22 Ry    6.18 a.u.   9.51  9.51  9.51*2*pi/ulx,y,z
   ENINI  =  520.0     initial cutoff
   ENAUG  =  537.2 eV  augmentation charge cutoff
   NELM   =   1000;   NELMIN=  2; NELMDL= -5     # of ELM steps
   EDIFF  = 0.5E-04   stopping-criterion for ELM
   LREAL  =      T    real-space projection
[...]
  382            brsav                                 0.000131                       47   5
  383        m_bcast_d                             0.000018                            2   3
  384      potlok                                0.017840                              2   2
  385        fft3d_mpi                             0.012317                           36   3
  386          fftbrc_mpi                            0.010375                         36   4
  387            fftbas_plan_mpi                       0.010355                       36   5
  388              map_forward                           0.003067                     40   6
  389                map_gather                            0.001061                   24   7
  390                m_alltoallv_z                         0.000900                   24   7
  391                map_scatter                           0.000927                   24   7
  392              map_backward                          0.002559                     32   6
  393                map_gather                            0.000802                   16   7
  394                m_alltoallv_z                         0.000732                   16   7
  395                map_scatter                           0.000845                   16   7
  396              dfftw_execute                         0.003151                     30   6
  397        m_sumb_d                              0.000024                            5   3
  398        pothar                                0.000714                            2   3
  399          m_sumb_d                              0.000074                          2   4
  400        m_bcast_d                             0.001106                            4   3
  401      potlok_metagga                        0.000000                              1   2
  402      set_dd_magatom                        0.000005                              1   2
  403      set_dd_paw                            1.405225                              1   2
  404        m_sumb_d                              0.928350                            7   3
  405      augmentation_charge                   0.089316                              1   2
  406        fft3d_mpi                             0.016777                            2   3
  407          fftbrc_mpi                            0.014412                          2   4
  408            fftbas_plan_mpi                       0.014410                        2   5
  409              dfftw_execute                         0.009189                      6   6
  410              map_backward                          0.005077                      4   6
  411                map_gather                            0.001302                    2   7
  412                m_alltoallv_z                         0.002549                    2   7
  413                map_scatter                           0.001221                    2   7
  414      densta                                5.426012                              1   2

 Flat profile

 m_sumb_d                              256.607649       73663
 set_dd_paw                            121.512175         255
 raccmu_                                94.944243      205056
 eccp                                   88.078650     1141190
 w1_gemv                                68.532924     2919620
 i2                                     58.697142      196977
 densta                                 52.668284         258
 eccp_nl                                50.510615      925310
 phaser                                 30.132960       14756
 cnorma                                 24.529010      925310
 overl1                                 23.851173     1459810
 eddrmm                                 22.943236         252
 eddiag                                 22.926051         252
 setdij_                                18.690898         281
 augmentation_charge                    18.234240         254
 redis_pw                               18.054379      140574
 fft3d                                  15.950510     2249061
 m_alltoall_d                           14.122135     2442622
 w1_dscal                               13.288512     2219514
 fftwav                                 12.050320     1308634
 w1_gaxpy                               11.935483     2285091
 init_acc                               11.644683           1
 w1_copy                                11.589064     2186238
 apply_precond                          11.183803     2507683
 soft_charge                            10.549040         253
 hamilt_local                            8.455451      211680
 total_time                              7.950183           1
 setup_precond                           7.605579      215880
 w1_daxpy                                7.528842     1427274
 rpromu_acc                              7.347303      205728
 racc0mu_acc                             7.102057      205056
 dfftw_execute                           6.511388        6492
 w1_dot                                  5.888523      211676
 newband                                 5.712615      219448
 hamiltmu                                4.896561      205056
 zhegv                                   4.207672      501961
 kinhamil                                4.025888      940427
 vhamil                                  3.935321      940427
 fftext_mpi                              3.725157      940427
 redis_proj                              3.709652      137424
 eddav                                   3.604139           5
 pw_charge                               3.512655      134708
 depsum                                  3.475864         253
 lapack                                  3.419628        8079
 overl_mu                                3.097548      205056
 acc_init_cublas                         2.377866           1
 orthch                                  2.055565         253
 m_alltoallv_z                           1.975798        9809
 choleski                                1.936420       14168
 i3                                      1.783278      196977
 fftwav_mpi                              1.781026     1308634
 fft3d_mpi                               1.754826      949220
 set_charge                              1.332088         253
 map_gather                              0.986462        9809
 map_scatter                             0.983449        9809
 orth1                                   0.967833       80797
 acc_init_cusolver                       0.799010           1
 potlok                                  0.665933         255
 rpro_isp                                0.610686         364
 lincom                                  0.551842       28560
 broyd                                   0.540827         253
 overl                                   0.487006       54292
 elmin                                   0.419118           1
 fftbas_plan_mpi                         0.414527        8793
 m_bcast_z                               0.249660       11439
 i1                                      0.215442      196977
 w1_projall                              0.179263      202816
 rspher_all                              0.155641          14
 brget                                   0.152331       55800
 brmix                                   0.143349         253
 m_bcast_d                               0.137414       16673
 acc_cufft_makeplan                      0.123690          19
 setg0                                   0.118444         255
 ggemm                                   0.106848       10319
 truncate_high_frequency_w1              0.070502      944627
 sphpro_fast                             0.065708           2
 map_backward                            0.047676        9294
 map_forward                             0.046110        8292
 proall                                  0.046083           1
 brsav                                   0.041147       15952
 pothar                                  0.018927         256
 force_and_stress                        0.008738           1
 strnlr                                  0.007330           1
 fft_gq                                  0.006399         253
 inisym                                  0.004829           1
 fftbrc_mpi                              0.004797        8793
 brpre                                   0.004225         506
 fornlr                                  0.002536           1
 stufak                                  0.001961           1
 shift_bands_between_low_high            0.001745       14112
 set_dd_magatom                          0.001221         255
 strelo                                  0.001121           1
 vectorpot                               0.001081         254
 forhar                                  0.000874           2
 strehar                                 0.000783           1
 forloc                                  0.000494           1
 strkin                                  0.000374           1
 fewald                                  0.000366           1
 chggra                                  0.000212           1
 brgrid                                  0.000114           1
 rsp                                     0.000107           1
 fordep                                  0.000059           1
 posmap                                  0.000057           2
 crpa_reader                             0.000026           1
 potlok_metagga                          0.000021         254
 rcp                                     0.000016           1
 acc_cufft_makeplans                     0.000015           3
 rotate_active_occupied_orbital          0.000000           1
 redis_pw_over_bands                     0.000000           1
  summed up times     1213.330503940582

 Accumulative profile

 total_time                           1213.330504           1
 elmin                                1176.304734           1
 eddrmm                                601.851496         252
 set_dd_paw                            358.610662         255
 m_sumb_d                              256.607649       73663
 i2                                    206.723626      196977
 i3                                    164.533604      196977
 hamiltmu                              124.353503      205056
 raccmu_                               105.143848      205056
 w1_gemv                                92.384097     2919620
 eccp                                   88.078650     1141190
 cnorma                                 75.039625      925310
 eddiag                                 58.340778         252
 densta                                 52.668284         258
 eccp_nl                                50.510615      925310
 set_charge                             46.323395         253
 newband                                36.002444      219448
 phaser                                 30.132960       14756
 setdij_                                25.370389         281
 redis_pw                               24.457400      140574
 overl1                                 23.851173     1459810
 fftwav_mpi                             23.548442     1308634
 orthch                                 22.696770         253
 augmentation_charge                    22.630709         254
 fftwav                                 21.767417     1308634
 fft3d_mpi                              18.958448      949220
 soft_charge                            18.776520         253
 eddav                                  18.347423           5
 fft3d                                  15.950510     2249061
 kinhamil                               14.256729      940427
 m_alltoall_d                           14.122135     2442622
 w1_dscal                               13.288512     2219514
 hamilt_local                           12.334407      211680
 w1_gaxpy                               11.935483     2285091
 init_acc                               11.644683           1
 w1_copy                                11.589064     2186238
 redis_proj                             11.428766      137424
 apply_precond                          11.183803     2507683
 fftbrc_mpi                             10.970209        8793
 fftbas_plan_mpi                        10.965411        8793
 fftext_mpi                             10.230841      940427
 setup_precond                           7.605579      215880
 w1_daxpy                                7.528842     1427274
 rpromu_acc                              7.347303      205728
 racc0mu_acc                             7.102057      205056
 w1_projall                              7.036428      202816
 dfftw_execute                           6.511388        6492
 force_and_stress                        6.202535           1
 w1_dot                                  5.888523      211676
 zhegv                                   4.207672      501961
 vhamil                                  3.935321      940427
 pw_charge                               3.512655      134708
 depsum                                  3.495640         253
 lapack                                  3.419628        8079
 i1                                      3.397052      196977
 overl_mu                                3.097548      205056
 acc_init_cublas                         2.377866           1
 map_backward                            2.040947        9294
 map_forward                             1.998550        8292
 m_alltoallv_z                           1.975798        9809
 choleski                                1.936420       14168
 potlok                                  1.823785         255
 strnlr                                  1.677709           1
 rpro_isp                                1.426244         364
 brmix                                   1.079775         253
 map_gather                              0.986462        9809
 map_scatter                             0.983449        9809
 orth1                                   0.967833       80797
 broyd                                   0.805284         253
 acc_init_cusolver                       0.799010           1
 fornlr                                  0.565611           1
 lincom                                  0.551842       28560
 fordep                                  0.543815           1
 overl                                   0.487006       54292
 fft_gq                                  0.259545         253
 m_bcast_z                               0.249660       11439
 rspher_all                              0.155641          14
 brget                                   0.152331       55800
 proall                                  0.148444           1
 m_bcast_d                               0.137414       16673
 acc_cufft_makeplans                     0.123705           3
 acc_cufft_makeplan                      0.123690          19
 setg0                                   0.118444         255
 ggemm                                   0.106848       10319
 truncate_high_frequency_w1              0.070502      944627
 sphpro_fast                             0.067570           2
 brsav                                   0.041147       15952
 pothar                                  0.021053         256
 inisym                                  0.004886           1
 fewald                                  0.004282           1
 brpre                                   0.004225         506
 stufak                                  0.001961           1
 shift_bands_between_low_high            0.001745       14112
 set_dd_magatom                          0.001221         255
 strelo                                  0.001155           1
 vectorpot                               0.001081         254
 forhar                                  0.000898           2
 strehar                                 0.000838           1
 chggra                                  0.000730           1
 forloc                                  0.000510           1
 strkin                                  0.000379           1
 brgrid                                  0.000114           1
 rsp                                     0.000107           1
 posmap                                  0.000057           2
 crpa_reader                             0.000026           1
 potlok_metagga                          0.000021         254
 rcp                                     0.000016           1
 rotate_active_occupied_orbital          0.000000           1
 redis_pw_over_bands                     0.000000           1

Profiling took   3.534383  2.498762  0.003312  0.003235 seconds
Profiling took   2.878238 seconds