 vasp.6.3.2 27Jun22 (build Jul  3 2023 11:46:21) complex
 executed on    LinuxNV_CrayMPICH date 2024.04.19  12:22:56

 INCAR:
   ADDGRID = True
   ALGO = Normal
   EDIFF = 0.0003
   ENCUT = 520.0
   IBRION = -1
   ICHARG = 0
   ISIF = 3
   ISMEAR = -5
   ISPIN = 2
   KPOINT_BSE = -1 0 0 0
   LAECHG = True
   LASPH = True
   LCHARG = True
   LELF = True
   LORBIT = 11
   LREAL = Auto
   LVHAR = True
   LWAVE = False
   MAGMOM = 2*7.0 4*5.0
   NELM = 1000
   NSW = 0
   PREC = accurate
   SIGMA = 0.05

 POTCAR:    PAW_PBE Gd 23Dec2003
 POTCAR:    PAW_PBE Co 02Aug2007
 POTCAR:    PAW_PBE Gd 23Dec2003
   VRHFIN =Gd : [core=Xe4]

   TITEL  = PAW_PBE Gd 23Dec2003
   POMASS =  157.250; ZVAL   =   18.000    mass and valenz
   ENMAX  =  256.472; ENMIN  =  192.354 eV

   TITEL  = PAW_PBE Co 02Aug2007
   POMASS =   58.933; ZVAL   =    9.000    mass and valenz
   ENMAX  =  267.968; ENMIN  =  200.976 eV

 Optimization of the real space projectors (new method)

 maximal supplied QI-value         = 13.42
 optimisation between [QCUT,QGAM] = [ 11.67, 23.35] = [ 38.16,152.62] Ry
 Optimized for a Real-space Cutoff    1.63 Angstroem

   l    n(q)    QCUT    max X(q) W(low)/X(q) W(high)/X(q)  e(spline)
   0     11    11.673    10.501    0.14E-04    0.17E-05    0.21E-07
   0     11    11.673     9.148    0.21E-04    0.32E-05    0.45E-07
   1     11    11.673     4.035    0.33E-05    0.11E-04    0.84E-07
   1     11    11.673     4.388    0.11E-04    0.47E-04    0.34E-06
   2     10    11.673    20.656    0.12E-04    0.28E-04    0.54E-06
   2     10    11.673    12.651    0.11E-04    0.26E-04    0.51E-06
   3     10    11.673    61.921    0.19E-03    0.22E-03    0.23E-06
   3     10    11.673    48.328    0.20E-03    0.23E-03    0.23E-06
 Optimization of the real space projectors (new method)

 maximal supplied QI-value         = 16.25
 optimisation between [QCUT,QGAM] = [ 11.54, 23.24] = [ 37.28,151.24] Ry
 Optimized for a Real-space Cutoff    1.45 Angstroem

   l    n(q)    QCUT    max X(q) W(low)/X(q) W(high)/X(q)  e(spline)
   2      9    11.539    65.824    0.19E-03    0.47E-04    0.16E-06
   2      9    11.539    61.429    0.20E-03    0.48E-04    0.16E-06
   0     10    11.539    56.174    0.76E-04    0.45E-04    0.23E-06
   0     10    11.539    31.263    0.69E-04    0.41E-04    0.21E-06
   1     10    11.539    19.828    0.78E-04    0.14E-03    0.70E-07
   1     10    11.539    15.139    0.65E-04    0.12E-03    0.64E-07
  PAW_PBE Gd 23Dec2003                  :
  PAW_PBE Co 02Aug2007                  :

 POSCAR: Gd2 Co4
  positions in direct lattice
 exchange correlation table for  LEXCH =        8
   RHO(1)=    0.500       N(1)  =     2000
   RHO(2)=  100.500       N(2)  =     4000

 VTST: version 4.2, (08/11/21)

 CHAIN: initializing optimizer

 OPT: Using VASP Dynamics algorithm
 CHAIN: Read ICHAIN             0

 POSCAR: Gd2 Co4
  positions in direct lattice

 ion  position               nearest neighbor table
   1  0.250  0.250  0.250-   3 3.00   3 3.00   4 3.00   4 3.00   5 3.00   6 3.00   3 3.00   5 3.00
                             6 3.00   4 3.00   5 3.00   6 3.00   2 3.13   2 3.13   2 3.13   2 3.13
   2  0.000  0.000  0.000-   3 3.00   4 3.00   3 3.00   6 3.00   5 3.00   6 3.00   4 3.00   5 3.00
                             6 3.00   3 3.00   4 3.00   5 3.00   1 3.13   1 3.13   1 3.13   1 3.13
   3  0.625  0.625  0.125-   6 2.56   4 2.56   5 2.56   6 2.56   4 2.56   5 2.56   2 3.00   1 3.00
                             2 3.00   1 3.00   1 3.00   2 3.00
   4  0.625  0.125  0.625-   6 2.56   3 2.56   3 2.56   5 2.56   6 2.56   5 2.56   2 3.00   1 3.00
                             1 3.00   2 3.00   1 3.00   2 3.00
   5  0.125  0.625  0.625-   6 2.56   3 2.56   4 2.56   3 2.56   4 2.56   6 2.56   1 3.00   2 3.00
                             1 3.00   2 3.00   1 3.00   2 3.00
   6  0.625  0.625  0.625-   3 2.56   4 2.56   5 2.56   3 2.56   4 2.56   5 2.56   2 3.00   1 3.00
                             2 3.00   1 3.00   2 3.00   1 3.00

  LATTYP: Found a face centered cubic cell.
 ALAT       =     7.2352960000

  Lattice vectors:

 A1 = (   0.0000000000,   3.6176480000,   3.6176480000)
 A2 = (   3.6176480000,   0.0000000000,   3.6176480000)
 A3 = (   3.6176480000,   3.6176480000,   0.0000000000)

Analysis of symmetry for initial positions (statically):
 Subroutine PRICEL returns:
 Original cell was already a primitive cell.

 Routine SETGRP: Setting up the symmetry group for a
 face centered cubic supercell.

 Subroutine GETGRP returns: Found 48 space group operations
 (whereof 24 operations were pure point group operations)
 out of a pool of 48 trial point group operations.

The static configuration has the point symmetry T_d .
 The point group associated with its full space group is O_h .

Analysis of symmetry for dynamics (positions and initial velocities):
 Subroutine PRICEL returns:
 Original cell was already a primitive cell.

[...]

The dynamic configuration has the point symmetry T_d .
 The point group associated with its full space group is O_h .

Analysis of structural, dynamic, and magnetic symmetry:
 Subroutine PRICEL returns:
 Original cell was already a primitive cell.

 Routine SETGRP: Setting up the symmetry group for a
 face centered cubic supercell.

 Subroutine GETGRP returns: Found 48 space group operations
 (whereof 24 operations were pure point group operations)
 out of a pool of 48 trial point group operations.

The overall configuration has the point symmetry T_d .
 The point group associated with its full space group is O_h .

 Subroutine INISYM returns: Found 48 space group operations
 (whereof 24 operations are pure point group operations),
 and found     1 'primitive' translations

                                     Primitive cell

  volume of cell :      94.6910

  direct lattice vectors                    reciprocal lattice vectors
     0.000000000  3.617648000  3.617648000    -0.138211346  0.138211346  0.138211346
     3.617648000  0.000000000  3.617648000     0.138211346 -0.138211346  0.138211346
     3.617648000  3.617648000  0.000000000     0.138211346  0.138211346 -0.138211346

  length of vectors
     5.116126865  5.116126865  5.116126865     0.239389074  0.239389074  0.239389074

  position of ions in fractional coordinates (direct lattice)
     0.250000000  0.250000000  0.250000000
     0.000000000  0.000000000  0.000000000
     0.625000000  0.625000000  0.125000000
     0.625000000  0.125000000  0.625000000
     0.125000000  0.625000000  0.625000000
     0.625000000  0.625000000  0.625000000

  ion indices of the primitive-cell ions
   primitive index   ion index
                 1           1
                 2           2
                 3           3
                 4           4
                 5           5
                 6           6

 KPOINTS: Kpoints from vasprun.xml

Automatic generation of k-mesh.
 Grid dimensions read from file:
 generate k-points for:    6    6    6

 Generating k-lattice:

  Cartesian coordinates                     Fractional coordinates (reciprocal lattice)
    -0.023035224  0.023035224  0.023035224     0.166666667  0.000000000  0.000000000
     0.023035224 -0.023035224  0.023035224     0.000000000  0.166666667 -0.000000000
     0.023035224  0.023035224 -0.023035224    -0.000000000 -0.000000000  0.166666667

  Length of vectors
     0.039898179  0.039898179  0.039898179

  Shift w.r.t. Gamma in fractional coordinates (k-lattice)
     0.000000000  0.000000000  0.000000000

 TETIRR: Found     35 inequivalent tetrahedra from     1296

 Subroutine IBZKPT returns following result:

 Found     16 irreducible k-points:

 Following reciprocal coordinates:
            Coordinates               Weight
  0.000000  0.000000  0.000000      1.000000
  0.166667  0.000000  0.000000      8.000000
  0.333333  0.000000  0.000000      8.000000
  0.500000  0.000000  0.000000      4.000000
  0.166667  0.166667  0.000000      6.000000
  0.333333  0.166667  0.000000     24.000000
  0.500000  0.166667  0.000000     24.000000
 -0.333333  0.166667  0.000000     24.000000
 -0.166667  0.166667  0.000000     12.000000
  0.333333  0.333333  0.000000      6.000000
  0.500000  0.333333  0.000000     24.000000
 -0.333333  0.333333  0.000000     12.000000
  0.500000  0.500000  0.000000      3.000000
  0.500000  0.333333  0.166667     24.000000
 -0.333333  0.333333  0.166667     24.000000
 -0.333333  0.500000  0.166667     12.000000

 Following cartesian coordinates:
            Coordinates               Weight
  0.000000  0.000000  0.000000      1.000000
 -0.023035  0.023035  0.023035      8.000000
 -0.046070  0.046070  0.046070      8.000000
 -0.069106  0.069106  0.069106      4.000000
  0.000000  0.000000  0.046070      6.000000
 -0.023035  0.023035  0.069106     24.000000
 -0.046070  0.046070  0.092141     24.000000
  0.069106 -0.069106 -0.023035     24.000000
  0.046070 -0.046070  0.000000     12.000000
  0.000000  0.000000  0.092141      6.000000
 -0.023035  0.023035  0.115176     24.000000
  0.092141 -0.092141  0.000000     12.000000
  0.000000  0.000000  0.138211      3.000000
  0.000000  0.046070  0.092141     24.000000
  0.115176 -0.069106 -0.023035     24.000000
  0.138211 -0.092141  0.000000     12.000000

 SYSTEM =  unknown system
 POSCAR =  Gd2 Co4

 Startparameter for this run:
   NWRITE =      2    write-flag & timer
   PREC   = accura    normal or accurate (medium, high low for compatibility)
   ISTART =      0    job   : 0-new  1-cont  2-samecut
   ICHARG =      0    charge: 1-file 2-atom 10-const
   ISPIN  =      2    spin polarized calculation?
   LNONCOLLINEAR =      F non collinear calculations
   LSORBIT =      F    spin-orbit coupling
   INIWAV =      1    electr: 0-lowe 1-rand  2-diag
   LASPH  =      T    aspherical Exc in radial PAW
 Electronic Relaxation 1
   ENCUT  =  520.0 eV  38.22 Ry    6.18 a.u.   9.51  9.51  9.51*2*pi/ulx,y,z
   ENINI  =  520.0     initial cutoff
   ENAUG  =  537.2 eV  augmentation charge cutoff
   NELM   =   1000;   NELMIN=  2; NELMDL= -5     # of ELM steps
   EDIFF  = 0.3E-03   stopping-criterion for ELM
   LREAL  =      T    real-space projection
   NLSPLINE    = F    spline interpolate recip. space projectors
   LCOMPAT=      F    compatible to vasp.4.4
   GGA_COMPAT  = T    GGA compatible to vasp.4.4-vasp.4.6
   LMAXPAW     = -100 max onsite density
   LMAXMIX     =    2 max onsite mixed and CHGCAR
   VOSKOWN=      0    Vosko Wilk Nusair interpolation
   ROPT   =   -0.00025  -0.00025
 Ionic relaxation
   EDIFFG = 0.3E-02   stopping-criterion for IOM
   NSW    =      0    number of steps for IOM
   NBLOCK =      1;   KBLOCK =      1    inner block; outer block
   IBRION =     -1    ionic relax: 0-MD 1-quasi-New 2-CG
   NFREE  =      0    steps in history (QN), initial steepest desc. (CG)
   ISIF   =      3    stress and relaxation
   IWAVPR =     10    prediction:  0-non 1-charg 2-wave 3-comb
   ISYM   =      2    0-nonsym 1-usesym 2-fastsym
   LCORR  =      T    Harris-Foulkes like correction to forces

   POTIM  = 0.5000    time-step for ionic-motion
   TEIN   =    0.0    initial temperature
   TEBEG  =    0.0;   TEEND  =   0.0 temperature during run
   SMASS  =  -3.00    Nose mass-parameter (am)
[...]
  318                map_forward                           0.000163                    4   7
  319                  map_gather                            0.000041                  2   8
  320                  m_alltoallv_z                         0.000025                  2   8
  321                  map_scatter                           0.000068                  2   8
  322                map_backward                          0.000078                    2   7
  323                  map_gather                            0.000019                  1   8
  324                  m_alltoallv_z                         0.000011                  1   8
  325                  map_scatter                           0.000032                  1   8
  326          m_sumb_d                              0.000015                          2   4
  327          pothar                                0.000078                          1   4
  328            m_sumb_d                              0.000009                        1   5
  329        brmix                                 0.004453                            1   3
  330          m_sumb_d                              0.000044                          6   4
  331          brpre                                 0.000016                          2   4
  332          setg0                                 0.000469                          1   4
  333          broyd                                 0.003339                          1   4
  334            m_sumb_d                              0.000314                       49   5
  335            brget                                 0.000605                      219   5
  336            brsav                                 0.000130                       47   5
  337        m_bcast_d                             0.000018                            2   3
  338      potlok                                0.017848                              2   2
  339        fft3d_mpi                             0.012325                           36   3
  340          fftbrc_mpi                            0.010382                         36   4
  341            fftbas_plan_mpi                       0.010362                       36   5
  342              map_forward                           0.003059                     40   6
  343                map_gather                            0.001076                   24   7
  344                m_alltoallv_z                         0.000906                   24   7
  345                map_scatter                           0.000903                   24   7
  346              map_backward                          0.002497                     32   6
  347                map_gather                            0.000845                   16   7
  348                m_alltoallv_z                         0.000679                   16   7
  349                map_scatter                           0.000795                   16   7
  350              dfftw_execute                         0.003197                     30   6
  351        m_sumb_d                              0.000027                            5   3
  352        pothar                                0.000680                            2   3
  353          m_sumb_d                              0.000041                          2   4
  354        m_bcast_d                             0.001091                            4   3
  355      potlok_metagga                        0.000000                              1   2
  356      set_dd_magatom                        0.000005                              1   2
  357      set_dd_paw                            1.411652                              1   2
  358        m_sumb_d                              0.940795                            7   3
  359      augmentation_charge                   0.087691                              1   2
  360        fft3d_mpi                             0.017126                            2   3
  361          fftbrc_mpi                            0.014360                          2   4
  362            fftbas_plan_mpi                       0.014357                        2   5
  363              dfftw_execute                         0.008961                      6   6
  364              map_backward                          0.005246                      4   6
  365                map_gather                            0.001326                    2   7
  366                m_alltoallv_z                         0.002676                    2   7
  367                map_scatter                           0.001237                    2   7
  368      fftwav_mpi                            0.634333                           1440   2
  369        fftwav                                0.632576                         1440   3
  370          fft3d                                 0.604398                       1440   4
  371      densta                                0.471888                              1   2

 Flat profile

 m_sumb_d                              112.408826      301387
 set_dd_paw                             44.813515          95
 eddav                                  43.462555          97
 lapack                                 42.306604       96866
 raccmu_                                36.124545       96866
 redis_pw                               18.655233      498881
 init_acc                               11.663454           1
 m_alltoall_d                            9.083318     1307021
 setdij_                                 8.046009         121
 total_time                              7.738645           1
 augmentation_charge                     6.836738          95
 phaser                                  6.745745        3312
 fft3d                                   4.671007      529185
 redis_proj                              4.115335      632076
 eccp                                    4.019744       46560
 fftwav                                  3.218261      349462
 orth1                                   3.067858      290662
 racc0mu_acc                             2.738327       96866
 dfftw_execute                           2.702120        2724
 w1_copy                                 2.633648      539169
 overl                                   2.579247      312918
 acc_init_cublas                         2.440650           1
 rpromu_acc                              2.276357       73698
 soft_charge                             2.231525          94
 hamiltmu                                2.151204       96866
 densta                                  2.102861          98
 m_bcast_z                               1.990089       98786
 setup_precond                           1.672724       46560
 m_bcast_d                               1.556074      193927
 overl_mu                                1.454251       96866
 ggemm                                   1.275845      121698
 m_alltoallv_z                           0.917567        3775
 vhamil                                  0.827585      179723
 kinhamil                                0.813380      179723
 acc_init_cusolver                       0.788753           1
 fftext_mpi                              0.761627      179723
 newband                                 0.753946       99970
 pw_charge                               0.748836       28896
 depsum                                  0.730173          94
 apply_precond                           0.729341      133163
 fft3d_mpi                               0.633957      183100
 set_charge                              0.487520          94
 fftwav_mpi                              0.455755      349462
 map_gather                              0.404494        3775
 map_scatter                             0.396346        3775
 rpro_isp                                0.346737         208
 potlok                                  0.253409          95
 fftbas_plan_mpi                         0.175934        3377
 broyd                                   0.162769          93
 elmin                                   0.155773           1
 rspher_all                              0.153109          14
 acc_cufft_makeplan                      0.121828          19
 lincom                                  0.113718        3136
 w1_projall                              0.071007       72034
 brmix                                   0.051422          93
 brget                                   0.045355       17016
 setg0                                   0.043458          95
 proall                                  0.043192           1
 sphpro_fast                             0.039863           2
 map_backward                            0.017983        3554
 map_forward                             0.017249        3200
 truncate_high_frequency_w1              0.017053      226283
 brsav                                   0.011980        4656
 force_and_stress                        0.009159           1
 orthch                                  0.008741           1
 choleski                                0.007968          32
 pothar                                  0.007395          96
 inisym                                  0.004834           1
 strnlr                                  0.004412           1
 fft_gq                                  0.002506          94
 stufak                                  0.002075           1
 fftbrc_mpi                              0.001994        3377
 brpre                                   0.001622         186
 fornlr                                  0.001517           1
 strelo                                  0.001135           1
 forhar                                  0.000886           2
 strehar                                 0.000834           1
 forloc                                  0.000491           1
 set_dd_magatom                          0.000455          95
 vectorpot                               0.000402          94
 fewald                                  0.000337           1
 chggra                                  0.000246           1
 strkin                                  0.000231           1
 brgrid                                  0.000108           1
 rsp                                     0.000098           1
 fordep                                  0.000058           1
 posmap                                  0.000056           2
 crpa_reader                             0.000027           1
 rcp                                     0.000021           1
 acc_cufft_makeplans                     0.000011           3
 potlok_metagga                          0.000008          94
 rotate_active_occupied_orbital          0.000001           1
 redis_pw_over_bands                     0.000000           1
  summed up times     408.1310560703278

 Accumulative profile

 total_time                            408.131056           1
 elmin                                 376.468842           1
 eddav                                 220.308046          97
 set_dd_paw                            134.174567          95
 m_sumb_d                              112.408826      301387
 hamiltmu                               46.207618       96866
 lapack                                 42.306604       96866
 raccmu_                                40.317122       96866
 redis_pw                               23.137414      498881
 set_charge                             13.893178          94
 init_acc                               11.663454           1
 setdij_                                10.966156         121
 newband                                 9.810632       99970
 m_alltoall_d                            9.083318     1307021
 redis_proj                              8.716473      632076
 augmentation_charge                     8.488721          95
 fftwav_mpi                              7.062475      349462
 phaser                                  6.745745        3312
 fftwav                                  6.606720      349462
 fft3d_mpi                               6.550191      183100
 force_and_stress                        5.264592           1
 fft3d                                   4.671007      529185
 fftbrc_mpi                              4.633687        3377
 fftbas_plan_mpi                         4.631693        3377
 soft_charge                             4.191687          94
 eccp                                    4.019744       46560
 orth1                                   3.067858      290662
 kinhamil                                2.911707      179723
 racc0mu_acc                             2.738327       96866
 dfftw_execute                           2.702120        2724
 w1_copy                                 2.633648      539169
 overl                                   2.579247      312918
 acc_init_cublas                         2.440650           1
 rpromu_acc                              2.276357       73698
 densta                                  2.102861          98
 fftext_mpi                              2.098327      179723
 w1_projall                              2.068498       72034
 m_bcast_z                               1.990089       98786
 setup_precond                           1.672724       46560
 m_bcast_d                               1.556074      193927
 overl_mu                                1.454251       96866
 ggemm                                   1.275845      121698
 strnlr                                  0.991661           1
 map_forward                             0.923493        3200
 m_alltoallv_z                           0.917567        3775
 map_backward                            0.830146        3554
 vhamil                                  0.827585      179723
 rpro_isp                                0.810616         208
 acc_init_cusolver                       0.788753           1
 potlok                                  0.772404          95
 pw_charge                               0.748836       28896
 depsum                                  0.740741          94
 apply_precond                           0.729341      133163
 fordep                                  0.545666           1
 map_gather                              0.404494        3775
 map_scatter                             0.396346        3775
 brmix                                   0.342767          93
 fornlr                                  0.331766           1
 broyd                                   0.242957          93
 orthch                                  0.226168           1
 rspher_all                              0.153109          14
 acc_cufft_makeplans                     0.121839           3
 acc_cufft_makeplan                      0.121828          19
 lincom                                  0.113718        3136
 proall                                  0.102251           1
 fft_gq                                  0.096846          94
 brget                                   0.045355       17016
 setg0                                   0.043458          95
 sphpro_fast                             0.041085           2
 truncate_high_frequency_w1              0.017053      226283
 brsav                                   0.011980        4656
 pothar                                  0.008186          96
 choleski                                0.007968          32
 inisym                                  0.004890           1
 stufak                                  0.002075           1
 brpre                                   0.001622         186
 strelo                                  0.001146           1
 forhar                                  0.000910           2
 strehar                                 0.000845           1
 chggra                                  0.000768           1
 fewald                                  0.000516           1
 forloc                                  0.000508           1
 set_dd_magatom                          0.000455          95
 vectorpot                               0.000402          94
 strkin                                  0.000246           1
 brgrid                                  0.000108           1
 rsp                                     0.000098           1
 posmap                                  0.000056           2
 crpa_reader                             0.000027           1
 rcp                                     0.000021           1
 potlok_metagga                          0.000008          94
 rotate_active_occupied_orbital          0.000001           1
 redis_pw_over_bands                     0.000000           1

Profiling took   1.121961  0.556894  0.003308  0.003204 seconds
Profiling took   0.708364 seconds