 vasp.6.3.2 27Jun22 (build Jul  3 2023 11:46:21) complex
 executed on    LinuxNV_CrayMPICH date 2024.04.22  03:28:49

 INCAR:
   ALGO = Fast
   EDIFF = 2.1e-05
   EFIELD_PEAD = 0.0 0.0 0.0
   ENCUT = 520.0
   IBRION = -1
   ICHARG = 0
   ISIF = 3
   ISMEAR = -5
   ISPIN = 2
   ISYM = 0
   LAECHG = True
   LCALCEPS = False
   LCALCPOL = False
   LCHARG = True
   LDAU = False
   LEFG = False
   LORBIT = 11
   LPEAD = False
   LREAL = Auto
   LWAVE = False
   MAGMOM = 1*7.0 20*0.6
   NELM = 1000
   NGX = 82
   NGY = 82
   NSW = 0
   PREC = accurate
   SIGMA = 0.2

 POTCAR:    PAW_PBE Eu 23Dec2003
 POTCAR:    PAW_PBE Ba_sv 06Sep2000
 POTCAR:    PAW_PBE Cl 06Sep2000
 POTCAR:    PAW_PBE F 08Apr2002
 POTCAR:    PAW_PBE Eu 23Dec2003
   VRHFIN =Eu : [core=Kr4d]

   TITEL  = PAW_PBE Eu 23Dec2003
   POMASS =  151.965; ZVAL   =   17.000    mass and valenz
   ENMAX  =  249.668; ENMIN  =  187.251 eV

   TITEL  = PAW_PBE Ba_sv 06Sep2000
   POMASS =  137.327; ZVAL   =   10.000    mass and valenz
   ENMAX  =  187.181; ENMIN  =  140.386 eV

   TITEL  = PAW_PBE Cl 06Sep2000
   POMASS =   35.453; ZVAL   =    7.000    mass and valenz
   ENMAX  =  262.472; ENMIN  =  196.854 eV

   TITEL  = PAW_PBE F 08Apr2002
   POMASS =   18.998; ZVAL   =    7.000    mass and valenz
   ENMAX  =  400.000; ENMIN  =  300.000 eV

 Optimization of the real space projectors (new method)

 maximal supplied QI-value         = 13.42
 optimisation between [QCUT,QGAM] = [ 11.67, 23.35] = [ 38.16,152.62] Ry
 Optimized for a Real-space Cutoff    1.63 Angstroem

   l    n(q)    QCUT    max X(q) W(low)/X(q) W(high)/X(q)  e(spline)
   0     11    11.673    10.400    0.14E-04    0.18E-05    0.24E-07
   0     11    11.673    10.768    0.21E-04    0.32E-05    0.49E-07
   1     11    11.673     4.094    0.40E-05    0.13E-04    0.93E-07
   1     11    11.673     4.009    0.11E-04    0.46E-04    0.33E-06
   2     10    11.673    29.030    0.79E-04    0.60E-04    0.70E-06
   2     10    11.673    19.941    0.80E-04    0.60E-04    0.71E-06
   3     10    11.673    88.889    0.23E-03    0.29E-03    0.30E-06
   3     10    11.673    76.102    0.23E-03    0.30E-03    0.30E-06
 Optimization of the real space projectors (new method)

[...]

   l    n(q)    QCUT    max X(q) W(low)/X(q) W(high)/X(q)  e(spline)
   0      8    11.508   168.010    0.86E-04    0.17E-03    0.49E-07
   0      8    11.508   164.674    0.84E-04    0.16E-03    0.48E-07
   1      8    11.508    69.222    0.18E-03    0.70E-04    0.97E-07
   1      8    11.508    56.786    0.18E-03    0.67E-04    0.95E-07
 Optimization of the real space projectors (new method)

 maximal supplied QI-value         = 24.76
 optimisation between [QCUT,QGAM] = [ 11.64, 23.27] = [ 37.91,151.63] Ry
 Optimized for a Real-space Cutoff    1.04 Angstroem

   l    n(q)    QCUT    max X(q) W(low)/X(q) W(high)/X(q)  e(spline)
   0      7    11.635    14.049    0.77E-04    0.36E-03    0.13E-06
   0      7    11.635     8.945    0.12E-03    0.48E-03    0.17E-06
   1      7    11.635     7.086    0.24E-03    0.44E-03    0.21E-06
   1      7    11.635     6.747    0.23E-03    0.35E-03    0.19E-06
  PAW_PBE Eu 23Dec2003                  :
  PAW_PBE Ba_sv 06Sep2000               :
  PAW_PBE Cl 06Sep2000                  :
  PAW_PBE F 08Apr2002                   :

 POSCAR: Ba6 Eu1 Cl2 F12
  positions in direct lattice
 exchange correlation table for  LEXCH =        8
   RHO(1)=    0.500       N(1)  =     2000
   RHO(2)=  100.500       N(2)  =     4000

 VTST: version 4.2, (08/11/21)

 CHAIN: initializing optimizer

 OPT: Using VASP Dynamics algorithm
 CHAIN: Read ICHAIN             0

 POSCAR: Ba6 Eu1 Cl2 F12
  positions in direct lattice

 ion  position               nearest neighbor table
   1  0.000  0.000  0.000-  10 2.42  18 2.42  21 2.42   2 3.90   4 3.90   3 3.90
   2  0.109  0.407  0.000-  10 2.62  19 2.65  19 2.65  14 2.65  13 2.69  20 3.01  20 3.01   8 3.35
                             8 3.35   1 3.90   5 4.34   5 4.34   6 4.40   6 4.40   7 4.43   7 4.43
   3  0.298  0.891  0.000-  18 2.62  17 2.65  17 2.65  13 2.65  16 2.69  11 3.01  11 3.01   8 3.35
                             8 3.35   1 3.90   7 4.34   7 4.34   5 4.40   5 4.40   6 4.43   6 4.43
   4  0.593  0.702  0.000-  21 2.62  15 2.65  15 2.65  16 2.65  14 2.69  12 3.01  12 3.01   8 3.35
                             8 3.35   1 3.90   6 4.34   6 4.34   7 4.40   7 4.40   5 4.43   5 4.43
   5  0.715  0.111  0.500-  10 2.68  10 2.68  17 2.71  12 2.71  16 2.73  16 2.73  19 2.74   9 3.40
                             9 3.40   2 4.34   2 4.34   3 4.40   3 4.40   4 4.43   4 4.43   7 4.62
   6  0.889  0.603  0.500-  21 2.68  21 2.68  19 2.71  11 2.71  13 2.73  13 2.73  15 2.74   9 3.40
                             9 3.40   4 4.34   4 4.34   2 4.40   2 4.40   3 4.43   3 4.43   5 4.62
   7  0.397  0.285  0.500-  18 2.68  18 2.68  15 2.71  20 2.71  14 2.73  14 2.73  17 2.74   9 3.40
                             9 3.40   3 4.34   3 4.34   4 4.40   4 4.40   2 4.43   2 4.43   5 4.62
   8  0.333  0.667  0.500-   3 3.35   3 3.35   2 3.35   2 3.35   4 3.35   4 3.35
   9  0.667  0.333  0.000-   5 3.40   5 3.40   7 3.40   7 3.40   6 3.40   6 3.40
  10  0.884  0.145  0.000-   1 2.42   2 2.62   5 2.68   5 2.68
  11  0.095  0.887  0.500-   6 2.71   3 3.01   3 3.01
  12  0.792  0.905  0.500-   5 2.71   4 3.01   4 3.01
  13  0.063  0.632  0.000-   3 2.65   2 2.69   6 2.73   6 2.73
  14  0.368  0.431  0.000-   2 2.65   4 2.69   7 2.73   7 2.73
  15  0.614  0.563  0.500-   4 2.65   4 2.65   7 2.71   6 2.74
  16  0.569  0.937  0.000-   4 2.65   3 2.69   5 2.73   5 2.73
  17  0.437  0.051  0.500-   3 2.65   3 2.65   5 2.71   7 2.74
  18  0.261  0.116  0.000-   1 2.42   3 2.62   7 2.68   7 2.68
  19  0.949  0.386  0.500-   2 2.65   2 2.65   6 2.71   5 2.74
  20  0.113  0.208  0.500-   7 2.71   2 3.01   2 3.01
  21  0.855  0.739  0.000-   1 2.42   4 2.62   6 2.68   6 2.68

IMPORTANT INFORMATION: All symmetrisations will be switched off!
NOSYMM: (Re-)initialisation of all symmetry stuff for point group C_1.

                                     Primitive cell

  volume of cell :     417.0542

  direct lattice vectors                    reciprocal lattice vectors
     5.343687000 -9.255537000  0.000000000     0.093568355 -0.054021717  0.000000000
     5.343687000  9.255537000  0.000000000     0.093568355  0.054021717 -0.000000000
     0.000000000  0.000000000  4.216187000    -0.000000000  0.000000000  0.237181131

  length of vectors
    10.687373668 10.687373668  4.216187000     0.108043431  0.108043431  0.237181131

  position of ions in fractional coordinates (direct lattice)
     0.000000000  0.000000000  0.000000000
     0.108757000  0.406695000  0.000000000
     0.297939000  0.891243000  0.000000000
     0.593305000  0.702061000  0.000000000
     0.714973000  0.111497000  0.500000000
     0.888503000  0.603475000  0.500000000
     0.396525000  0.285027000  0.500000000
     0.333333000  0.666667000  0.500000000
     0.666667000  0.333333000  0.000000000
     0.884400000  0.145155000  0.000000000
     0.095366000  0.886963000  0.500000000
     0.791597000  0.904634000  0.500000000
     0.062729000  0.631848000  0.000000000
     0.368152000  0.430881000  0.000000000
     0.614208000  0.563013000  0.500000000
     0.569119000  0.937271000  0.000000000
     0.436987000  0.051195000  0.500000000
     0.260755000  0.115600000  0.000000000
     0.948805000  0.385792000  0.500000000
     0.113037000  0.208403000  0.500000000
     0.854845000  0.739245000  0.000000000

  ion indices of the primitive-cell ions
   primitive index   ion index
                 1           1
                 2           2
                 3           3
                 4           4
                 5           5
                 6           6
                 7           7
                 8           8
                 9           9
                10          10
                11          11
                12          12
                13          13
                14          14
                15          15
                16          16
                17          17
                18          18
                19          19
                20          20
                21          21

 KPOINTS: Kpoints from vasprun.xml

Automatic generation of k-mesh.
 Grid dimensions read from file:
 generate k-points for:    4    4    8

 Generating k-lattice:

  Cartesian coordinates                     Fractional coordinates (reciprocal lattice)
     0.023392089 -0.013505429  0.000000000     0.250000000 -0.000000000  0.000000000
     0.023392089  0.013505429 -0.000000000    -0.000000000  0.250000000  0.000000000
    -0.000000000  0.000000000  0.029647641     0.000000000  0.000000000  0.125000000

  Length of vectors
     0.027010858  0.027010858  0.029647641

  Shift w.r.t. Gamma in fractional coordinates (k-lattice)
     0.000000000  0.000000000  0.000000000

 TETIRR: Found    384 inequivalent tetrahedra from      768

 Subroutine IBZKPT returns following result:

 Found     68 irreducible k-points:

 Following reciprocal coordinates:
            Coordinates               Weight
  0.000000  0.000000  0.000000      1.000000
  0.250000  0.000000  0.000000      2.000000
  0.000000  0.250000  0.000000      2.000000
 -0.250000  0.250000  0.000000      2.000000
  0.500000  0.000000  0.000000      1.000000
  0.000000  0.500000  0.000000      1.000000
  0.500000  0.500000  0.000000      1.000000
  0.250000  0.250000  0.000000      2.000000
 -0.250000  0.500000  0.000000      2.000000
  0.500000  0.250000  0.000000      2.000000
  0.000000  0.000000  0.125000      2.000000
  0.250000  0.000000  0.125000      2.000000
  0.000000  0.250000  0.125000      2.000000
 -0.250000  0.250000  0.125000      2.000000
 -0.250000  0.000000  0.125000      2.000000
  0.000000 -0.250000  0.125000      2.000000
  0.250000 -0.250000  0.125000      2.000000
  0.500000  0.000000  0.125000      2.000000
  0.000000  0.500000  0.125000      2.000000
  0.500000  0.500000  0.125000      2.000000
  0.250000  0.250000  0.125000      2.000000
 -0.250000  0.500000  0.125000      2.000000
  0.500000  0.250000  0.125000      2.000000
 -0.250000 -0.250000  0.125000      2.000000
  0.250000  0.500000  0.125000      2.000000
  0.500000 -0.250000  0.125000      2.000000
  0.000000  0.000000  0.250000      2.000000
  0.250000  0.000000  0.250000      2.000000
  0.000000  0.250000  0.250000      2.000000
 -0.250000  0.250000  0.250000      2.000000
 -0.250000  0.000000  0.250000      2.000000
  0.000000 -0.250000  0.250000      2.000000
  0.250000 -0.250000  0.250000      2.000000
  0.500000  0.000000  0.250000      2.000000
  0.000000  0.500000  0.250000      2.000000
  0.500000  0.500000  0.250000      2.000000
  0.250000  0.250000  0.250000      2.000000
 -0.250000  0.500000  0.250000      2.000000
  0.500000  0.250000  0.250000      2.000000
 -0.250000 -0.250000  0.250000      2.000000
  0.250000  0.500000  0.250000      2.000000
  0.500000 -0.250000  0.250000      2.000000
  0.000000  0.000000  0.375000      2.000000
  0.250000  0.000000  0.375000      2.000000
  0.000000  0.250000  0.375000      2.000000
[...]
  353          setg0                                 0.001603                          1   4
  354          broyd                                 0.009172                          1   4
  355            brget                                 0.002196                      326   5
  356            brsav                                 0.001002                      163   5
  357            m_sumb_d                              0.000734                       47   5
  358        m_bcast_d                             0.000025                            2   3
  359      potlok                                0.007713                              1   2
  360        fft3d_mpi                             0.004851                           26   3
  361          fftbrc_mpi                            0.003839                         26   4
  362            fftbas_plan_mpi                       0.003824                       26   5
  363              map_forward                           0.001732                     28   6
  364                map_gather                            0.000391                   16   7
  365                m_alltoallv_z                         0.000203                   16   7
  366                map_scatter                           0.000915                   16   7
  367              map_backward                          0.001305                     24   6
  368                map_gather                            0.000330                   12   7
  369                m_alltoallv_z                         0.000152                   12   7
  370                map_scatter                           0.000634                   12   7
  371        m_sumb_d                              0.000027                            5   3
  372        pothar                                0.000095                            1   3
  373          m_sumb_d                              0.000008                          1   4
  374        m_bcast_d                             0.000024                            2   3
  375      potlok_metagga                        0.000000                              1   2
  376      set_dd_magatom                        0.000004                              1   2
  377      set_dd_paw                            0.019879                              1   2
  378        m_sumb_d                              0.003925                            7   3
  379      augmentation_charge                   0.017201                              1   2
  380        fft3d_mpi                             0.006760                            2   3
  381          fftbrc_mpi                            0.005912                          2   4
  382            fftbas_plan_mpi                       0.005911                        2   5
  383              dfftw_execute                         0.002918                      6   6
  384              map_backward                          0.002807                      4   6
  385                map_gather                            0.000945                    2   7
  386                m_alltoallv_z                         0.001152                    2   7
  387                map_scatter                           0.000707                    2   7
  388      densta                               18.194076                              1   2

 Flat profile

 raccmu_                              2223.907143     4366256
 eccp                                 1976.052390    23555192
 w1_gemv                              1698.393917    70560330
 i2                                   1630.424660     4325871
 eccp_nl                              1087.793383    19611192
 eddrmm                                717.711256         995
 overl1                                574.484461    35280165
 cnorma                                529.427629    19611192
 phaser                                525.257526      136884
 redis_pw                              454.808124     1704633
 eddiag                                439.858125         995
 densta                                378.963531        1001
 fft3d                                 333.299862    46479784
 w1_dscal                              301.340096    50974808
 w1_gaxpy                              281.447730    54875414
 apply_precond                         266.545791    58858041
 fftwav                                254.391335    26790525
 w1_copy                               250.764375    47294937
 m_alltoall_d                          244.909418    43752989
 hamilt_local                          206.985107     3924280
 m_sumb_d                              194.310906      471998
 soft_charge                           170.724774         997
 w1_daxpy                              160.622148    31373824
 rpromu_acc                            152.829110     4370200
 racc0mu_acc                           151.429810     4366256
 hamiltmu                              145.110286     4366256
 setup_precond                         138.353106     3944000
 w1_dot                                111.147937     3924280
 pw_charge                             105.798673     3067367
 newband                               102.144156     4502256
 zhegv                                  99.008379    11762632
 kinhamil                               85.074917    19689259
 vhamil                                 82.929525    19689259
 fftext_mpi                             78.704097    19689259
 overl_mu                               66.220788     4366256
 depsum                                 64.276647         997
 redis_proj                             59.665024     1086516
 i3                                     41.098972     4325871
 fftwav_mpi                             38.519392    26790525
 choleski                               32.742979      135456
 orth1                                  23.090871     1204259
 eddav                                  20.941604           5
 orthch                                 20.071412         996
 lapack                                 18.543321       40385
 set_dd_paw                             15.804987         998
 total_time                             13.080131           1
 init_acc                               11.586570           1
 augmentation_charge                    10.023576         998
 setdij_                                 9.581567        1024
 fft3d_mpi                               8.525774    19719212
 lincom                                  5.526742      271456
 potlok                                  5.492172         997
 broyd                                   5.176174         996
 i1                                      5.000706     4325871
 w1_projall                              4.229486     4356056
 overl                                   3.831287      407190
 dfftw_execute                           3.776509       12018
 rpro_isp                                2.822994         884
 acc_init_cublas                         2.495132           1
 map_scatter                             2.430447       33941
 m_bcast_z                               2.388986       56161
 elmin                                   2.200975           1
 map_gather                              2.106780       33941
 m_alltoallv_z                           2.020087       33941
 brmix                                   1.890437         996
 setg0                                   1.625773         998
 brget                                   1.600519      235955
 truncate_high_frequency_w1              1.468947    19708979
 fftbas_plan_mpi                         1.087786       29953
 acc_init_cusolver                       0.789341           1
 m_bcast_d                               0.703221       82769
 ggemm                                   0.695421       50585
 sphpro_fast                             0.662420           2
 brsav                                   0.446261       68456
 set_charge                              0.429450         997
 rspher_all                              0.230670          14
 map_forward                             0.226088       27960
 map_backward                            0.210889       31946
 proall                                  0.165164           1
 acc_cufft_makeplan                      0.156710          19
 fft_gq                                  0.114025         997
 pothar                                  0.086106         998
 force_and_stress                        0.059781           1
 brpre                                   0.037541        1992
 strnlr                                  0.021526           1
 stufak                                  0.016025           1
 fftbrc_mpi                              0.015994       29953
 shift_bands_between_low_high            0.015669      135320
 fornlr                                  0.008077           1
 strkin                                  0.004964           1
 vectorpot                               0.004134         997
 forhar                                  0.003997           2
 set_dd_magatom                          0.003927         998
 strelo                                  0.002865           1
 strehar                                 0.002322           1
 forloc                                  0.002035           1
 rsp                                     0.000472           1
 fewald                                  0.000336           1
 brgrid                                  0.000286           1
 chggra                                  0.000257           1
 potlok_metagga                          0.000108         997
 fordep                                  0.000074           1
 rcp                                     0.000030           1
 crpa_reader                             0.000028           1
 acc_cufft_makeplans                     0.000010           3
 rotate_active_occupied_orbital          0.000000           1
 redis_pw_over_bands                     0.000000           1
  summed up times     16671.01545810699

 Accumulative profile

 total_time                          16671.015458           1
 elmin                               16604.422722           1
 eddrmm                              13932.694081         995
 i2                                   5191.906625     4325871
 i3                                   3626.053830     4325871
 hamiltmu                             2897.257528     4366256
 raccmu_                              2441.557741     4366256
 w1_gemv                              2272.878378    70560330
 eccp                                 1976.052390    23555192
 cnorma                               1617.221012    19611192
 eddiag                               1242.711090         995
 eccp_nl                              1087.793383    19611192
 newband                               694.534836     4502256
 overl1                                574.484461    35280165
 redis_pw                              566.983407     1704633
 phaser                                525.257526      136884
 fftwav_mpi                            496.286600    26790525
 set_charge                            466.521621         997
 fftwav                                457.767208    26790525
 orthch                                448.847805         996
 soft_charge                           385.034111         997
 densta                                378.963531        1001
 fft3d                                 333.299862    46479784
 w1_dscal                              301.340096    50974808
 kinhamil                              299.438583    19689259
 w1_gaxpy                              281.447730    54875414
 hamilt_local                          278.763715     3924280
 apply_precond                         266.545791    58858041
 w1_copy                               250.764375    47294937
 m_alltoall_d                          244.909418    43752989
 fftext_mpi                            214.363666    19689259
 m_sumb_d                              194.310906      471998
 redis_proj                            192.399159     1086516
 w1_daxpy                              160.622148    31373824
 w1_projall                            153.937325     4356056
 rpromu_acc                            152.829110     4370200
 racc0mu_acc                           151.429810     4366256
 fft3d_mpi                             150.324342    19719212
 setup_precond                         138.353106     3944000
 w1_dot                                111.147937     3924280
 pw_charge                             105.798673     3067367
 eddav                                 104.209642           5
 zhegv                                  99.008379    11762632
 vhamil                                 82.929525    19689259
 i1                                     73.726847     4325871
 overl_mu                               66.220788     4366256
 depsum                                 64.536925         997
 choleski                               32.742979      135456
 orth1                                  23.090871     1204259
 set_dd_paw                             19.591599         998
 lapack                                 18.543321       40385
 augmentation_charge                    16.538337         998
 fftbrc_mpi                             11.874579       29953
 fftbas_plan_mpi                        11.858586       29953
 force_and_stress                       11.605414           1
 brmix                                  11.603922         996
 init_acc                               11.586570           1
 potlok                                 10.686171         997
 setdij_                                 9.939552        1024
 strnlr                                  8.089698           1
 broyd                                   7.990915         996
 rpro_isp                                7.513546         884
 lincom                                  5.526742      271456
 map_backward                            5.104904       31946
 overl                                   3.831287      407190
 dfftw_execute                           3.776509       12018
 fft_gq                                  3.149700         997
 fornlr                                  2.698069           1
 acc_init_cublas                         2.495132           1
 map_scatter                             2.430447       33941
 m_bcast_z                               2.388986       56161
 map_gather                              2.106780       33941
 m_alltoallv_z                           2.020087       33941
 map_forward                             1.889387       27960
 setg0                                   1.625773         998
 brget                                   1.600519      235955
 truncate_high_frequency_w1              1.468947    19708979
 acc_init_cusolver                       0.789341           1
 m_bcast_d                               0.703221       82769
 ggemm                                   0.695421       50585
 sphpro_fast                             0.689420           2
 proall                                  0.616789           1
 brsav                                   0.446261       68456
 rspher_all                              0.230670          14
 acc_cufft_makeplans                     0.156720           3
 acc_cufft_makeplan                      0.156710          19
 pothar                                  0.095586         998
 fordep                                  0.056705           1
 brpre                                   0.037541        1992
 stufak                                  0.016025           1
 shift_bands_between_low_high            0.015669      135320
 strkin                                  0.004973           1
 vectorpot                               0.004134         997
 forhar                                  0.004055           2
 set_dd_magatom                          0.003927         998
 strelo                                  0.002874           1
 strehar                                 0.002328           1
 forloc                                  0.002070           1
 chggra                                  0.000933           1
 fewald                                  0.000905           1
 rsp                                     0.000472           1
 brgrid                                  0.000286           1
 potlok_metagga                          0.000108         997
 rcp                                     0.000030           1
 crpa_reader                             0.000028           1
 rotate_active_occupied_orbital          0.000000           1
 redis_pw_over_bands                     0.000000           1

Profiling took  76.205440 55.444901  0.003255  0.003148 seconds
Profiling took  67.613558 seconds