 vasp.6.3.2 27Jun22 (build Jul  3 2023 11:46:21) complex
 executed on    LinuxNV_CrayMPICH date 2024.04.22  03:50:13

 INCAR:
   ADDGRID = True
   ALGO = Normal
   EDIFF = 0.0005
   ENCUT = 520.0
   IBRION = -1
   ICHARG = 0
   ISIF = 3
   ISMEAR = -5
   ISPIN = 2
   KPOINT_BSE = -1 0 0 0
   LAECHG = True
   LASPH = True
   LCHARG = True
   LELF = True
   LORBIT = 11
   LREAL = Auto
   LVHAR = True
   LWAVE = False
   MAGMOM = 2*0.6 1*7.0 7*0.6
   NELM = 1000
   NSW = 0
   PREC = accurate
   SIGMA = 0.05

 POTCAR:    PAW_PBE Cs_sv 08Apr2002
 POTCAR:    PAW_PBE Eu 23Dec2003
 POTCAR:    PAW_PBE Au 04Oct2007
 POTCAR:    PAW_PBE Cl 06Sep2000
 POTCAR:    PAW_PBE Cs_sv 08Apr2002
   VRHFIN =Cs: 5s5p6s

   TITEL  = PAW_PBE Cs_sv 08Apr2002
   POMASS =  132.900; ZVAL   =    9.000    mass and valenz
   ENMAX  =  220.318; ENMIN  =  165.238 eV

   TITEL  = PAW_PBE Eu 23Dec2003
   POMASS =  151.965; ZVAL   =   17.000    mass and valenz
   ENMAX  =  249.668; ENMIN  =  187.251 eV

   TITEL  = PAW_PBE Au 04Oct2007
   POMASS =  196.966; ZVAL   =   11.000    mass and valenz
   ENMAX  =  229.943; ENMIN  =  172.457 eV

   TITEL  = PAW_PBE Cl 06Sep2000
   POMASS =   35.453; ZVAL   =    7.000    mass and valenz
   ENMAX  =  262.472; ENMIN  =  196.854 eV

 Optimization of the real space projectors (new method)

 maximal supplied QI-value         = 15.12
 optimisation between [QCUT,QGAM] = [ 11.64, 23.28] = [ 37.95,151.78] Ry
 Optimized for a Real-space Cutoff    1.58 Angstroem

   l    n(q)    QCUT    max X(q) W(low)/X(q) W(high)/X(q)  e(spline)
   0     11    11.641    25.322    0.32E-04    0.44E-04    0.76E-06
   0     11    11.641    99.187    0.29E-04    0.43E-04    0.73E-06
   1     11    11.641    11.761    0.14E-03    0.20E-04    0.36E-06
   1     11    11.641     8.275    0.16E-03    0.25E-04    0.39E-06
   2     10    11.641     3.829    0.40E-04    0.12E-03    0.26E-06
 Optimization of the real space projectors (new method)

[...]

   l    n(q)    QCUT    max X(q) W(low)/X(q) W(high)/X(q)  e(spline)
   2      9    11.641    60.898    0.24E-03    0.10E-03    0.19E-06
   2      9    11.641    58.894    0.25E-03    0.10E-03    0.19E-06
   0     10    11.641   109.617    0.73E-04    0.33E-04    0.11E-06
   0     10    11.641    75.026    0.71E-04    0.32E-04    0.11E-06
   1     10    11.641    16.344    0.27E-04    0.97E-04    0.16E-06
   1     10    11.641    10.160    0.23E-04    0.77E-04    0.13E-06
 Optimization of the real space projectors (new method)

 maximal supplied QI-value         = 19.84
 optimisation between [QCUT,QGAM] = [ 11.51, 23.22] = [ 37.09,150.92] Ry
 Optimized for a Real-space Cutoff    1.21 Angstroem

   l    n(q)    QCUT    max X(q) W(low)/X(q) W(high)/X(q)  e(spline)
   0      8    11.508   168.010    0.86E-04    0.17E-03    0.49E-07
   0      8    11.508   164.674    0.84E-04    0.16E-03    0.48E-07
   1      8    11.508    69.222    0.18E-03    0.70E-04    0.97E-07
   1      8    11.508    56.786    0.18E-03    0.67E-04    0.95E-07
  PAW_PBE Cs_sv 08Apr2002               :
  PAW_PBE Eu 23Dec2003                  :
  PAW_PBE Au 04Oct2007                  :
  PAW_PBE Cl 06Sep2000                  :

 POSCAR: Cs2 Eu1 Au1 Cl6
  positions in direct lattice
 exchange correlation table for  LEXCH =        8
   RHO(1)=    0.500       N(1)  =     2000
   RHO(2)=  100.500       N(2)  =     4000

 VTST: version 4.2, (08/11/21)

 CHAIN: initializing optimizer

 OPT: Using VASP Dynamics algorithm
 CHAIN: Read ICHAIN             0

 POSCAR: Cs2 Eu1 Au1 Cl6
  positions in direct lattice

 ion  position               nearest neighbor table
   1  0.750  0.750  0.750-
   2  0.250  0.250  0.250-
   3  0.000  0.000  0.000-   5 2.76   6 2.76   7 2.76   8 2.76   9 2.76  10 2.76
   4  0.500  0.500  0.500-   5 2.70   6 2.70   7 2.70   8 2.70   9 2.70  10 2.70
   5  0.747  0.253  0.253-   4 2.70   3 2.76
   6  0.253  0.253  0.747-   4 2.70   3 2.76
   7  0.253  0.747  0.747-   4 2.70   3 2.76
   8  0.253  0.747  0.253-   4 2.70   3 2.76
   9  0.747  0.253  0.747-   4 2.70   3 2.76
  10  0.747  0.747  0.253-   4 2.70   3 2.76

  LATTYP: Found a face centered cubic cell.
 ALAT       =    10.9073320000

  Lattice vectors:

 A1 = (   0.0000000000,   5.4536660000,   5.4536660000)
 A2 = (   5.4536660000,   0.0000000000,   5.4536660000)
 A3 = (   5.4536660000,   5.4536660000,   0.0000000000)

Analysis of symmetry for initial positions (statically):
 Subroutine PRICEL returns:
 Original cell was already a primitive cell.

 Routine SETGRP: Setting up the symmetry group for a
 face centered cubic supercell.

 Subroutine GETGRP returns: Found 48 space group operations
 (whereof 48 operations were pure point group operations)
 out of a pool of 48 trial point group operations.

The static configuration has the point symmetry O_h .

Analysis of symmetry for dynamics (positions and initial velocities):
 Subroutine PRICEL returns:
 Original cell was already a primitive cell.

[...]

The dynamic configuration has the point symmetry O_h .

Analysis of structural, dynamic, and magnetic symmetry:
 Subroutine PRICEL returns:
 Original cell was already a primitive cell.

 Routine SETGRP: Setting up the symmetry group for a
 face centered cubic supercell.

 Subroutine GETGRP returns: Found 48 space group operations
 (whereof 48 operations were pure point group operations)
 out of a pool of 48 trial point group operations.

The overall configuration has the point symmetry O_h .

 Subroutine INISYM returns: Found 48 space group operations
 (whereof 48 operations are pure point group operations),
 and found     1 'primitive' translations

                                     Primitive cell

  volume of cell :     324.4110

  direct lattice vectors                    reciprocal lattice vectors
     0.000000000  5.453666000  5.453666000    -0.091681449  0.091681449  0.091681449
     5.453666000  0.000000000  5.453666000     0.091681449 -0.091681449  0.091681449
     5.453666000  5.453666000  0.000000000     0.091681449  0.091681449 -0.091681449

  length of vectors
     7.712648422  7.712648422  7.712648422     0.158796927  0.158796927  0.158796927

  position of ions in fractional coordinates (direct lattice)
     0.750000000  0.750000000  0.750000000
     0.250000000  0.250000000  0.250000000
     0.000000000  0.000000000  0.000000000
     0.500000000  0.500000000  0.500000000
     0.747224000  0.252776000  0.252776000
     0.252776000  0.252776000  0.747224000
     0.252776000  0.747224000  0.747224000
     0.252776000  0.747224000  0.252776000
     0.747224000  0.252776000  0.747224000
     0.747224000  0.747224000  0.252776000

  ion indices of the primitive-cell ions
   primitive index   ion index
                 1           1
                 2           2
                 3           3
                 4           4
                 5           5
                 6           6
                 7           7
                 8           8
                 9           9
                10          10

 KPOINTS: Kpoints from vasprun.xml

Automatic generation of k-mesh.
 Grid dimensions read from file:
 generate k-points for:    4    4    4

 Generating k-lattice:

  Cartesian coordinates                     Fractional coordinates (reciprocal lattice)
    -0.022920362  0.022920362  0.022920362     0.250000000  0.000000000  0.000000000
     0.022920362 -0.022920362  0.022920362     0.000000000  0.250000000 -0.000000000
     0.022920362  0.022920362 -0.022920362    -0.000000000 -0.000000000  0.250000000

  Length of vectors
     0.039699232  0.039699232  0.039699232

  Shift w.r.t. Gamma in fractional coordinates (k-lattice)
     0.000000000  0.000000000  0.000000000

 TETIRR: Found      9 inequivalent tetrahedra from      384

 Subroutine IBZKPT returns following result:

 Found      8 irreducible k-points:

 Following reciprocal coordinates:
            Coordinates               Weight
  0.000000  0.000000  0.000000      1.000000
  0.250000  0.000000  0.000000      8.000000
  0.500000  0.000000  0.000000      4.000000
  0.250000  0.250000  0.000000      6.000000
  0.500000  0.250000  0.000000     24.000000
 -0.250000  0.250000  0.000000     12.000000
  0.500000  0.500000  0.000000      3.000000
 -0.250000  0.500000  0.250000      6.000000

 Following cartesian coordinates:
            Coordinates               Weight
  0.000000  0.000000  0.000000      1.000000
 -0.022920  0.022920  0.022920      8.000000
 -0.045841  0.045841  0.045841      4.000000
  0.000000  0.000000  0.045841      6.000000
 -0.022920  0.022920  0.068761     24.000000
  0.045841 -0.045841  0.000000     12.000000
  0.000000  0.000000  0.091681      3.000000
  0.091681 -0.045841  0.000000      6.000000

 SYSTEM =  unknown system
 POSCAR =  Cs2 Eu1 Au1 Cl6

 Startparameter for this run:
   NWRITE =      2    write-flag & timer
   PREC   = accura    normal or accurate (medium, high low for compatibility)
   ISTART =      0    job   : 0-new  1-cont  2-samecut
   ICHARG =      0    charge: 1-file 2-atom 10-const
   ISPIN  =      2    spin polarized calculation?
   LNONCOLLINEAR =      F non collinear calculations
   LSORBIT =      F    spin-orbit coupling
   INIWAV =      1    electr: 0-lowe 1-rand  2-diag
   LASPH  =      T    aspherical Exc in radial PAW
 Electronic Relaxation 1
   ENCUT  =  520.0 eV  38.22 Ry    6.18 a.u.  14.34 14.34 14.34*2*pi/ulx,y,z
   ENINI  =  520.0     initial cutoff
   ENAUG  =  549.6 eV  augmentation charge cutoff
   NELM   =   1000;   NELMIN=  2; NELMDL= -5     # of ELM steps
   EDIFF  = 0.5E-03   stopping-criterion for ELM
   LREAL  =      T    real-space projection
   NLSPLINE    = F    spline interpolate recip. space projectors
   LCOMPAT=      F    compatible to vasp.4.4
   GGA_COMPAT  = T    GGA compatible to vasp.4.4-vasp.4.6
   LMAXPAW     = -100 max onsite density
   LMAXMIX     =    2 max onsite mixed and CHGCAR
   VOSKOWN=      0    Vosko Wilk Nusair interpolation
   ROPT   =   -0.00025  -0.00025  -0.00025  -0.00025
 Ionic relaxation
   EDIFFG = 0.5E-02   stopping-criterion for IOM
   NSW    =      0    number of steps for IOM
   NBLOCK =      1;   KBLOCK =      1    inner block; outer block
   IBRION =     -1    ionic relax: 0-MD 1-quasi-New 2-CG
   NFREE  =      0    steps in history (QN), initial steepest desc. (CG)
   ISIF   =      3    stress and relaxation
   IWAVPR =     10    prediction:  0-non 1-charg 2-wave 3-comb
   ISYM   =      2    0-nonsym 1-usesym 2-fastsym
   LCORR  =      T    Harris-Foulkes like correction to forces

   POTIM  = 0.5000    time-step for ionic-motion
   TEIN   =    0.0    initial temperature
   TEBEG  =    0.0;   TEEND  =   0.0 temperature during run
   SMASS  =  -3.00    Nose mass-parameter (am)
   estimated Nose-frequenzy (Omega)   =  0.10E-29 period in steps = 0.13E+47 mass=  -0.136E-26a.u.
   SCALEE = 1.0000    scale energy and forces
   NPACO  =    256;   APACO  = 10.0  distance and # of slots for P.C.
   PSTRESS=    0.0 pullay stress

  Mass of Ions in am
   POMASS = 132.90151.97196.97 35.45
  Ionic Valenz
   ZVAL   =   9.00 17.00 11.00  7.00
  Atomic Wigner-Seitz radii
  virtual crystal weights
   VCA    =   1.00  1.00  1.00  1.00
[...]
  318                map_forward                           0.000227                    4   7
  319                  map_gather                            0.000050                  2   8
  320                  m_alltoallv_z                         0.000028                  2   8
  321                  map_scatter                           0.000113                  2   8
  322                map_backward                          0.000159                    2   7
  323                  map_gather                            0.000027                  1   8
  324                  m_alltoallv_z                         0.000012                  1   8
  325                  map_scatter                           0.000104                  1   8
  326          m_sumb_d                              0.000010                          2   4
  327          pothar                                0.000080                          1   4
  328            m_sumb_d                              0.000004                        1   5
  329        brmix                                 0.013444                            1   3
  330          m_sumb_d                              0.000091                          6   4
  331          brpre                                 0.000041                          2   4
  332          setg0                                 0.001544                          1   4
  333          broyd                                 0.009895                          1   4
  334            brget                                 0.002377                      326   5
  335            brsav                                 0.001099                      163   5
  336            m_sumb_d                              0.000773                       47   5
  337        m_bcast_d                             0.000018                            2   3
  338      potlok                                0.052652                              2   2
  339        fft3d_mpi                             0.032389                           36   3
  340          fftbrc_mpi                            0.027971                         36   4
  341            fftbas_plan_mpi                       0.027953                       36   5
  342              map_forward                           0.008141                     40   6
  343                map_gather                            0.002434                   24   7
  344                m_alltoallv_z                         0.003211                   24   7
  345                map_scatter                           0.002262                   24   7
  346              map_backward                          0.006995                     32   6
  347                map_gather                            0.002217                   16   7
  348                m_alltoallv_z                         0.002588                   16   7
  349                map_scatter                           0.001984                   16   7
  350              dfftw_execute                         0.011065                     30   6
  351        m_sumb_d                              0.000030                            5   3
  352        pothar                                0.002132                            2   3
  353          m_sumb_d                              0.000200                          2   4
  354        m_bcast_d                             0.003552                            4   3
  355      potlok_metagga                        0.000000                              1   2
  356      set_dd_magatom                        0.000005                              1   2
  357      set_dd_paw                            1.149383                              1   2
  358        m_sumb_d                              0.479279                            7   3
  359      augmentation_charge                   0.147817                              1   2
  360        fft3d_mpi                             0.074096                            2   3
  361          fftbrc_mpi                            0.065099                          2   4
  362            fftbas_plan_mpi                       0.065096                        2   5
  363              dfftw_execute                         0.040235                      6   6
  364              map_backward                          0.024618                      4   6
  365                map_gather                            0.008592                    2   7
  366                m_alltoallv_z                         0.008559                    2   7
  367                map_scatter                           0.007459                    2   7
  368      fftwav_mpi                            0.968696                            720   2
  369        fftwav                                0.967758                          720   3
  370          fft3d                                 0.892151                        720   4
  371      densta                                0.074071                              1   2

 Flat profile

 m_sumb_d                               74.776273      176485
 set_dd_paw                             72.123577         108
 raccmu_                                31.184907       55173
 eddav                                  27.730590         110
 lapack                                 24.163574       55173
 total_time                             14.102219           1
 dfftw_execute                          12.129187        3036
 redis_pw                               11.886964      283566
 init_acc                               11.400617           1
 setdij_                                 9.119916         134
 augmentation_charge                     8.024917         108
 m_alltoall_d                            5.281925      742566
 phaser                                  4.862085        1864
 acc_init_cublas                         3.414790           1
 fft3d                                   3.369341      303712
 m_alltoallv_z                           3.002003        4269
 eccp                                    2.758947       26400
 redis_proj                              2.387241      359320
 fft3d_mpi                               2.028445      105957
 map_scatter                             2.018986        4269
 fftwav                                  2.009825      201574
 map_gather                              1.956665        4269
 orth1                                   1.877851      165551
 set_charge                              1.752601         107
 hamiltmu                                1.639098       55173
 racc0mu_acc                             1.588553       55173
 overl                                   1.504002      177892
 w1_copy                                 1.500321      306414
 soft_charge                             1.385281         107
 rpromu_acc                              1.330697       41925
 m_bcast_z                               1.233011       56133
 acc_init_cusolver                       1.050930           1
 ggemm                                   1.030061       69253
 setup_precond                           0.963836       26400
 m_bcast_d                               0.933016      110567
 overl_mu                                0.852753       55173
 pw_charge                               0.688473       19858
 potlok                                  0.600647         108
 densta                                  0.528868         111
 vhamil                                  0.476453      102138
 kinhamil                                0.463068      102138
 broyd                                   0.456434         106
 newband                                 0.449260       56933
 fftext_mpi                              0.432240      102138
 apply_precond                           0.430487       75738
 depsum                                  0.423057         107
 brmix                                   0.318901         106
 acc_cufft_makeplan                      0.283467          19
 fftwav_mpi                              0.270868      201574
 elmin                                   0.218593           1
 fftbas_plan_mpi                         0.218575        3819
 rpro_isp                                0.192797         104
 setg0                                   0.163301         108
 rspher_all                              0.150109          14
 brget                                   0.146903       20219
 lincom                                  0.064882        1776
 proall                                  0.045008           1
 w1_projall                              0.040668       41093
 brsav                                   0.039093        5622
 sphpro_fast                             0.027068           2
 map_forward                             0.025421        3616
 map_backward                            0.024590        4022
 fft_gq                                  0.013638         107
 choleski                                0.013570          16
 force_and_stress                        0.011919           1
 pothar                                  0.011033         109
 truncate_high_frequency_w1              0.010047      128538
 stufak                                  0.008807           1
 orthch                                  0.008648           1
 inisym                                  0.004998           1
 brpre                                   0.004438         212
 forhar                                  0.003954           2
 strelo                                  0.002659           1
 strnlr                                  0.002463           1
 fftbrc_mpi                              0.002224        3819
 strehar                                 0.002156           1
 forloc                                  0.002061           1
 fornlr                                  0.000875           1
 strkin                                  0.000532           1
 set_dd_magatom                          0.000484         108
 vectorpot                               0.000453         107
 fewald                                  0.000375           1
 brgrid                                  0.000278           1
 chggra                                  0.000256           1
 rsp                                     0.000199           1
 posmap                                  0.000088           2
 fordep                                  0.000053           1
 crpa_reader                             0.000026           1
 rcp                                     0.000022           1
 acc_cufft_makeplans                     0.000012           3
 potlok_metagga                          0.000008         107
 rotate_active_occupied_orbital          0.000001           1
 redis_pw_over_bands                     0.000000           1
  summed up times     355.6605131626129

 Accumulative profile

 total_time                            355.660513           1
 elmin                                 315.019197           1
 eddav                                 153.491929         110
 set_dd_paw                            122.355504         108
 m_sumb_d                               74.776273      176485
 hamiltmu                               37.392158       55173
 raccmu_                                33.626212       55173
 lapack                                 24.163574       55173
 set_charge                             22.380939         107
 fft3d_mpi                              22.131410      105957
 setdij_                                21.034414         134
 fftbrc_mpi                             19.377650        3819
 fftbas_plan_mpi                        19.375426        3819
 augmentation_charge                    16.358954         108
 redis_pw                               14.463085      283566
 dfftw_execute                          12.129187        3036
 init_acc                               11.400617           1
 newband                                 6.282131       56933
 force_and_stress                        6.277341           1
 m_alltoall_d                            5.281925      742566
 redis_proj                              5.093046      359320
 fftwav_mpi                              4.924720      201574
 phaser                                  4.862085        1864
 fftwav                                  4.653852      201574
 map_backward                            3.870955        4022
 soft_charge                             3.714552         107
 acc_init_cublas                         3.414790           1
 fft3d                                   3.369341      303712
 map_forward                             3.156709        3616
 m_alltoallv_z                           3.002003        4269
 eccp                                    2.758947       26400
 map_scatter                             2.018986        4269
 map_gather                              1.956665        4269
 orth1                                   1.877851      165551
 kinhamil                                1.650395      102138
 racc0mu_acc                             1.588553       55173
 overl                                   1.504002      177892
 w1_copy                                 1.500321      306414
 rpromu_acc                              1.330697       41925
 potlok                                  1.288465         108
 m_bcast_z                               1.233011       56133
 w1_projall                              1.219697       41093
 brmix                                   1.205068         106
 fftext_mpi                              1.187327      102138
 acc_init_cusolver                       1.050930           1
 ggemm                                   1.030061       69253
 setup_precond                           0.963836       26400
 fordep                                  0.939152           1
 m_bcast_d                               0.933016      110567
 overl_mu                                0.852753       55173
 broyd                                   0.703183         106
 pw_charge                               0.688473       19858
 strnlr                                  0.616872           1
 densta                                  0.528868         111
 vhamil                                  0.476453      102138
 rpro_isp                                0.440606         104
 depsum                                  0.437385         107
 apply_precond                           0.430487       75738
 fft_gq                                  0.364772         107
 acc_cufft_makeplans                     0.283479           3
 acc_cufft_makeplan                      0.283467          19
 orthch                                  0.269619           1
 fornlr                                  0.204854           1
 setg0                                   0.163301         108
 rspher_all                              0.150109          14
 brget                                   0.146903       20219
 proall                                  0.081216           1
 lincom                                  0.064882        1776
 brsav                                   0.039093        5622
 sphpro_fast                             0.028138           2
 choleski                                0.013570          16
 pothar                                  0.012265         109
 truncate_high_frequency_w1              0.010047      128538
 stufak                                  0.008807           1
 inisym                                  0.005086           1
 brpre                                   0.004438         212
 forhar                                  0.003962           2
 strelo                                  0.003077           1
 forloc                                  0.002818           1
 strehar                                 0.002159           1
 fewald                                  0.001022           1
 chggra                                  0.000927           1
 strkin                                  0.000542           1
 set_dd_magatom                          0.000484         108
 vectorpot                               0.000453         107
 brgrid                                  0.000278           1
 rsp                                     0.000199           1
 posmap                                  0.000088           2
 crpa_reader                             0.000026           1
 rcp                                     0.000022           1
 potlok_metagga                          0.000008         107
 rotate_active_occupied_orbital          0.000001           1
 redis_pw_over_bands                     0.000000           1

Profiling took   0.662408  0.323797  0.003236  0.003122 seconds
Profiling took   0.411869 seconds