 vasp.6.3.2 27Jun22 (build Jul  3 2023 11:46:21) complex
 executed on    LinuxNV_CrayMPICH date 2024.04.22  03:39:01

 INCAR:
   ADDGRID = True
   ALGO = Normal
   EDIFF = 0.0007
   ENCUT = 520.0
   IBRION = -1
   ICHARG = 0
   ISIF = 3
   ISMEAR = -5
   ISPIN = 2
   ISYM = 0
   LAECHG = True
   LASPH = True
   LCHARG = True
   LDAU = True
   LDAUJ = 0.0 0.0 0.0 0.0
   LDAUL = 0 2 0 0
   LDAUPRINT = 1
   LDAUTYPE = 2
   LDAUU = 0.0 4.38 0.0 0.0
   LMAXMIX = 6
   LORBIT = 11
   LREAL = Auto
   LVHAR = True
   LWAVE = False
   MAGMOM = 2*7.0 2*0.004 2*0.031 1*0.002 1*0.003 1*0.002 1*0.001 2*0.002 1*0.001 1*0.003
   NELM = 1000
   NSW = 0
   PREC = Accurate
   SIGMA = 0.05

 POTCAR:    PAW_PBE Eu 23Dec2003
 POTCAR:    PAW_PBE Mo_pv 04Feb2005
 POTCAR:    PAW_PBE Cl 06Sep2000
 POTCAR:    PAW_PBE O 08Apr2002
 POTCAR:    PAW_PBE Eu 23Dec2003
   VRHFIN =Eu : [core=Kr4d]

   TITEL  = PAW_PBE Eu 23Dec2003
   POMASS =  151.965; ZVAL   =   17.000    mass and valenz
   ENMAX  =  249.668; ENMIN  =  187.251 eV

   TITEL  = PAW_PBE Mo_pv 04Feb2005
   POMASS =   95.940; ZVAL   =   12.000    mass and valenz
   ENMAX  =  224.584; ENMIN  =  168.438 eV

   TITEL  = PAW_PBE Cl 06Sep2000
   POMASS =   35.453; ZVAL   =    7.000    mass and valenz
   ENMAX  =  262.472; ENMIN  =  196.854 eV

   TITEL  = PAW_PBE O 08Apr2002
   POMASS =   16.000; ZVAL   =    6.000    mass and valenz
   ENMAX  =  400.000; ENMIN  =  300.000 eV

 Optimization of the real space projectors (new method)

 maximal supplied QI-value         = 13.42
 optimisation between [QCUT,QGAM] = [ 11.67, 23.35] = [ 38.16,152.62] Ry
 Optimized for a Real-space Cutoff    1.63 Angstroem

   l    n(q)    QCUT    max X(q) W(low)/X(q) W(high)/X(q)  e(spline)
   0     11    11.673    10.400    0.14E-04    0.18E-05    0.24E-07
   0     11    11.673    10.768    0.21E-04    0.32E-05    0.49E-07
   1     11    11.673     4.094    0.40E-05    0.13E-04    0.93E-07
   1     11    11.673     4.009    0.11E-04    0.46E-04    0.33E-06
   2     10    11.673    29.030    0.79E-04    0.60E-04    0.70E-06
   2     10    11.673    19.941    0.80E-04    0.60E-04    0.71E-06
   3     10    11.673    88.889    0.23E-03    0.29E-03    0.30E-06
   3     10    11.673    76.102    0.23E-03    0.30E-03    0.30E-06
 Optimization of the real space projectors (new method)

[...]

   l    n(q)    QCUT    max X(q) W(low)/X(q) W(high)/X(q)  e(spline)
   0      8    11.508   168.010    0.86E-04    0.17E-03    0.49E-07
   0      8    11.508   164.674    0.84E-04    0.16E-03    0.48E-07
   1      8    11.508    69.222    0.18E-03    0.70E-04    0.97E-07
   1      8    11.508    56.786    0.18E-03    0.67E-04    0.95E-07
 Optimization of the real space projectors (new method)

 maximal supplied QI-value         = 24.76
 optimisation between [QCUT,QGAM] = [ 11.64, 23.27] = [ 37.91,151.63] Ry
 Optimized for a Real-space Cutoff    1.14 Angstroem

   l    n(q)    QCUT    max X(q) W(low)/X(q) W(high)/X(q)  e(spline)
   0      8    11.635    20.381    0.10E-03    0.33E-03    0.24E-06
   0      8    11.635    15.268    0.11E-03    0.35E-03    0.26E-06
   1      7    11.635     5.964    0.24E-03    0.31E-03    0.30E-06
   1      7    11.635     5.382    0.22E-03    0.25E-03    0.26E-06
  PAW_PBE Eu 23Dec2003                  :
  PAW_PBE Mo_pv 04Feb2005               :
  PAW_PBE Cl 06Sep2000                  :
  PAW_PBE O 08Apr2002                   :

 POSCAR: Eu2 Mo2 Cl2 O8
  positions in direct lattice
 exchange correlation table for  LEXCH =        8
   RHO(1)=    0.500       N(1)  =     2000
   RHO(2)=  100.500       N(2)  =     4000

 VTST: version 4.2, (08/11/21)

 CHAIN: initializing optimizer

 OPT: Using VASP Dynamics algorithm
 CHAIN: Read ICHAIN             0

 POSCAR: Eu2 Mo2 Cl2 O8
  positions in direct lattice

 ion  position               nearest neighbor table
   1  0.225  0.225  0.884-  10 2.36  11 2.39  12 2.39   8 2.40   9 2.67   7 2.67   6 2.84   5 2.87
                             3 3.40
   2  0.775  0.775  0.116-  13 2.36   9 2.39   7 2.39  14 2.40  11 2.67  12 2.67   5 2.84   6 2.87
                             4 3.40
   3  0.364  0.364  0.267-  10 1.77  14 1.78   7 1.81   9 1.81   1 3.40
   4  0.636  0.636  0.733-  13 1.77   8 1.78  12 1.81  11 1.81   2 3.40
   5  0.989  0.989  0.762-   2 2.84   1 2.87
   6  0.011  0.011  0.238-   1 2.84   2 2.87
   7  0.491  0.117  0.153-   3 1.81   2 2.39   1 2.67
   8  0.461  0.461  0.794-   4 1.78   1 2.40
   9  0.117  0.491  0.153-   3 1.81   2 2.39   1 2.67
  10  0.294  0.294  0.530-   3 1.77   1 2.36
  11  0.509  0.883  0.847-   4 1.81   1 2.39   2 2.67
  12  0.883  0.509  0.847-   4 1.81   1 2.39   2 2.67
  13  0.706  0.706  0.470-   4 1.77   2 2.36
  14  0.539  0.539  0.206-   3 1.78   2 2.40

IMPORTANT INFORMATION: All symmetrisations will be switched off!
NOSYMM: (Re-)initialisation of all symmetry stuff for point group C_1.

                                     Primitive cell

  volume of cell :     266.5275

  direct lattice vectors                    reciprocal lattice vectors
     3.754643000  5.307454000  0.000000000     0.133168453  0.094207128 -0.028278037
    -3.754643000  5.307454000  0.000000000    -0.133168453  0.094207128 -0.028278037
     0.000000000  2.007348000  6.687398000     0.000000000 -0.000000000  0.149534991

  length of vectors
     6.501262340  6.501262340  6.982172871     0.165555028  0.165555028  0.149534991

  position of ions in fractional coordinates (direct lattice)
     0.225473000  0.225473000  0.883777000
     0.774527000  0.774527000  0.116223000
     0.363719000  0.363719000  0.266910000
     0.636281000  0.636281000  0.733090000
     0.989310000  0.989310000  0.761669000
     0.010690000  0.010690000  0.238331000
     0.491065000  0.116852000  0.153445000
     0.461419000  0.461419000  0.793932000
     0.116852000  0.491065000  0.153445000
     0.294108000  0.294108000  0.530193000
     0.508935000  0.883148000  0.846555000
     0.883148000  0.508935000  0.846555000
     0.705892000  0.705892000  0.469807000
     0.538581000  0.538581000  0.206068000

  ion indices of the primitive-cell ions
   primitive index   ion index
                 1           1
                 2           2
                 3           3
                 4           4
                 5           5
                 6           6
                 7           7
                 8           8
                 9           9
                10          10
                11          11
                12          12
                13          13
                14          14

 KPOINTS: Kpoints from vasprun.xml

Automatic generation of k-mesh.
 Grid dimensions read from file:
 generate k-points for:    4    4    4

 Generating k-lattice:

  Cartesian coordinates                     Fractional coordinates (reciprocal lattice)
     0.033292113  0.023551782 -0.007069509     0.250000000  0.000000000  0.000000000
    -0.033292113  0.023551782 -0.007069509     0.000000000  0.250000000  0.000000000
     0.000000000 -0.000000000  0.037383748     0.000000000  0.000000000  0.250000000

  Length of vectors
     0.041388757  0.041388757  0.037383748

  Shift w.r.t. Gamma in fractional coordinates (k-lattice)
     0.500000000  0.500000000  0.500000000

 TETIRR: Found    192 inequivalent tetrahedra from      384

 Subroutine IBZKPT returns following result:

 Found     32 irreducible k-points:

 Following reciprocal coordinates:
            Coordinates               Weight
  0.125000  0.125000  0.125000      2.000000
  0.375000  0.125000  0.125000      2.000000
 -0.125000 -0.375000 -0.125000      2.000000
 -0.375000  0.125000  0.125000      2.000000
 -0.125000  0.375000 -0.125000      2.000000
 -0.125000  0.125000  0.125000      2.000000
 -0.125000  0.125000 -0.125000      2.000000
  0.375000  0.375000  0.125000      2.000000
 -0.375000  0.375000  0.125000      2.000000
 -0.375000  0.375000 -0.125000      2.000000
 -0.125000  0.375000  0.125000      2.000000
 -0.375000  0.125000 -0.125000      2.000000
 -0.375000 -0.375000  0.125000      2.000000
 -0.125000 -0.375000  0.125000      2.000000
  0.375000  0.125000 -0.125000      2.000000
 -0.125000 -0.125000  0.125000      2.000000
  0.125000  0.125000  0.375000      2.000000
  0.375000  0.125000  0.375000      2.000000
 -0.125000 -0.375000 -0.375000      2.000000
 -0.375000  0.125000  0.375000      2.000000
 -0.125000  0.375000 -0.375000      2.000000
 -0.125000  0.125000  0.375000      2.000000
 -0.125000  0.125000 -0.375000      2.000000
  0.375000  0.375000  0.375000      2.000000
 -0.375000  0.375000  0.375000      2.000000
 -0.375000  0.375000 -0.375000      2.000000
 -0.125000  0.375000  0.375000      2.000000
 -0.375000  0.125000 -0.375000      2.000000
 -0.375000 -0.375000  0.375000      2.000000
 -0.125000 -0.375000  0.375000      2.000000
  0.375000  0.125000 -0.375000      2.000000
 -0.125000 -0.125000  0.375000      2.000000

 Following cartesian coordinates:
            Coordinates               Weight
  0.000000  0.023552  0.011622      2.000000
  0.033292  0.047104  0.004553      2.000000
  0.033292 -0.047104 -0.004553      2.000000
 -0.066584 -0.023552  0.025761      2.000000
 -0.066584  0.023552 -0.025761      2.000000
 -0.033292  0.000000  0.018692      2.000000
 -0.033292  0.000000 -0.018692      2.000000
  0.000000  0.070655 -0.002517      2.000000
 -0.099876  0.000000  0.018692      2.000000
 -0.099876  0.000000 -0.018692      2.000000
 -0.066584  0.023552  0.011622      2.000000
 -0.066584 -0.023552 -0.011622      2.000000
  0.000000 -0.070655  0.039900      2.000000
  0.033292 -0.047104  0.032831      2.000000
  0.033292  0.047104 -0.032831      2.000000
 -0.000000 -0.023552  0.025761      2.000000
  0.000000  0.023552  0.049006      2.000000
  0.033292  0.047104  0.041937      2.000000
  0.033292 -0.047104 -0.041937      2.000000
 -0.066584 -0.023552  0.063145      2.000000
 -0.066584  0.023552 -0.063145      2.000000
 -0.033292  0.000000  0.056076      2.000000
 -0.033292  0.000000 -0.056076      2.000000
  0.000000  0.070655  0.034867      2.000000
 -0.099876  0.000000  0.056076      2.000000
 -0.099876  0.000000 -0.056076      2.000000
 -0.066584  0.023552  0.049006      2.000000
 -0.066584 -0.023552 -0.049006      2.000000
  0.000000 -0.070655  0.077284      2.000000
  0.033292 -0.047104  0.070215      2.000000
  0.033292  0.047104 -0.070215      2.000000
 -0.000000 -0.023552  0.063145      2.000000

 SYSTEM =  unknown system
 POSCAR =  Eu2 Mo2 Cl2 O8

 Startparameter for this run:
   NWRITE =      2    write-flag & timer
   PREC   = accura    normal or accurate (medium, high low for compatibility)
   ISTART =      0    job   : 0-new  1-cont  2-samecut
   ICHARG =      0    charge: 1-file 2-atom 10-const
   ISPIN  =      2    spin polarized calculation?
   LNONCOLLINEAR =      F non collinear calculations
   LSORBIT =      F    spin-orbit coupling
   INIWAV =      1    electr: 0-lowe 1-rand  2-diag
   LASPH  =      T    aspherical Exc in radial PAW
 Electronic Relaxation 1
   ENCUT  =  520.0 eV  38.22 Ry    6.18 a.u.  12.09 12.09 12.98*2*pi/ulx,y,z
   ENINI  =  520.0     initial cutoff
   ENAUG  =  605.4 eV  augmentation charge cutoff
[...]
  307        strehar                               0.001421                            1   3
  308          m_sumb_d                              0.000007                          1   4
  309        chggra                                0.000823                            1   3
  310          fft3d_mpi                             0.000491                          3   4
  311            fftbrc_mpi                            0.000388                        3   5
  312              fftbas_plan_mpi                       0.000387                      3   6
  313                map_forward                           0.000202                    4   7
  314                  map_gather                            0.000044                  2   8
  315                  m_alltoallv_z                         0.000030                  2   8
  316                  map_scatter                           0.000095                  2   8
  317                map_backward                          0.000092                    2   7
  318                  map_gather                            0.000022                  1   8
  319                  m_alltoallv_z                         0.000013                  1   8
  320                  map_scatter                           0.000042                  1   8
  321          m_sumb_d                              0.000010                          2   4
  322          pothar                                0.000083                          1   4
  323            m_sumb_d                              0.000010                        1   5
  324        brmix                                 0.008932                            1   3
  325          m_sumb_d                              0.000034                          6   4
  326          brpre                                 0.000029                          2   4
  327          setg0                                 0.000972                          1   4
  328          broyd                                 0.006758                          1   4
  329            m_sumb_d                              0.000260                       49   5
  330            brget                                 0.001386                      219   5
  331            brsav                                 0.000279                       47   5
  332        m_bcast_d                             0.000024                            2   3
  333      potlok                                0.033440                              2   2
  334        fft3d_mpi                             0.020571                           36   3
  335          fftbrc_mpi                            0.017496                         36   4
  336            fftbas_plan_mpi                       0.017480                       36   5
  337              map_forward                           0.005105                     40   6
  338                map_gather                            0.001663                   24   7
  339                m_alltoallv_z                         0.001779                   24   7
  340                map_scatter                           0.001483                   24   7
  341              map_backward                          0.004633                     32   6
  342                map_gather                            0.001385                   16   7
  343                m_alltoallv_z                         0.001805                   16   7
  344                map_scatter                           0.001254                   16   7
  345              dfftw_execute                         0.006130                     30   6
  346        m_sumb_d                              0.000028                            5   3
  347        pothar                                0.001268                            2   3
  348          m_sumb_d                              0.000101                          2   4
  349        m_bcast_d                             0.002060                            4   3
  350      potlok_metagga                        0.000000                              1   2
  351      set_dd_magatom                        0.000004                              1   2
  352      set_dd_paw                            1.595703                              1   2
  353        m_sumb_d                              0.678836                            7   3
  354      augmentation_charge                   0.094945                              1   2
  355        fft3d_mpi                             0.041473                            2   3
  356          fftbrc_mpi                            0.036675                          2   4
  357            fftbas_plan_mpi                       0.036672                        2   5
  358              dfftw_execute                         0.025116                      6   6
  359              map_backward                          0.011271                      4   6
  360                map_gather                            0.002623                    2   7
  361                m_alltoallv_z                         0.005378                    2   7
  362                map_scatter                           0.003265                    2   7
  363      densta                                4.990696                              1   2

 Flat profile

 m_sumb_d                              407.176889     1924041
 eddav                                 315.226835         247
 lapack                                299.372002      629503
 raccmu_                               227.941576      629503
 set_dd_paw                            222.922652         245
 redis_pw                              138.655048     3492602
 m_alltoall_d                           64.849086     9135602
 phaser                                 36.451951       16224
 redis_proj                             30.089359     4435512
 eccp                                   29.859411      316160
 fft3d                                  29.147800     3719559
 densta                                 25.169157         248
 fftwav                                 23.160393     2460553
 orth1                                  20.907419     1888701
 w1_copy                                18.620454     3777018
 racc0mu_acc                            18.422745      629503
 overl                                  18.422671     2201916
 hamiltmu                               14.850288      629503
 dfftw_execute                          14.624168        6264
 rpromu_acc                             14.486869      475583
 soft_charge                            14.436282         244
 m_bcast_z                              13.637197      634623
 setdij_                                13.373502         271
 augmentation_charge                    12.947614         245
 ggemm                                  12.719908      787583
 init_acc                               11.836860           1
 setup_precond                          11.473715      316160
 m_bcast_d                              10.411364     1259501
 total_time                             10.408717           1
 overl_mu                                9.720282      629503
 pw_charge                               6.903831      242061
 kinhamil                                5.855059     1259006
 vhamil                                  5.652032     1259006
 fftext_mpi                              5.321592     1259006
 apply_precond                           5.225859      942846
 depsum                                  5.135296         244
 newband                                 4.898926      645311
 fftwav_mpi                              3.351426     2460553
 m_alltoallv_z                           3.166909        9435
 fft3d_mpi                               2.946824     1267463
 acc_init_cublas                         2.444655           1
 map_scatter                             2.286650        9435
 map_gather                              1.758410        9435
 broyd                                   0.973523         243
 potlok                                  0.930532         245
 rpro_isp                                0.898539         416
 acc_init_cusolver                       0.794383           1
 lincom                                  0.565410       15872
 elmin                                   0.520149           1
 w1_projall                              0.460414      471423
 fftbas_plan_mpi                         0.439260        8457
 brmix                                   0.309237         243
 brget                                   0.307654       53376
 setg0                                   0.217645         245
 sphpro_fast                             0.162604           2
 rspher_all                              0.142551          14
 truncate_high_frequency_w1              0.132594     1575166
 acc_cufft_makeplan                      0.122182          19
 brsav                                   0.083828       15246
 set_charge                              0.068889         244
 proall                                  0.065177           1
 map_backward                            0.048660        8942
 map_forward                             0.046961        7972
 orthch                                  0.034288           1
 pothar                                  0.019697         246
 force_and_stress                        0.019308           1
 fft_gq                                  0.017378         244
 choleski                                0.015613          64
 strnlr                                  0.008845           1
 brpre                                   0.007344         486
 stufak                                  0.007148           1
 fftbrc_mpi                              0.005094        8457
 fornlr                                  0.003057           1
 forhar                                  0.002801           2
 strelo                                  0.001901           1
 forloc                                  0.001458           1
 strehar                                 0.001414           1
 strkin                                  0.001230           1
 set_dd_magatom                          0.001095         245
 vectorpot                               0.001049         244
 fewald                                  0.000368           1
 rsp                                     0.000360           1
 chggra                                  0.000239           1
 brgrid                                  0.000181           1
 fordep                                  0.000065           1
 crpa_reader                             0.000028           1
 rcp                                     0.000026           1
 potlok_metagga                          0.000026         244
 acc_cufft_makeplans                     0.000012           3
 rotate_active_occupied_orbital          0.000001           1
 redis_pw_over_bands                     0.000000           1
  summed up times     2153.709907054901

 Accumulative profile

 total_time                           2153.709907           1
 elmin                                2111.039589           1
 eddav                                1618.547282         247
 m_sumb_d                              407.176889     1924041
 set_dd_paw                            389.407868         245
 lapack                                299.372002      629503
 hamiltmu                              297.236950      629503
 raccmu_                               256.084604      629503
 redis_pw                              170.840795     3492602
 newband                                71.274201      645311
 m_alltoall_d                           64.849086     9135602
 redis_proj                             62.752699     4435512
 set_charge                             59.117954         244
 fftwav_mpi                             46.571366     2460553
 fftwav                                 43.219940     2460553
 phaser                                 36.451951       16224
 fft3d_mpi                              34.411191     1267463
 soft_charge                            30.970156         244
 eccp                                   29.859411      316160
 fft3d                                  29.147800     3719559
 setdij_                                26.606274         271
 densta                                 25.169157         248
 augmentation_charge                    22.998676         245
 fftbrc_mpi                             22.376114        8457
 fftbas_plan_mpi                        22.371019        8457
 orth1                                  20.907419     1888701
 kinhamil                               20.650027     1259006
 w1_copy                                18.620454     3777018
 racc0mu_acc                            18.422745      629503
 overl                                  18.422671     2201916
 fftext_mpi                             14.794968     1259006
 dfftw_execute                          14.624168        6264
 rpromu_acc                             14.486869      475583
 w1_projall                             14.208758      471423
 m_bcast_z                              13.637197      634623
 ggemm                                  12.719908      787583
 init_acc                               11.836860           1
 setup_precond                          11.473715      316160
 m_bcast_d                              10.411364     1259501
 overl_mu                                9.720282      629503
 force_and_stress                        7.535081           1
 pw_charge                               6.903831      242061
 vhamil                                  5.652032     1259006
 apply_precond                           5.225859      942846
 depsum                                  5.175177         244
 map_backward                            3.678503        8942
 map_forward                             3.629088        7972
 m_alltoallv_z                           3.166909        9435
 acc_init_cublas                         2.444655           1
 strnlr                                  2.324797           1
 map_scatter                             2.286650        9435
 potlok                                  2.174313         245
 rpro_isp                                2.137305         416
 brmix                                   1.979294         243
 map_gather                              1.758410        9435
 broyd                                   1.428682         243
 acc_init_cusolver                       0.794383           1
 fornlr                                  0.778528           1
 fordep                                  0.594275           1
 lincom                                  0.565410       15872
 fft_gq                                  0.489650         244
 orthch                                  0.349261           1
 brget                                   0.307654       53376
 setg0                                   0.217645         245
 proall                                  0.201430           1
 sphpro_fast                             0.168645           2
 rspher_all                              0.142551          14
 truncate_high_frequency_w1              0.132594     1575166
 acc_cufft_makeplans                     0.122194           3
 acc_cufft_makeplan                      0.122182          19
 brsav                                   0.083828       15246
 pothar                                  0.021902         246
 choleski                                0.015613          64
 brpre                                   0.007344         486
 stufak                                  0.007148           1
 forhar                                  0.002862           2
 strelo                                  0.001910           1
 forloc                                  0.001609           1
 strehar                                 0.001421           1
 strkin                                  0.001247           1
 fewald                                  0.001124           1
 set_dd_magatom                          0.001095         245
 vectorpot                               0.001049         244
 chggra                                  0.000823           1
 rsp                                     0.000360           1
 brgrid                                  0.000181           1
 crpa_reader                             0.000028           1
 rcp                                     0.000026           1
 potlok_metagga                          0.000026         244
 rotate_active_occupied_orbital          0.000001           1
 redis_pw_over_bands                     0.000000           1

Profiling took   7.802814  3.789103  0.003232  0.003132 seconds
Profiling took   4.984707 seconds