 vasp.6.3.2 27Jun22 (build Jul  3 2023 11:46:21) complex
 executed on    LinuxNV_CrayMPICH date 2024.04.21  07:55:05

 INCAR:
   ADDGRID = True
   ALGO = Normal
   EDIFF = 0.0005
   ENCUT = 520.0
   IBRION = -1
   ICHARG = 0
   ISIF = 3
   ISMEAR = -5
   ISPIN = 2
   KPOINT_BSE = -1 0 0 0
   LAECHG = True
   LASPH = True
   LCHARG = True
   LELF = True
   LORBIT = 11
   LREAL = Auto
   LVHAR = True
   LWAVE = False
   MAGMOM = 2*0.6 1*7.0 7*0.6
   NELM = 1000
   NSW = 0
   PREC = accurate
   SIGMA = 0.05

 POTCAR:    PAW_PBE Na_pv 19Sep2006
 POTCAR:    PAW_PBE Eu 23Dec2003
 POTCAR:    PAW_PBE Cu_pv 06Sep2000
 POTCAR:    PAW_PBE Cl 06Sep2000
 POTCAR:    PAW_PBE Na_pv 19Sep2006
   VRHFIN =Na: p6s1

   TITEL  = PAW_PBE Na_pv 19Sep2006
   POMASS =   22.990; ZVAL   =    7.000    mass and valenz
   ENMAX  =  259.561; ENMIN  =  194.671 eV

   TITEL  = PAW_PBE Eu 23Dec2003
   POMASS =  151.965; ZVAL   =   17.000    mass and valenz
   ENMAX  =  249.668; ENMIN  =  187.251 eV

   TITEL  = PAW_PBE Cu_pv 06Sep2000
   POMASS =   63.546; ZVAL   =   17.000    mass and valenz
   ENMAX  =  368.648; ENMIN  =  276.486 eV

   TITEL  = PAW_PBE Cl 06Sep2000
   POMASS =   35.453; ZVAL   =    7.000    mass and valenz
   ENMAX  =  262.472; ENMIN  =  196.854 eV

 Optimization of the real space projectors (new method)

 maximal supplied QI-value         = 17.01
 optimisation between [QCUT,QGAM] = [ 11.57, 23.30] = [ 37.45,152.03] Ry
 Optimized for a Real-space Cutoff    1.45 Angstroem

   l    n(q)    QCUT    max X(q) W(low)/X(q) W(high)/X(q)  e(spline)
   1     10    11.565     4.940    0.87E-04    0.13E-03    0.13E-06
   1     10    11.565     6.253    0.13E-03    0.19E-03    0.20E-06
   0     10    11.565    37.438    0.53E-04    0.73E-05    0.79E-07
   0     10    11.565     9.606    0.27E-04    0.60E-05    0.56E-07
 Optimization of the real space projectors (new method)

[...]

   l    n(q)    QCUT    max X(q) W(low)/X(q) W(high)/X(q)  e(spline)
   1      9    11.527     3.172    0.21E-04    0.38E-04    0.11E-06
   1      9    11.527     4.083    0.67E-04    0.79E-04    0.20E-06
   2      9    11.527    65.342    0.13E-03    0.28E-03    0.26E-06
   2      9    11.527    61.381    0.13E-03    0.29E-03    0.26E-06
   0      9    11.527    65.742    0.32E-04    0.21E-04    0.72E-07
   0      9    11.527    30.431    0.28E-04    0.19E-04    0.65E-07
 Optimization of the real space projectors (new method)

 maximal supplied QI-value         = 19.84
 optimisation between [QCUT,QGAM] = [ 11.51, 23.22] = [ 37.09,150.92] Ry
 Optimized for a Real-space Cutoff    1.21 Angstroem

   l    n(q)    QCUT    max X(q) W(low)/X(q) W(high)/X(q)  e(spline)
   0      8    11.508   168.010    0.86E-04    0.17E-03    0.49E-07
   0      8    11.508   164.674    0.84E-04    0.16E-03    0.48E-07
   1      8    11.508    69.222    0.18E-03    0.70E-04    0.97E-07
   1      8    11.508    56.786    0.18E-03    0.67E-04    0.95E-07
  PAW_PBE Na_pv 19Sep2006               :
  PAW_PBE Eu 23Dec2003                  :
  PAW_PBE Cu_pv 06Sep2000               :
  PAW_PBE Cl 06Sep2000                  :

 POSCAR: Na2 Eu1 Cu1 Cl6
  positions in direct lattice
 exchange correlation table for  LEXCH =        8
   RHO(1)=    0.500       N(1)  =     2000
   RHO(2)=  100.500       N(2)  =     4000

 VTST: version 4.2, (08/11/21)

 CHAIN: initializing optimizer

 OPT: Using VASP Dynamics algorithm
 CHAIN: Read ICHAIN             0

 POSCAR: Na2 Eu1 Cu1 Cl6
  positions in direct lattice

 ion  position               nearest neighbor table
   1  0.750  0.750  0.750-
   2  0.250  0.250  0.250-
   3  0.000  0.000  0.000-   5 2.72   6 2.72   7 2.72   8 2.72   9 2.72  10 2.72
   4  0.500  0.500  0.500-   5 2.46   6 2.46   7 2.46   8 2.46   9 2.46  10 2.46
   5  0.738  0.262  0.262-   4 2.46   3 2.72
   6  0.262  0.262  0.738-   4 2.46   3 2.72
   7  0.262  0.738  0.738-   4 2.46   3 2.72
   8  0.262  0.738  0.262-   4 2.46   3 2.72
   9  0.738  0.262  0.738-   4 2.46   3 2.72
  10  0.738  0.738  0.262-   4 2.46   3 2.72

  LATTYP: Found a face centered cubic cell.
 ALAT       =    10.3568200000

  Lattice vectors:

 A1 = (   0.0000000000,   5.1784100000,   5.1784100000)
 A2 = (   5.1784100000,   0.0000000000,   5.1784100000)
 A3 = (   5.1784100000,   5.1784100000,   0.0000000000)

Analysis of symmetry for initial positions (statically):
 Subroutine PRICEL returns:
 Original cell was already a primitive cell.

 Routine SETGRP: Setting up the symmetry group for a
 face centered cubic supercell.

 Subroutine GETGRP returns: Found 48 space group operations
 (whereof 48 operations were pure point group operations)
 out of a pool of 48 trial point group operations.

The static configuration has the point symmetry O_h .

Analysis of symmetry for dynamics (positions and initial velocities):
 Subroutine PRICEL returns:
 Original cell was already a primitive cell.

[...]

The dynamic configuration has the point symmetry O_h .

Analysis of structural, dynamic, and magnetic symmetry:
 Subroutine PRICEL returns:
 Original cell was already a primitive cell.

 Routine SETGRP: Setting up the symmetry group for a
 face centered cubic supercell.

 Subroutine GETGRP returns: Found 48 space group operations
 (whereof 48 operations were pure point group operations)
 out of a pool of 48 trial point group operations.

The overall configuration has the point symmetry O_h .

 Subroutine INISYM returns: Found 48 space group operations
 (whereof 48 operations are pure point group operations),
 and found     1 'primitive' translations

                                     Primitive cell

  volume of cell :     277.7278

  direct lattice vectors                    reciprocal lattice vectors
     0.000000000  5.178410000  5.178410000    -0.096554734  0.096554734  0.096554734
     5.178410000  0.000000000  5.178410000     0.096554734 -0.096554734  0.096554734
     5.178410000  5.178410000  0.000000000     0.096554734  0.096554734 -0.096554734

  length of vectors
     7.323377654  7.323377654  7.323377654     0.167237705  0.167237705  0.167237705

  position of ions in fractional coordinates (direct lattice)
     0.750000000  0.750000000  0.750000000
     0.250000000  0.250000000  0.250000000
     0.000000000  0.000000000  0.000000000
     0.500000000  0.500000000  0.500000000
     0.737544000  0.262456000  0.262456000
     0.262456000  0.262456000  0.737544000
     0.262456000  0.737544000  0.737544000
     0.262456000  0.737544000  0.262456000
     0.737544000  0.262456000  0.737544000
     0.737544000  0.737544000  0.262456000

  ion indices of the primitive-cell ions
   primitive index   ion index
                 1           1
                 2           2
                 3           3
                 4           4
                 5           5
                 6           6
                 7           7
                 8           8
                 9           9
                10          10

 KPOINTS: Kpoints from vasprun.xml

Automatic generation of k-mesh.
 Grid dimensions read from file:
 generate k-points for:    4    4    4

 Generating k-lattice:

  Cartesian coordinates                     Fractional coordinates (reciprocal lattice)
    -0.024138683  0.024138683  0.024138683     0.250000000  0.000000000  0.000000000
     0.024138683 -0.024138683  0.024138683     0.000000000  0.250000000 -0.000000000
     0.024138683  0.024138683 -0.024138683    -0.000000000 -0.000000000  0.250000000

  Length of vectors
     0.041809426  0.041809426  0.041809426

  Shift w.r.t. Gamma in fractional coordinates (k-lattice)
     0.000000000  0.000000000  0.000000000

 TETIRR: Found      9 inequivalent tetrahedra from      384

 Subroutine IBZKPT returns following result:

 Found      8 irreducible k-points:

 Following reciprocal coordinates:
            Coordinates               Weight
  0.000000  0.000000  0.000000      1.000000
  0.250000  0.000000  0.000000      8.000000
  0.500000  0.000000  0.000000      4.000000
  0.250000  0.250000  0.000000      6.000000
  0.500000  0.250000  0.000000     24.000000
 -0.250000  0.250000  0.000000     12.000000
  0.500000  0.500000  0.000000      3.000000
 -0.250000  0.500000  0.250000      6.000000

 Following cartesian coordinates:
            Coordinates               Weight
  0.000000  0.000000  0.000000      1.000000
 -0.024139  0.024139  0.024139      8.000000
 -0.048277  0.048277  0.048277      4.000000
  0.000000  0.000000  0.048277      6.000000
 -0.024139  0.024139  0.072416     24.000000
  0.048277 -0.048277  0.000000     12.000000
  0.000000  0.000000  0.096555      3.000000
  0.096555 -0.048277  0.000000      6.000000

 SYSTEM =  unknown system
 POSCAR =  Na2 Eu1 Cu1 Cl6

 Startparameter for this run:
   NWRITE =      2    write-flag & timer
   PREC   = accura    normal or accurate (medium, high low for compatibility)
   ISTART =      0    job   : 0-new  1-cont  2-samecut
   ICHARG =      0    charge: 1-file 2-atom 10-const
   ISPIN  =      2    spin polarized calculation?
   LNONCOLLINEAR =      F non collinear calculations
   LSORBIT =      F    spin-orbit coupling
   INIWAV =      1    electr: 0-lowe 1-rand  2-diag
   LASPH  =      T    aspherical Exc in radial PAW
 Electronic Relaxation 1
   ENCUT  =  520.0 eV  38.22 Ry    6.18 a.u.  13.62 13.62 13.62*2*pi/ulx,y,z
   ENINI  =  520.0     initial cutoff
   ENAUG  =  758.2 eV  augmentation charge cutoff
   NELM   =   1000;   NELMIN=  2; NELMDL= -5     # of ELM steps
   EDIFF  = 0.5E-03   stopping-criterion for ELM
   LREAL  =      T    real-space projection
   NLSPLINE    = F    spline interpolate recip. space projectors
   LCOMPAT=      F    compatible to vasp.4.4
   GGA_COMPAT  = T    GGA compatible to vasp.4.4-vasp.4.6
   LMAXPAW     = -100 max onsite density
   LMAXMIX     =    2 max onsite mixed and CHGCAR
   VOSKOWN=      0    Vosko Wilk Nusair interpolation
   ROPT   =   -0.00025  -0.00025  -0.00025  -0.00025
 Ionic relaxation
   EDIFFG = 0.5E-02   stopping-criterion for IOM
   NSW    =      0    number of steps for IOM
   NBLOCK =      1;   KBLOCK =      1    inner block; outer block
   IBRION =     -1    ionic relax: 0-MD 1-quasi-New 2-CG
   NFREE  =      0    steps in history (QN), initial steepest desc. (CG)
   ISIF   =      3    stress and relaxation
   IWAVPR =     10    prediction:  0-non 1-charg 2-wave 3-comb
   ISYM   =      2    0-nonsym 1-usesym 2-fastsym
   LCORR  =      T    Harris-Foulkes like correction to forces

   POTIM  = 0.5000    time-step for ionic-motion
   TEIN   =    0.0    initial temperature
   TEBEG  =    0.0;   TEEND  =   0.0 temperature during run
   SMASS  =  -3.00    Nose mass-parameter (am)
   estimated Nose-frequenzy (Omega)   =  0.10E-29 period in steps = 0.13E+47 mass=  -0.123E-26a.u.
   SCALEE = 1.0000    scale energy and forces
   NPACO  =    256;   APACO  = 10.0  distance and # of slots for P.C.
   PSTRESS=    0.0 pullay stress

  Mass of Ions in am
   POMASS =  22.99151.97 63.55 35.45
  Ionic Valenz
   ZVAL   =   7.00 17.00 17.00  7.00
  Atomic Wigner-Seitz radii
  virtual crystal weights
   VCA    =   1.00  1.00  1.00  1.00
   NELECT =      90.0000    total number of electrons
   NUPDOWN=      -1.0000    fix difference up-down

[...]
  318                map_forward                           0.000222                    4   7
  319                  map_gather                            0.000044                  2   8
  320                  m_alltoallv_z                         0.000025                  2   8
  321                  map_scatter                           0.000122                  2   8
  322                map_backward                          0.000091                    2   7
  323                  map_gather                            0.000024                  1   8
  324                  m_alltoallv_z                         0.000011                  1   8
  325                  map_scatter                           0.000042                  1   8
  326          m_sumb_d                              0.000010                          2   4
  327          pothar                                0.000086                          1   4
  328            m_sumb_d                              0.000013                        1   5
  329        brmix                                 0.009447                            1   3
  330          m_sumb_d                              0.000048                          6   4
  331          brpre                                 0.000035                          2   4
  332          setg0                                 0.001115                          1   4
  333          broyd                                 0.006995                          1   4
  334            m_sumb_d                              0.000320                       50   5
  335            brget                                 0.001449                      224   5
  336            brsav                                 0.000303                       48   5
  337        m_bcast_d                             0.000017                            2   3
  338      potlok                                0.041368                              2   2
  339        fft3d_mpi                             0.025524                           36   3
  340          fftbrc_mpi                            0.022137                         36   4
  341            fftbas_plan_mpi                       0.022118                       36   5
  342              map_forward                           0.006271                     40   6
  343                map_gather                            0.001879                   24   7
  344                m_alltoallv_z                         0.002404                   24   7
  345                map_scatter                           0.001784                   24   7
  346              map_backward                          0.005125                     32   6
  347                map_gather                            0.001731                   16   7
  348                m_alltoallv_z                         0.001689                   16   7
  349                map_scatter                           0.001509                   16   7
  350              dfftw_execute                         0.009156                     30   6
  351        m_sumb_d                              0.000027                            5   3
  352        pothar                                0.001563                            2   3
  353          m_sumb_d                              0.000027                          2   4
  354        m_bcast_d                             0.002598                            4   3
  355      potlok_metagga                        0.000000                              1   2
  356      set_dd_magatom                        0.000005                              1   2
  357      set_dd_paw                            1.146152                              1   2
  358        m_sumb_d                              0.460605                            7   3
  359      augmentation_charge                   0.109466                              1   2
  360        fft3d_mpi                             0.059268                            2   3
  361          fftbrc_mpi                            0.053308                          2   4
  362            fftbas_plan_mpi                       0.053305                        2   5
  363              dfftw_execute                         0.035913                      6   6
  364              map_backward                          0.017099                      4   6
  365                map_gather                            0.004297                    2   7
  366                m_alltoallv_z                         0.006540                    2   7
  367                map_scatter                           0.006250                    2   7
  368      fftwav_mpi                            0.819502                            720   2
  369        fftwav                                0.818570                          720   3
  370          fft3d                                 0.760304                        720   4
  371      densta                                0.072778                              1   2

 Flat profile

 set_dd_paw                             68.004105         101
 m_sumb_d                               65.814576      157291
 eddav                                  23.833576         103
 lapack                                 21.259085       49047
 raccmu_                                19.705884       49047
 init_acc                               10.873077           1
 redis_pw                               10.848641      250918
 total_time                              9.992672           1
 dfftw_execute                           9.362839        2868
 setdij_                                 5.726969         127
 augmentation_charge                     4.956234         101
 m_alltoall_d                            4.674380      661310
 phaser                                  3.506255        1752
 fft3d                                   2.949352      270502
 eccp                                    2.462645       24720
 acc_init_cublas                         2.445858           1
 redis_proj                              2.110730      316984
 m_alltoallv_z                           1.904133        4003
 fftwav                                  1.790705      179732
 orth1                                   1.573996      147173
 map_scatter                             1.559507        4003
 fft3d_mpi                               1.413546       94351
 racc0mu_acc                             1.389153       49047
 w1_copy                                 1.334638      272310
 hamiltmu                                1.317861       49047
 overl                                   1.297539      156836
 soft_charge                             1.276284         100
 set_charge                              1.206524         100
 rpromu_acc                              1.146868       36695
 map_gather                              1.092671        4003
 m_bcast_z                               1.081320       50007
 ggemm                                   0.917060       62231
 setup_precond                           0.895696       24720
 m_bcast_d                               0.797597       98301
 acc_init_cusolver                       0.788377           1
 overl_mu                                0.753753       49047
 pw_charge                               0.605896       19072
 densta                                  0.492389         104
 potlok                                  0.458570         101
 vhamil                                  0.415177       90770
 newband                                 0.413193       50695
 kinhamil                                0.410976       90770
 depsum                                  0.395974         100
 fftext_mpi                              0.384516       90770
 broyd                                   0.380106          99
 apply_precond                           0.362629       66050
 fftwav_mpi                              0.236405      179732
 elmin                                   0.201029           1
 brmix                                   0.198649          99
 fftbas_plan_mpi                         0.195812        3581
 rpro_isp                                0.182782         104
 acc_cufft_makeplan                      0.130794          19
 brget                                   0.118271       18452
 setg0                                   0.111525         101
 rspher_all                              0.107633          14
 lincom                                  0.056936        1664
 proall                                  0.045372           1
 w1_projall                              0.035652       35863
 brsav                                   0.031475        5057
 sphpro_fast                             0.027506           2
 map_forward                             0.021445        3392
 map_backward                            0.020949        3770
 force_and_stress                        0.010159           1
 fft_gq                                  0.009632         100
 pothar                                  0.009442         102
 truncate_high_frequency_w1              0.009210      115490
 orthch                                  0.007793           1
 stufak                                  0.006163           1
 choleski                                0.006100          16
 inisym                                  0.005136           1
 brpre                                   0.003580         198
 forhar                                  0.002426           2
 strnlr                                  0.002395           1
 strelo                                  0.002236           1
 fftbrc_mpi                              0.002125        3581
 strehar                                 0.001633           1
 forloc                                  0.001289           1
 fornlr                                  0.000853           1
 strkin                                  0.000464           1
 set_dd_magatom                          0.000455         101
 vectorpot                               0.000426         100
 fewald                                  0.000344           1
 chggra                                  0.000233           1
 brgrid                                  0.000209           1
 rsp                                     0.000199           1
 posmap                                  0.000090           2
 fordep                                  0.000047           1
 crpa_reader                             0.000027           1
 rcp                                     0.000021           1
 potlok_metagga                          0.000012         100
 acc_cufft_makeplans                     0.000010           3
 rotate_active_occupied_orbital          0.000000           1
 redis_pw_over_bands                     0.000000           1
  summed up times     298.1884789466858

 Accumulative profile

 total_time                            298.188479           1
 elmin                                 265.454893           1
 eddav                                 124.634973         103
 set_dd_paw                            114.121349         101
 m_sumb_d                               65.814576      157291
 hamiltmu                               25.046154       49047
 raccmu_                                21.848790       49047
 lapack                                 21.259085       49047
 fft3d_mpi                              16.214635       94351
 set_charge                             15.742332         100
 setdij_                                14.367056         127
 fftbrc_mpi                             14.159480        3581
 fftbas_plan_mpi                        14.157356        3581
 redis_pw                               13.135434      250918
 init_acc                               10.873077           1
 augmentation_charge                    10.834215         101
 dfftw_execute                           9.362839        2868
 newband                                 5.640730       50695
 force_and_stress                        4.966181           1
 m_alltoall_d                            4.674380      661310
 redis_proj                              4.498316      316984
 fftwav_mpi                              4.334854      179732
 fftwav                                  4.098449      179732
 phaser                                  3.506255        1752
 soft_charge                             3.210808         100
 fft3d                                   2.949352      270502
 eccp                                    2.462645       24720
 acc_init_cublas                         2.445858           1
 map_forward                             2.326065        3392
 map_backward                            2.272640        3770
 m_alltoallv_z                           1.904133        4003
 orth1                                   1.573996      147173
 map_scatter                             1.559507        4003
 kinhamil                                1.464326       90770
 racc0mu_acc                             1.389153       49047
 w1_copy                                 1.334638      272310
 overl                                   1.297539      156836
 rpromu_acc                              1.146868       36695
 potlok                                  1.101518         101
 map_gather                              1.092671        4003
 m_bcast_z                               1.081320       50007
 fftext_mpi                              1.053350       90770
 w1_projall                              1.038621       35863
 ggemm                                   0.917060       62231
 setup_precond                           0.895696       24720
 brmix                                   0.880162          99
 m_bcast_d                               0.797597       98301
 acc_init_cusolver                       0.788377           1
 overl_mu                                0.753753       49047
 fordep                                  0.677025           1
 pw_charge                               0.605896       19072
 broyd                                   0.556644          99
 strnlr                                  0.527123           1
 densta                                  0.492389         104
 rpro_isp                                0.420878         104
 vhamil                                  0.415177       90770
 depsum                                  0.411571         100
 apply_precond                           0.362629       66050
 fft_gq                                  0.240978         100
 orthch                                  0.215336           1
 fornlr                                  0.176086           1
 acc_cufft_makeplans                     0.130804           3
 acc_cufft_makeplan                      0.130794          19
 brget                                   0.118271       18452
 setg0                                   0.111525         101
 rspher_all                              0.107633          14
 proall                                  0.075647           1
 lincom                                  0.056936        1664
 brsav                                   0.031475        5057
 sphpro_fast                             0.028508           2
 pothar                                  0.010322         102
 truncate_high_frequency_w1              0.009210      115490
 stufak                                  0.006163           1
 choleski                                0.006100          16
 inisym                                  0.005226           1
 brpre                                   0.003580         198
 forhar                                  0.002439           2
 strelo                                  0.002252           1
 strehar                                 0.001690           1
 fewald                                  0.001519           1
 forloc                                  0.001302           1
 chggra                                  0.000831           1
 strkin                                  0.000476           1
 set_dd_magatom                          0.000455         101
 vectorpot                               0.000426         100
 brgrid                                  0.000209           1
 rsp                                     0.000199           1
 posmap                                  0.000090           2
 crpa_reader                             0.000027           1
 rcp                                     0.000021           1
 potlok_metagga                          0.000012         100
 rotate_active_occupied_orbital          0.000000           1
 redis_pw_over_bands                     0.000000           1

Profiling took   0.578274  0.284977  0.003431  0.003337 seconds
Profiling took   0.363076 seconds