 vasp.6.3.2 27Jun22 (build Jul  3 2023 11:46:21) complex
 executed on    LinuxNV_CrayMPICH date 2024.04.18  01:53:37

 INCAR:
   ADDGRID = True
   ALGO = Normal
   AMIX_MAG = 0.8
   BMIX = 0.001
   BMIX_MAG = 0.001
   EDIFF = 0.0006
   ENCUT = 520.0
   IBRION = -1
   ICHARG = 0
   ISIF = 3
   ISMEAR = -5
   ISPIN = 2
   ISTART = 1
   ISYM = 0
   LAECHG = True
   LASPH = True
   LCHARG = True
   LORBIT = 11
   LREAL = Auto
   LVHAR = True
   LWAVE = False
   MAGMOM = 2*7.0 2*0.001 1*-0.002 1*-0.003 1*-0.002 1*-0.003 4*0.0
   NELM = 1000
   NELMDL = -6
   NSW = 0
   PREC = Accurate
   SIGMA = 0.05

 POTCAR:    PAW_PBE Eu 23Dec2003
 POTCAR:    PAW_PBE Ta_pv 07Sep2000
 POTCAR:    PAW_PBE O 08Apr2002
 POTCAR:    PAW_PBE Eu 23Dec2003
   VRHFIN =Eu : [core=Kr4d]

   TITEL  = PAW_PBE Eu 23Dec2003
   POMASS =  151.965; ZVAL   =   17.000    mass and valenz
   ENMAX  =  249.668; ENMIN  =  187.251 eV

   TITEL  = PAW_PBE Ta_pv 07Sep2000
   POMASS =  180.948; ZVAL   =   11.000    mass and valenz
   ENMAX  =  223.667; ENMIN  =  167.750 eV

   TITEL  = PAW_PBE O 08Apr2002
   POMASS =   16.000; ZVAL   =    6.000    mass and valenz
   ENMAX  =  400.000; ENMIN  =  300.000 eV

 Optimization of the real space projectors (new method)

 maximal supplied QI-value         = 13.42
 optimisation between [QCUT,QGAM] = [ 11.67, 23.35] = [ 38.16,152.62] Ry
 Optimized for a Real-space Cutoff    1.63 Angstroem

   l    n(q)    QCUT    max X(q) W(low)/X(q) W(high)/X(q)  e(spline)
   0     11    11.673    10.400    0.14E-04    0.18E-05    0.24E-07
   0     11    11.673    10.768    0.21E-04    0.32E-05    0.49E-07
   1     11    11.673     4.094    0.40E-05    0.13E-04    0.93E-07
   1     11    11.673     4.009    0.11E-04    0.46E-04    0.33E-06
   2     10    11.673    29.030    0.79E-04    0.60E-04    0.70E-06
   2     10    11.673    19.941    0.80E-04    0.60E-04    0.71E-06
   3     10    11.673    88.889    0.23E-03    0.29E-03    0.30E-06
   3     10    11.673    76.102    0.23E-03    0.30E-03    0.30E-06
 Optimization of the real space projectors (new method)

[...]

   l    n(q)    QCUT    max X(q) W(low)/X(q) W(high)/X(q)  e(spline)
   1     11    11.641     4.092    0.14E-04    0.12E-05    0.47E-07
   1     11    11.641     4.834    0.39E-04    0.18E-04    0.22E-06
   2     10    11.641    62.294    0.58E-04    0.39E-03    0.13E-05
   2     10    11.641    50.966    0.58E-04    0.39E-03    0.13E-05
   0     11    11.641   103.792    0.30E-04    0.35E-04    0.21E-06
   0     11    11.641    56.335    0.22E-04    0.32E-04    0.20E-06
 Optimization of the real space projectors (new method)

 maximal supplied QI-value         = 24.76
 optimisation between [QCUT,QGAM] = [ 11.64, 23.27] = [ 37.91,151.63] Ry
 Optimized for a Real-space Cutoff    1.14 Angstroem

   l    n(q)    QCUT    max X(q) W(low)/X(q) W(high)/X(q)  e(spline)
   0      8    11.635    20.381    0.10E-03    0.33E-03    0.24E-06
   0      8    11.635    15.268    0.11E-03    0.35E-03    0.26E-06
   1      7    11.635     5.964    0.24E-03    0.31E-03    0.30E-06
   1      7    11.635     5.382    0.22E-03    0.25E-03    0.26E-06
  PAW_PBE Eu 23Dec2003                  :
  PAW_PBE Ta_pv 07Sep2000               :
  PAW_PBE O 08Apr2002                   :

 POSCAR: Eu2 Ta2 O8
  positions in direct lattice
 exchange correlation table for  LEXCH =        8
   RHO(1)=    0.500       N(1)  =     2000
   RHO(2)=  100.500       N(2)  =     4000

 VTST: version 4.2, (08/11/21)

 CHAIN: initializing optimizer

 OPT: Using VASP Dynamics algorithm
 CHAIN: Read ICHAIN             0

 POSCAR: Eu2 Ta2 O8
  positions in direct lattice

 ion  position               nearest neighbor table
   1  0.778  0.000  0.750-  11 2.35  12 2.35   5 2.40   6 2.40   9 2.43  10 2.43   7 2.75   8 2.75

   2  0.222  0.000  0.250-   9 2.35  10 2.35   7 2.40   8 2.40  11 2.43  12 2.43   5 2.75   6 2.75

[...]

   5  0.570  0.280  0.993-   3 2.01   4 2.17   1 2.40   2 2.75
   6  0.570  0.720  0.507-   3 2.01   4 2.17   1 2.40   2 2.75
   7  0.430  0.720  0.007-   4 2.01   3 2.17   2 2.40   1 2.75
   8  0.430  0.280  0.493-   4 2.01   3 2.17   2 2.40   1 2.75
   9  0.100  0.747  0.613-   4 1.90   2 2.35   1 2.43
  10  0.100  0.253  0.887-   4 1.90   2 2.35   1 2.43
  11  0.900  0.253  0.387-   3 1.90   1 2.35   2 2.43
  12  0.900  0.747  0.113-   3 1.90   1 2.35   2 2.43

IMPORTANT INFORMATION: All symmetrisations will be switched off!
NOSYMM: (Re-)initialisation of all symmetry stuff for point group C_1.

                                     Primitive cell

  volume of cell :     161.2803

  direct lattice vectors                    reciprocal lattice vectors
     5.687741000  0.000000000  0.000000000     0.175816726  0.000000000  0.000000000
     0.000000000  5.258577000  0.000000000     0.000000000  0.190165514 -0.022491466
     0.000000000  0.637763000  5.392291000     0.000000000  0.000000000  0.185449932

  length of vectors
     5.687741000  5.258577000  5.429875125     0.175816726  0.191490963  0.185449932

  position of ions in fractional coordinates (direct lattice)
     0.778051000  0.000000000  0.750000000
     0.221949000  0.000000000  0.250000000
     0.679170000  0.500000000  0.250000000
     0.320830000  0.500000000  0.750000000
     0.569710000  0.280363000  0.993189000
     0.569710000  0.719637000  0.506811000
     0.430290000  0.719637000  0.006811000
     0.430290000  0.280363000  0.493189000
     0.099556000  0.746785000  0.612745000
     0.099556000  0.253215000  0.887255000
     0.900444000  0.253215000  0.387255000
     0.900444000  0.746785000  0.112745000

  ion indices of the primitive-cell ions
   primitive index   ion index
                 1           1
                 2           2
                 3           3
                 4           4
                 5           5
                 6           6
                 7           7
                 8           8
                 9           9
                10          10
                11          11
                12          12

 KPOINTS: Kpoints from vasprun.xml

Automatic generation of k-mesh.
 Grid dimensions read from file:
 generate k-points for:    5    5    5

 Generating k-lattice:

  Cartesian coordinates                     Fractional coordinates (reciprocal lattice)
     0.035163345  0.000000000  0.000000000     0.200000000  0.000000000  0.000000000
     0.000000000  0.038033103 -0.004498293     0.000000000  0.200000000  0.000000000
     0.000000000  0.000000000  0.037089986     0.000000000  0.000000000  0.200000000

  Length of vectors
     0.035163345  0.038298193  0.037089986

  Shift w.r.t. Gamma in fractional coordinates (k-lattice)
     0.000000000  0.000000000  0.000000000

 TETIRR: Found    372 inequivalent tetrahedra from      750

 Subroutine IBZKPT returns following result:

 Found     63 irreducible k-points:

 Following reciprocal coordinates:
            Coordinates               Weight
  0.000000  0.000000  0.000000      1.000000
  0.200000  0.000000  0.000000      2.000000
  0.400000  0.000000  0.000000      2.000000
  0.000000  0.200000  0.000000      2.000000
  0.200000  0.200000  0.000000      2.000000
  0.200000 -0.200000  0.000000      2.000000
  0.400000  0.200000  0.000000      2.000000
  0.400000 -0.200000  0.000000      2.000000
  0.000000  0.400000  0.000000      2.000000
  0.200000  0.400000  0.000000      2.000000
  0.200000 -0.400000  0.000000      2.000000
  0.400000  0.400000  0.000000      2.000000
  0.400000 -0.400000  0.000000      2.000000
  0.000000  0.000000  0.200000      2.000000
  0.200000  0.000000  0.200000      2.000000
  0.200000  0.000000 -0.200000      2.000000
  0.400000  0.000000  0.200000      2.000000
  0.400000  0.000000 -0.200000      2.000000
  0.000000  0.200000  0.200000      2.000000
  0.200000  0.200000  0.200000      2.000000
  0.200000 -0.200000 -0.200000      2.000000
  0.400000  0.200000  0.200000      2.000000
  0.400000 -0.200000 -0.200000      2.000000
  0.000000  0.400000  0.200000      2.000000
  0.200000  0.400000  0.200000      2.000000
  0.200000 -0.400000 -0.200000      2.000000
  0.400000  0.400000  0.200000      2.000000
  0.400000 -0.400000 -0.200000      2.000000
  0.000000 -0.400000  0.200000      2.000000
  0.200000 -0.400000  0.200000      2.000000
  0.200000  0.400000 -0.200000      2.000000
  0.400000 -0.400000  0.200000      2.000000
  0.400000  0.400000 -0.200000      2.000000
  0.000000 -0.200000  0.200000      2.000000
  0.200000 -0.200000  0.200000      2.000000
  0.200000  0.200000 -0.200000      2.000000
  0.400000 -0.200000  0.200000      2.000000
  0.400000  0.200000 -0.200000      2.000000
  0.000000  0.000000  0.400000      2.000000
  0.200000  0.000000  0.400000      2.000000
  0.200000  0.000000 -0.400000      2.000000
  0.400000  0.000000  0.400000      2.000000
  0.400000  0.000000 -0.400000      2.000000
  0.000000  0.200000  0.400000      2.000000
  0.200000  0.200000  0.400000      2.000000
  0.200000 -0.200000 -0.400000      2.000000
  0.400000  0.200000  0.400000      2.000000
  0.400000 -0.200000 -0.400000      2.000000
  0.000000  0.400000  0.400000      2.000000
  0.200000  0.400000  0.400000      2.000000
  0.200000 -0.400000 -0.400000      2.000000
  0.400000  0.400000  0.400000      2.000000
  0.400000 -0.400000 -0.400000      2.000000
  0.000000 -0.400000  0.400000      2.000000
  0.200000 -0.400000  0.400000      2.000000
  0.200000  0.400000 -0.400000      2.000000
  0.400000 -0.400000  0.400000      2.000000
  0.400000  0.400000 -0.400000      2.000000
  0.000000 -0.200000  0.400000      2.000000
  0.200000 -0.200000  0.400000      2.000000
  0.200000  0.200000 -0.400000      2.000000
  0.400000 -0.200000  0.400000      2.000000
  0.400000  0.200000 -0.400000      2.000000

 Following cartesian coordinates:
            Coordinates               Weight
  0.000000  0.000000  0.000000      1.000000
  0.035163  0.000000  0.000000      2.000000
  0.070327  0.000000  0.000000      2.000000
  0.000000  0.038033 -0.004498      2.000000
  0.035163  0.038033 -0.004498      2.000000
  0.035163 -0.038033  0.004498      2.000000
  0.070327  0.038033 -0.004498      2.000000
  0.070327 -0.038033  0.004498      2.000000
  0.000000  0.076066 -0.008997      2.000000
  0.035163  0.076066 -0.008997      2.000000
  0.035163 -0.076066  0.008997      2.000000
  0.070327  0.076066 -0.008997      2.000000
  0.070327 -0.076066  0.008997      2.000000
  0.000000  0.000000  0.037090      2.000000
  0.035163  0.000000  0.037090      2.000000
  0.035163  0.000000 -0.037090      2.000000
  0.070327  0.000000  0.037090      2.000000
  0.070327  0.000000 -0.037090      2.000000
  0.000000  0.038033  0.032592      2.000000
  0.035163  0.038033  0.032592      2.000000
  0.035163 -0.038033 -0.032592      2.000000
  0.070327  0.038033  0.032592      2.000000
  0.070327 -0.038033 -0.032592      2.000000
  0.000000  0.076066  0.028093      2.000000
  0.035163  0.076066  0.028093      2.000000
  0.035163 -0.076066 -0.028093      2.000000
  0.070327  0.076066  0.028093      2.000000
  0.070327 -0.076066 -0.028093      2.000000
  0.000000 -0.076066  0.046087      2.000000
  0.035163 -0.076066  0.046087      2.000000
[...]
  280        strehar                               0.000882                            1   3
  281          m_sumb_d                              0.000072                          1   4
  282        chggra                                0.000730                            1   3
  283          fft3d_mpi                             0.000432                          3   4
  284            fftbrc_mpi                            0.000336                        3   5
  285              fftbas_plan_mpi                       0.000336                      3   6
  286                map_forward                           0.000175                    4   7
  287                  map_gather                            0.000039                  2   8
  288                  m_alltoallv_z                         0.000024                  2   8
  289                  map_scatter                           0.000084                  2   8
  290                map_backward                          0.000076                    2   7
  291                  map_gather                            0.000019                  1   8
  292                  m_alltoallv_z                         0.000011                  1   8
  293                  map_scatter                           0.000032                  1   8
  294          m_sumb_d                              0.000009                          2   4
  295          pothar                                0.000074                          1   4
  296            m_sumb_d                              0.000006                        1   5
  297        brmix                                 0.003775                            1   3
  298          m_sumb_d                              0.000024                          6   4
  299          brpre                                 0.000017                          2   4
  300          setg0                                 0.000473                          1   4
  301          broyd                                 0.002697                          1   4
  302            m_sumb_d                              0.000175                       39   5
  303            brget                                 0.000605                      169   5
  304            brsav                                 0.000129                       37   5
  305        m_bcast_d                             0.000029                            2   3
  306      potlok                                0.019810                              2   2
  307        fft3d_mpi                             0.013012                           36   3
  308          fftbrc_mpi                            0.011158                         36   4
  309            fftbas_plan_mpi                       0.011136                       36   5
  310              map_forward                           0.003336                     40   6
  311                map_gather                            0.001085                   24   7
  312                m_alltoallv_z                         0.001113                   24   7
  313                map_scatter                           0.000956                   24   7
  314              map_backward                          0.002721                     32   6
  315                map_gather                            0.000847                   16   7
  316                m_alltoallv_z                         0.000896                   16   7
  317                map_scatter                           0.000806                   16   7
  318              dfftw_execute                         0.003481                     30   6
  319        m_sumb_d                              0.000023                            5   3
  320        pothar                                0.000748                            2   3
  321          m_sumb_d                              0.000072                          2   4
  322        m_bcast_d                             0.001146                            4   3
  323      potlok_metagga                        0.000000                              1   2
  324      set_dd_magatom                        0.000004                              1   2
  325      set_dd_paw                            1.361891                              1   2
  326        m_sumb_d                              0.451896                            7   3
  327      augmentation_charge                   0.061985                              1   2
  328        fft3d_mpi                             0.018533                            2   3
  329          fftbrc_mpi                            0.016513                          2   4
  330            fftbas_plan_mpi                       0.016511                        2   5
  331              dfftw_execute                         0.010750                      6   6
  332              map_backward                          0.005551                      4   6
  333                map_gather                            0.001417                    2   7
  334                m_alltoallv_z                         0.002855                    2   7
  335                map_scatter                           0.001273                    2   7
  336      densta                                7.856167                              1   2

 Flat profile

 eddav                                  75.958363          38
 lapack                                 72.515587      159260
 m_sumb_d                               62.442335      485465
 raccmu_                                39.116117      159260
 redis_pw                               31.883260      879204
 set_dd_paw                             31.630872          35
 m_alltoall_d                           16.153621     2327164
 densta                                 14.337282          39
 init_acc                               10.978914           1
 phaser                                  9.227331        5607
 total_time                              8.985806           1
 eccp                                    7.616825       86184
 redis_proj                              7.395947     1111666
 fft3d                                   6.981382      954930
 fftwav                                  6.168909      636410
 orth1                                   4.999105      478158
 rpromu_acc                              4.707804      124358
 racc0mu_acc                             4.681801      159260
 w1_copy                                 4.593822      955560
 overl                                   4.566467      550982
 hamiltmu                                3.787113      159260
 m_bcast_z                               3.543514      168332
 soft_charge                             3.520623          33
 setup_precond                           3.103620       86184
 m_bcast_d                               2.637128      318595
 setdij_                                 2.457123          61
 overl_mu                                2.442585      159260
 acc_init_cublas                         2.439940           1
 ggemm                                   2.072742      202352
 rpro_isp                                1.579121         819
 pw_charge                               1.492039       56070
 vhamil                                  1.479072      318520
 augmentation_charge                     1.475328          34
 kinhamil                                1.457104      318520
 dfftw_execute                           1.414401        1212
 fftext_mpi                              1.346357      318520
 newband                                 1.300245      164048
 apply_precond                           1.266725      232336
 depsum                                  1.228183          33
 fftwav_mpi                              0.848965      636410
 acc_init_cusolver                       0.828768           1
 m_alltoallv_z                           0.495355        1449
 fft3d_mpi                               0.328884      319833
 sphpro_fast                             0.249006           2
 map_scatter                             0.193896        1449
 map_gather                              0.192494        1449
 lincom                                  0.162130        4914
 acc_cufft_makeplan                      0.120682          19
 w1_projall                              0.110267      116168
 rspher_all                              0.104921          14
 potlok                                  0.104700          35
 elmin                                   0.094849           1
 fftbas_plan_mpi                         0.079591        1313
 proall                                  0.068429           1
 broyd                                   0.047013          33
 orthch                                  0.045234           1
 truncate_high_frequency_w1              0.033819      404704
 choleski                                0.025527         126
 brmix                                   0.019435          33
 force_and_stress                        0.019378           1
 setg0                                   0.016264          35
 strnlr                                  0.016261           1
 brget                                   0.009127        2931
 map_backward                            0.006721        1374
 map_forward                             0.006530        1252
 set_charge                              0.005777          33
 fornlr                                  0.005607           1
 stufak                                  0.003166           1
 pothar                                  0.003116          36
 brsav                                   0.002195         699
 strelo                                  0.001252           1
 strkin                                  0.001247           1
 forhar                                  0.000981           2
 fft_gq                                  0.000919          33
 strehar                                 0.000810           1
 fftbrc_mpi                              0.000775        1313
 brpre                                   0.000631          66
 forloc                                  0.000544           1
 fewald                                  0.000367           1
 rsp                                     0.000263           1
 chggra                                  0.000215           1
 set_dd_magatom                          0.000160          35
 vectorpot                               0.000139          34
 brgrid                                  0.000120           1
 fordep                                  0.000061           1
 crpa_reader                             0.000028           1
 rcp                                     0.000018           1
 acc_cufft_makeplans                     0.000011           3
 potlok_metagga                          0.000001          34
 rotate_active_occupied_orbital          0.000000           1
 redis_pw_over_bands                     0.000000           1
  summed up times     469.2411658763885

 Accumulative profile

 total_time                            469.241166           1
 elmin                                 426.407693           1
 eddav                                 362.333185          38
 lapack                                 72.515587      159260
 m_sumb_d                               62.442335      485465
 hamiltmu                               56.630014      159260
 set_dd_paw                             47.746864          35
 raccmu_                                46.240503      159260
 redis_pw                               39.815470      879204
 newband                                18.626282      164048
 m_alltoall_d                           16.153621     2327164
 redis_proj                             15.617358     1111666
 densta                                 14.337282          39
 fftwav_mpi                             11.774573      636410
 init_acc                               10.978914           1
 fftwav                                 10.925607      636410
 set_charge                             10.113896          33
 phaser                                  9.227331        5607
 force_and_stress                        8.487072           1
 eccp                                    7.616825       86184
 fft3d                                   6.981382      954930
 soft_charge                             6.812929          33
 kinhamil                                5.123326      318520
 orth1                                   4.999105      478158
 fft3d_mpi                               4.943331      319833
 rpromu_acc                              4.707804      124358
 racc0mu_acc                             4.681801      159260
 w1_copy                                 4.593822      955560
 overl                                   4.566467      550982
 setdij_                                 4.016052          61
 strnlr                                  3.810508           1
 rpro_isp                                3.798753         819
 fftext_mpi                              3.666222      318520
 m_bcast_z                               3.543514      168332
 w1_projall                              3.474293      116168
 setup_precond                           3.103620       86184
 m_bcast_d                               2.637128      318595
 overl_mu                                2.442585      159260
 acc_init_cublas                         2.439940           1
 fftbrc_mpi                              2.389764        1313
 fftbas_plan_mpi                         2.388989        1313
 augmentation_charge                     2.124035          34
 ggemm                                   2.072742      202352
 pw_charge                               1.492039       56070
 vhamil                                  1.479072      318520
 dfftw_execute                           1.414401        1212
 fornlr                                  1.267565           1
 apply_precond                           1.266725      232336
 depsum                                  1.233141          33
 acc_init_cusolver                       0.828768           1
 map_forward                             0.566321        1252
 orthch                                  0.508561           1
 m_alltoallv_z                           0.495355        1449
 potlok                                  0.420527          35
 fordep                                  0.392771           1
 map_backward                            0.328676        1374
 proall                                  0.286161           1
 sphpro_fast                             0.258657           2
 map_scatter                             0.193896        1449
 map_gather                              0.192494        1449
 lincom                                  0.162130        4914
 acc_cufft_makeplans                     0.120693           3
 acc_cufft_makeplan                      0.120682          19
 rspher_all                              0.104921          14
 brmix                                   0.099072          33
 broyd                                   0.061626          33
 fft_gq                                  0.034928          33
 truncate_high_frequency_w1              0.033819      404704
 choleski                                0.025527         126
 setg0                                   0.016264          35
 brget                                   0.009127        2931
 pothar                                  0.003444          36
 stufak                                  0.003166           1
 brsav                                   0.002195         699
 strelo                                  0.001288           1
 strkin                                  0.001252           1
 forhar                                  0.001028           2
 strehar                                 0.000882           1
 fewald                                  0.000775           1
 chggra                                  0.000730           1
 brpre                                   0.000631          66
 forloc                                  0.000581           1
 rsp                                     0.000263           1
 set_dd_magatom                          0.000160          35
 vectorpot                               0.000139          34
 brgrid                                  0.000120           1
 crpa_reader                             0.000028           1
 rcp                                     0.000018           1
 potlok_metagga                          0.000001          34
 rotate_active_occupied_orbital          0.000000           1
 redis_pw_over_bands                     0.000000           1

Profiling took   1.931808  0.966253  0.003200  0.003131 seconds
Profiling took   1.197734 seconds