 vasp.6.3.2 27Jun22 (build Jul  3 2023 11:46:21) complex
 executed on    LinuxNV_CrayMPICH date 2024.04.20  20:23:31

 INCAR:
   ADDGRID = True
   ALGO = Fast
   EDIFF = 0.0001
   ENCUT = 520.0
   IBRION = -1
   ISIF = 3
   ISMEAR = -5
   ISPIN = 2
   LAECHG = True
   LASPH = True
   LCHARG = True
   LORBIT = 11
   LREAL = Auto
   LVHAR = True
   LWAVE = False
   MAGMOM = 1*7.0 3*0.6
   NELM = 1000
   NSW = 0
   PREC = Accurate
   SIGMA = 0.05

 POTCAR:    PAW_PBE Gd 23Dec2003
 POTCAR:    PAW_PBE Mg_pv 13Apr2007
 POTCAR:    PAW_PBE Au 04Oct2007
 POTCAR:    PAW_PBE Gd 23Dec2003
   VRHFIN =Gd : [core=Xe4]

   TITEL  = PAW_PBE Gd 23Dec2003
   POMASS =  157.250; ZVAL   =   18.000    mass and valenz
   ENMAX  =  256.472; ENMIN  =  192.354 eV

   TITEL  = PAW_PBE Mg_pv 13Apr2007
   POMASS =   24.305; ZVAL   =    8.000    mass and valenz
   ENMAX  =  403.929; ENMIN  =  302.947 eV

   TITEL  = PAW_PBE Au 04Oct2007
   POMASS =  196.966; ZVAL   =   11.000    mass and valenz
   ENMAX  =  229.943; ENMIN  =  172.457 eV

 Optimization of the real space projectors (new method)

 maximal supplied QI-value         = 13.42
 optimisation between [QCUT,QGAM] = [ 11.67, 23.35] = [ 38.16,152.62] Ry
 Optimized for a Real-space Cutoff    1.63 Angstroem

   l    n(q)    QCUT    max X(q) W(low)/X(q) W(high)/X(q)  e(spline)
   0     11    11.673    10.501    0.14E-04    0.17E-05    0.21E-07
   0     11    11.673     9.148    0.21E-04    0.32E-05    0.45E-07
   1     11    11.673     4.035    0.33E-05    0.11E-04    0.84E-07
   1     11    11.673     4.388    0.11E-04    0.47E-04    0.34E-06
   2     10    11.673    20.656    0.12E-04    0.28E-04    0.54E-06
   2     10    11.673    12.651    0.11E-04    0.26E-04    0.51E-06
   3     10    11.673    61.921    0.19E-03    0.22E-03    0.23E-06
   3     10    11.673    48.328    0.20E-03    0.23E-03    0.23E-06
 Optimization of the real space projectors (new method)

[...]

   l    n(q)    QCUT    max X(q) W(low)/X(q) W(high)/X(q)  e(spline)
   1      8    11.527     2.974    0.44E-04    0.56E-04    0.12E-06
   1      8    11.527     4.279    0.12E-03    0.12E-03    0.26E-06
   0      9    11.527    16.381    0.46E-04    0.64E-04    0.78E-07
   0      9    11.527     5.611    0.26E-04    0.43E-04    0.55E-07
   2      8    11.527     4.652    0.22E-03    0.72E-04    0.47E-07
 Optimization of the real space projectors (new method)

 maximal supplied QI-value         = 15.12
 optimisation between [QCUT,QGAM] = [ 11.64, 23.28] = [ 37.95,151.78] Ry
 Optimized for a Real-space Cutoff    1.49 Angstroem

   l    n(q)    QCUT    max X(q) W(low)/X(q) W(high)/X(q)  e(spline)
   2      9    11.641    60.898    0.24E-03    0.10E-03    0.19E-06
   2      9    11.641    58.894    0.25E-03    0.10E-03    0.19E-06
   0     10    11.641   109.617    0.73E-04    0.33E-04    0.11E-06
   0     10    11.641    75.026    0.71E-04    0.32E-04    0.11E-06
   1     10    11.641    16.344    0.27E-04    0.97E-04    0.16E-06
   1     10    11.641    10.160    0.23E-04    0.77E-04    0.13E-06
  PAW_PBE Gd 23Dec2003                  :
  PAW_PBE Mg_pv 13Apr2007               :
  PAW_PBE Au 04Oct2007                  :

 POSCAR: Gd1 Mg1 Au2
  positions in direct lattice
 exchange correlation table for  LEXCH =        8
   RHO(1)=    0.500       N(1)  =     2000
   RHO(2)=  100.500       N(2)  =     4000

 VTST: version 4.2, (08/11/21)

 CHAIN: initializing optimizer

 OPT: Using VASP Dynamics algorithm
 CHAIN: Read ICHAIN             0

 POSCAR: Gd1 Mg1 Au2
  positions in direct lattice

 ion  position               nearest neighbor table
   1  0.500  0.500  0.500-   4 3.03   3 3.03   4 3.03   3 3.03   4 3.03   3 3.03   3 3.03   4 3.03

   2  0.000  0.000  0.000-   3 3.03   4 3.03   3 3.03   3 3.03   4 3.03   4 3.03   4 3.03   3 3.03

   3  0.750  0.750  0.750-   1 3.03   2 3.03   1 3.03   1 3.03   2 3.03   2 3.03   2 3.03   1 3.03
                             4 3.50   4 3.50   4 3.50   4 3.50   4 3.50   4 3.50
   4  0.250  0.250  0.250-   2 3.03   1 3.03   2 3.03   1 3.03   2 3.03   1 3.03   1 3.03   2 3.03
                             3 3.50   3 3.50   3 3.50   3 3.50   3 3.50   3 3.50

  LATTYP: Found a face centered cubic cell.
 ALAT       =     7.0063540000

  Lattice vectors:

 A1 = (   0.0000000000,   3.5031770000,   3.5031770000)
 A2 = (   3.5031770000,   0.0000000000,   3.5031770000)
 A3 = (   3.5031770000,   3.5031770000,   0.0000000000)

Analysis of symmetry for initial positions (statically):
 Subroutine PRICEL returns:
 Original cell was already a primitive cell.

 Routine SETGRP: Setting up the symmetry group for a
 face centered cubic supercell.

 Subroutine GETGRP returns: Found 48 space group operations
 (whereof 48 operations were pure point group operations)
 out of a pool of 48 trial point group operations.

The static configuration has the point symmetry O_h .

Analysis of symmetry for dynamics (positions and initial velocities):
 Subroutine PRICEL returns:
 Original cell was already a primitive cell.

[...]

The dynamic configuration has the point symmetry O_h .

Analysis of structural, dynamic, and magnetic symmetry:
 Subroutine PRICEL returns:
 Original cell was already a primitive cell.

 Routine SETGRP: Setting up the symmetry group for a
 face centered cubic supercell.

 Subroutine GETGRP returns: Found 48 space group operations
 (whereof 48 operations were pure point group operations)
 out of a pool of 48 trial point group operations.

The overall configuration has the point symmetry O_h .

 Subroutine INISYM returns: Found 48 space group operations
 (whereof 48 operations are pure point group operations),
 and found     1 'primitive' translations

                                     Primitive cell

  volume of cell :      85.9837

  direct lattice vectors                    reciprocal lattice vectors
     0.000000000  3.503177000  3.503177000    -0.142727587  0.142727587  0.142727587
     3.503177000  0.000000000  3.503177000     0.142727587 -0.142727587  0.142727587
     3.503177000  3.503177000  0.000000000     0.142727587  0.142727587 -0.142727587

  length of vectors
     4.954240425  4.954240425  4.954240425     0.247211432  0.247211432  0.247211432

  position of ions in fractional coordinates (direct lattice)
     0.500000000  0.500000000  0.500000000
     0.000000000  0.000000000  0.000000000
     0.750000000  0.750000000  0.750000000
     0.250000000  0.250000000  0.250000000

  ion indices of the primitive-cell ions
   primitive index   ion index
                 1           1
                 2           2
                 3           3
                 4           4

 KPOINTS: Kpoints from vasprun.xml

Automatic generation of k-mesh.
 Grid dimensions read from file:
 generate k-points for:    6    6    6

 Generating k-lattice:

  Cartesian coordinates                     Fractional coordinates (reciprocal lattice)
    -0.023787931  0.023787931  0.023787931     0.166666667  0.000000000  0.000000000
     0.023787931 -0.023787931  0.023787931     0.000000000  0.166666667 -0.000000000
     0.023787931  0.023787931 -0.023787931    -0.000000000 -0.000000000  0.166666667

  Length of vectors
     0.041201905  0.041201905  0.041201905

  Shift w.r.t. Gamma in fractional coordinates (k-lattice)
     0.500000000  0.500000000  0.500000000

 TETIRR: Found    403 inequivalent tetrahedra from     5184

 Subroutine IBZKPT returns following result:

 Found     28 irreducible k-points:

 Following reciprocal coordinates:
            Coordinates               Weight
  0.083333  0.083333  0.083333      8.000000
  0.250000  0.083333  0.083333     24.000000
  0.416667  0.083333  0.083333     24.000000
 -0.416667  0.083333  0.083333     24.000000
 -0.250000  0.083333  0.083333     24.000000
 -0.083333  0.083333  0.083333     24.000000
  0.250000  0.250000  0.083333     24.000000
  0.416667  0.250000  0.083333     48.000000
 -0.416667  0.250000  0.083333     48.000000
 -0.250000  0.250000  0.083333     48.000000
 -0.083333  0.250000  0.083333     48.000000
  0.416667  0.416667  0.083333     24.000000
 -0.416667  0.416667  0.083333     48.000000
 -0.250000  0.416667  0.083333     48.000000
 -0.083333  0.416667  0.083333     48.000000
 -0.416667 -0.416667  0.083333     24.000000
 -0.250000 -0.416667  0.083333     48.000000
 -0.250000 -0.250000  0.083333     24.000000
  0.250000  0.250000  0.250000      8.000000
  0.416667  0.250000  0.250000     24.000000
 -0.416667  0.250000  0.250000     24.000000
 -0.250000  0.250000  0.250000     24.000000
  0.416667  0.416667  0.250000     24.000000
 -0.416667  0.416667  0.250000     48.000000
 -0.250000  0.416667  0.250000     48.000000
 -0.416667 -0.416667  0.250000     24.000000
  0.416667  0.416667  0.416667      8.000000
 -0.416667  0.416667  0.416667     24.000000

 Following cartesian coordinates:
            Coordinates               Weight
  0.011894  0.011894  0.011894      8.000000
 -0.011894  0.035682  0.035682     24.000000
 -0.035682  0.059470  0.059470     24.000000
  0.083258 -0.059470 -0.059470     24.000000
  0.059470 -0.035682 -0.035682     24.000000
  0.035682 -0.011894 -0.011894     24.000000
  0.011894  0.011894  0.059470     24.000000
 -0.011894  0.035682  0.083258     48.000000
  0.107046 -0.083258 -0.035682     48.000000
  0.083258 -0.059470 -0.011894     48.000000
  0.059470 -0.035682  0.011894     48.000000
  0.011894  0.011894  0.107046     24.000000
  0.130834 -0.107046 -0.011894     48.000000
  0.107046 -0.083258  0.011894     48.000000
  0.083258 -0.059470  0.035682     48.000000
  0.011894  0.011894 -0.130834     24.000000
 -0.011894  0.035682 -0.107046     48.000000
  0.011894  0.011894 -0.083258     24.000000
  0.035682  0.035682  0.035682      8.000000
  0.011894  0.059470  0.059470     24.000000
  0.130834 -0.059470 -0.059470     24.000000
  0.107046 -0.035682 -0.035682     24.000000
  0.035682  0.035682  0.083258     24.000000
  0.154622 -0.083258 -0.035682     48.000000
  0.130834 -0.059470 -0.011894     48.000000
  0.035682  0.035682 -0.154622     24.000000
  0.059470  0.059470  0.059470      8.000000
  0.178409 -0.059470 -0.059470     24.000000

 SYSTEM =  unknown system
 POSCAR =  Gd1 Mg1 Au2

 Startparameter for this run:
   NWRITE =      2    write-flag & timer
   PREC   = accura    normal or accurate (medium, high low for compatibility)
   ISTART =      0    job   : 0-new  1-cont  2-samecut
   ICHARG =      2    charge: 1-file 2-atom 10-const
   ISPIN  =      2    spin polarized calculation?
   LNONCOLLINEAR =      F non collinear calculations
   LSORBIT =      F    spin-orbit coupling
   INIWAV =      1    electr: 0-lowe 1-rand  2-diag
   LASPH  =      T    aspherical Exc in radial PAW
 Electronic Relaxation 1
   ENCUT  =  520.0 eV  38.22 Ry    6.18 a.u.   9.21  9.21  9.21*2*pi/ulx,y,z
   ENINI  =  520.0     initial cutoff
   ENAUG  =  758.8 eV  augmentation charge cutoff
   NELM   =   1000;   NELMIN=  2; NELMDL= -5     # of ELM steps
   EDIFF  = 0.1E-03   stopping-criterion for ELM
   LREAL  =      T    real-space projection
   NLSPLINE    = F    spline interpolate recip. space projectors
   LCOMPAT=      F    compatible to vasp.4.4
   GGA_COMPAT  = T    GGA compatible to vasp.4.4-vasp.4.6
[...]
  382            brsav                                 0.000135                       49   5
  383        m_bcast_d                             0.000022                            2   3
  384      potlok                                0.018622                              2   2
  385        fft3d_mpi                             0.012284                           36   3
  386          fftbrc_mpi                            0.010497                         36   4
  387            fftbas_plan_mpi                       0.010486                       36   5
  388              map_forward                           0.003080                     40   6
  389                map_gather                            0.001027                   24   7
  390                m_alltoallv_z                         0.000948                   24   7
  391                map_scatter                           0.000927                   24   7
  392              map_backward                          0.002447                     32   6
  393                map_gather                            0.000813                   16   7
  394                m_alltoallv_z                         0.000643                   16   7
  395                map_scatter                           0.000826                   16   7
  396              dfftw_execute                         0.003335                     30   6
  397        m_sumb_d                              0.000026                            5   3
  398        pothar                                0.000679                            2   3
  399          m_sumb_d                              0.000037                          2   4
  400        m_bcast_d                             0.001112                            4   3
  401      potlok_metagga                        0.000000                              1   2
  402      set_dd_magatom                        0.000004                              1   2
  403      set_dd_paw                            0.956956                              1   2
  404        m_sumb_d                              0.490487                            7   3
  405      augmentation_charge                   0.074379                              1   2
  406        fft3d_mpi                             0.016353                            2   3
  407          fftbrc_mpi                            0.014442                          2   4
  408            fftbas_plan_mpi                       0.014439                        2   5
  409              dfftw_execute                         0.008989                      6   6
  410              map_backward                          0.005309                      4   6
  411                map_gather                            0.001438                    2   7
  412                m_alltoallv_z                         0.002632                    2   7
  413                map_scatter                           0.001234                    2   7
  414      densta                                2.545768                              1   2

 Flat profile

 m_sumb_d                               32.808414       23666
 set_dd_paw                             26.156442          57
 init_acc                               11.753402           1
 raccmu_                                11.235021       26763
 eccp                                    9.810399      130487
 densta                                  8.478877          60
 w1_gemv                                 7.670117      321900
 total_time                              7.178169           1
 i2                                      6.527271       22544
 eccp_nl                                 5.611057      104055
 phaser                                  5.287309        3668
 setdij_                                 4.455075          83
 augmentation_charge                     3.229373          56
 cnorma                                  2.760439      104055
 redis_pw                                2.692941       38866
 overl1                                  2.667330      160950
 eddrmm                                  2.654712          54
 acc_init_cublas                         2.430106           1
 eddiag                                  2.184091          54
 m_alltoall_d                            2.110937      329658
 fft3d                                   2.034737      281766
 lapack                                  1.937344        4219
 eddav                                   1.891631           5
 dfftw_execute                           1.776906        1740
 fftwav                                  1.669416      169086
 soft_charge                             1.532531          55
 w1_dscal                                1.488420      247520
 w1_copy                                 1.413705      265461
 w1_gaxpy                                1.288030      246426
 apply_precond                           1.242680      276724
 rpromu_acc                              1.102102       27099
 hamilt_local                            0.994670       24192
 setup_precond                           0.930370       26432
 racc0mu_acc                             0.912019       26763
 w1_daxpy                                0.853437      159910
 acc_init_cusolver                       0.801082           1
 newband                                 0.776592       30067
 m_alltoallv_z                           0.685403        2285
 w1_dot                                  0.665068       24100
 redis_proj                              0.636253       48144
 hamiltmu                                0.602448       26763
 pw_charge                               0.525715       20287
 kinhamil                                0.488266      112680
 vhamil                                  0.481603      112680
 zhegv                                   0.474507       55855
 fftext_mpi                              0.456100      112680
 orthch                                  0.450893          55
 overl_mu                                0.408584       26763
 depsum                                  0.401454          55
 rpro_isp                                0.394654         364
 fft3d_mpi                               0.384350      114741
 set_charge                              0.283431          55
 choleski                                0.266447        3080
 map_gather                              0.262856        2285
 map_scatter                             0.250264        2285
 orth1                                   0.244982       18761
 fftwav_mpi                              0.237049      169086
 i3                                      0.203164       22544
 overl                                   0.186638       20740
 potlok                                  0.156436          57
 m_bcast_z                               0.127465        6011
 acc_cufft_makeplan                      0.121510          19
 lincom                                  0.115421        6384
 fftbas_plan_mpi                         0.115066        2061
 rspher_all                              0.103983          14
 elmin                                   0.098696           1
 m_bcast_d                               0.074924        8557
 broyd                                   0.068116          55
 ggemm                                   0.059216        5339
 proall                                  0.041149           1
 sphpro_fast                             0.032161           2
 brmix                                   0.030989          55
 setg0                                   0.025973          57
 i1                                      0.024242       22544
 w1_projall                              0.023447       25643
 brget                                   0.020520        7773
 map_backward                            0.010769        2166
 map_forward                             0.010406        1956
 truncate_high_frequency_w1              0.008746      114920
 force_and_stress                        0.007296           1
 strnlr                                  0.007025           1
 brsav                                   0.005013        1929
 inisym                                  0.004725           1
 pothar                                  0.004680          58
 fornlr                                  0.002428           1
 stufak                                  0.001407           1
 forhar                                  0.001268           2
 fftbrc_mpi                              0.001142        2061
 fft_gq                                  0.001137          55
 strelo                                  0.001121           1
 brpre                                   0.000895         110
 strehar                                 0.000766           1
 forloc                                  0.000696           1
 fewald                                  0.000375           1
 shift_bands_between_low_high            0.000366        3024
 set_dd_magatom                          0.000250          57
 vectorpot                               0.000236          56
 strkin                                  0.000222           1
 chggra                                  0.000220           1
 brgrid                                  0.000109           1
 rsp                                     0.000054           1
 fordep                                  0.000044           1
 posmap                                  0.000033           2
 crpa_reader                             0.000025           1
 rcp                                     0.000012           1
 acc_cufft_makeplans                     0.000011           3
 potlok_metagga                          0.000002          56
 rotate_active_occupied_orbital          0.000000           1
 redis_pw_over_bands                     0.000000           1
  summed up times     190.6480720043182

 Accumulative profile

 total_time                            190.648072           1
 elmin                                 157.501076           1
 eddrmm                                 68.242086          54
 set_dd_paw                             53.282223          57
 m_sumb_d                               32.808414       23666
 i2                                     23.022725       22544
 i3                                     18.193574       22544
 hamiltmu                               14.934713       26763
 raccmu_                                12.555624       26763
 init_acc                               11.753402           1
 w1_gemv                                10.337447      321900
 eddav                                   9.967042           5
 eccp                                    9.810399      130487
 densta                                  8.478877          60
 cnorma                                  8.371496      104055
 set_charge                              7.659691          55
 setdij_                                 6.419519          83
 eddiag                                  6.399502          54
 eccp_nl                                 5.611057      104055
 phaser                                  5.287309        3668
 newband                                 4.563034       30067
 force_and_stress                        4.469983           1
 fft3d_mpi                               4.263795      114741
 augmentation_charge                     4.209534          56
 redis_pw                                3.607158       38866
 orthch                                  3.191958          55
 fftwav_mpi                              3.174569      169086
 fftbrc_mpi                              3.112811        2061
 fftbas_plan_mpi                         3.111669        2061
 fftwav                                  2.937520      169086
 soft_charge                             2.797466          55
 overl1                                  2.667330      160950
 acc_init_cublas                         2.430106           1
 m_alltoall_d                            2.110937      329658
 fft3d                                   2.034737      281766
 lapack                                  1.937344        4219
 redis_proj                              1.832973       48144
 dfftw_execute                           1.776906        1740
 kinhamil                                1.743978      112680
 w1_dscal                                1.488420      247520
 hamilt_local                            1.443609       24192
 w1_copy                                 1.413705      265461
 w1_gaxpy                                1.288030      246426
 fftext_mpi                              1.255711      112680
 apply_precond                           1.242680      276724
 rpromu_acc                              1.102102       27099
 strnlr                                  1.031227           1
 setup_precond                           0.930370       26432
 racc0mu_acc                             0.912019       26763
 w1_projall                              0.883952       25643
 w1_daxpy                                0.853437      159910
 rpro_isp                                0.812744         364
 acc_init_cusolver                       0.801082           1
 map_forward                             0.707965        1956
 m_alltoallv_z                           0.685403        2285
 w1_dot                                  0.665068       24100
 potlok                                  0.572399          57
 pw_charge                               0.525715       20287
 map_backward                            0.511733        2166
 vhamil                                  0.481603      112680
 zhegv                                   0.474507       55855
 fordep                                  0.461987           1
 overl_mu                                0.408584       26763
 depsum                                  0.404506          55
 i1                                      0.385376       22544
 fornlr                                  0.342931           1
 choleski                                0.266447        3080
 map_gather                              0.262856        2285
 map_scatter                             0.250264        2285
 orth1                                   0.244982       18761
 overl                                   0.186638       20740
 brmix                                   0.162912          55
 m_bcast_z                               0.127465        6011
 acc_cufft_makeplans                     0.121521           3
 acc_cufft_makeplan                      0.121510          19
 proall                                  0.120596           1
 lincom                                  0.115421        6384
 rspher_all                              0.103983          14
 broyd                                   0.103107          55
 m_bcast_d                               0.074924        8557
 ggemm                                   0.059216        5339
 fft_gq                                  0.055727          55
 sphpro_fast                             0.032983           2
 setg0                                   0.025973          57
 brget                                   0.020520        7773
 truncate_high_frequency_w1              0.008746      114920
 pothar                                  0.005151          58
 brsav                                   0.005013        1929
 inisym                                  0.004758           1
 stufak                                  0.001407           1
 forhar                                  0.001281           2
 strelo                                  0.001233           1
 brpre                                   0.000895         110
 strehar                                 0.000826           1
 chggra                                  0.000739           1
 forloc                                  0.000707           1
 fewald                                  0.000573           1
 shift_bands_between_low_high            0.000366        3024
 set_dd_magatom                          0.000250          57
 vectorpot                               0.000236          56
 strkin                                  0.000229           1
 brgrid                                  0.000109           1
 rsp                                     0.000054           1
 posmap                                  0.000033           2
 crpa_reader                             0.000025           1
 rcp                                     0.000012           1
 potlok_metagga                          0.000002          56
 rotate_active_occupied_orbital          0.000000           1
 redis_pw_over_bands                     0.000000           1

Profiling took   0.458500  0.312341  0.003333  0.003226 seconds
Profiling took   0.356276 seconds