 vasp.6.3.2 27Jun22 (build Jul  3 2023 11:46:21) complex
 executed on    LinuxNV_CrayMPICH date 2024.04.21  00:10:45

 INCAR:
   ALGO = All
   EDIFF = 0.00185
   ENCUT = 520.0
   IBRION = -1
   ISIF = 3
   ISMEAR = -5
   ISPIN = 2
   KPAR = 8
   LAECHG = True
   LASPH = True
   LCHARG = True
   LORBIT = 11
   LREAL = Auto
   LVHAR = True
   LWAVE = False
   MAGMOM = 11*0.6 4*7.0 22*0.6
   NELM = 1000
   NPAR = 4
   NSW = 0
   PREC = Accurate
   SIGMA = 0.05

 POTCAR:    PAW_PBE Yb_2 06Sep2000
 POTCAR:    PAW_PBE Gd 23Dec2003
 POTCAR:    PAW_PBE Se 06Sep2000
 POTCAR:    PAW_PBE Yb_2 06Sep2000
   VRHFIN =Yb : [core=Xe4]

   TITEL  = PAW_PBE Yb_2 06Sep2000
   POMASS =  173.040; ZVAL   =    8.000    mass and valenz
   ENMAX  =  112.578; ENMIN  =   84.433 eV

   TITEL  = PAW_PBE Gd 23Dec2003
   POMASS =  157.250; ZVAL   =   18.000    mass and valenz
   ENMAX  =  256.472; ENMIN  =  192.354 eV

   TITEL  = PAW_PBE Se 06Sep2000
   POMASS =   78.960; ZVAL   =    6.000    mass and valenz
   ENMAX  =  211.555; ENMIN  =  158.666 eV

 Optimization of the real space projectors (new method)

 maximal supplied QI-value         = 12.09
 optimisation between [QCUT,QGAM] = [ 11.61, 23.34] = [ 37.75,152.57] Ry
 Optimized for a Real-space Cutoff    1.89 Angstroem

   l    n(q)    QCUT    max X(q) W(low)/X(q) W(high)/X(q)  e(spline)
   0     13    11.610    37.655    0.45E-04    0.19E-04    0.34E-06
   0     13    11.610    17.791    0.29E-04    0.15E-04    0.27E-06
   1     13    11.610    36.143    0.15E-04    0.51E-06    0.99E-06
   1     13    11.610    36.445    0.16E-04    0.54E-06    0.10E-05
   2     12    11.610    14.662    0.21E-03    0.42E-03    0.57E-05
   2     12    11.610    15.811    0.17E-03    0.35E-03    0.47E-05
 Optimization of the real space projectors (new method)

[...]

   l    n(q)    QCUT    max X(q) W(low)/X(q) W(high)/X(q)  e(spline)
   0     11    11.673    10.501    0.14E-04    0.17E-05    0.21E-07
   0     11    11.673     9.148    0.21E-04    0.32E-05    0.45E-07
   1     11    11.673     4.035    0.33E-05    0.11E-04    0.84E-07
   1     11    11.673     4.388    0.11E-04    0.47E-04    0.34E-06
   2     10    11.673    20.656    0.12E-04    0.28E-04    0.54E-06
   2     10    11.673    12.651    0.11E-04    0.26E-04    0.51E-06
   3     10    11.673    61.921    0.19E-03    0.22E-03    0.23E-06
   3     10    11.673    48.328    0.20E-03    0.23E-03    0.23E-06
 Optimization of the real space projectors (new method)

 maximal supplied QI-value         = 17.95
 optimisation between [QCUT,QGAM] = [ 11.67, 23.34] = [ 38.13,152.52] Ry
 Optimized for a Real-space Cutoff    1.25 Angstroem

   l    n(q)    QCUT    max X(q) W(low)/X(q) W(high)/X(q)  e(spline)
   0      9    11.669   133.320    0.17E-03    0.44E-04    0.69E-07
   0      9    11.669   111.601    0.18E-03    0.46E-04    0.72E-07
   1      8    11.669    47.222    0.22E-03    0.37E-03    0.10E-06
   1      8    11.669    33.775    0.22E-03    0.36E-03    0.10E-06
   2      8    11.669     3.720    0.19E-03    0.46E-04    0.50E-07
  PAW_PBE Yb_2 06Sep2000                :
  PAW_PBE Gd 23Dec2003                  :
  PAW_PBE Se 06Sep2000                  :

 POSCAR: Yb11 Gd4 Se22
  positions in direct lattice
 exchange correlation table for  LEXCH =        8
   RHO(1)=    0.500       N(1)  =     2000
   RHO(2)=  100.500       N(2)  =     4000

 VTST: version 4.2, (08/11/21)

 CHAIN: initializing optimizer

 OPT: Using VASP Dynamics algorithm
 CHAIN: Read ICHAIN             0

 POSCAR: Yb11 Gd4 Se22
  positions in direct lattice

 ion  position               nearest neighbor table
   1  0.199  0.482  0.397-  33 2.88  36 2.95  36 2.95  37 3.02  30 3.09  30 3.09
   2  0.801  0.518  0.603-  32 2.88  37 2.95  37 2.95  36 3.02  31 3.09  31 3.09
   3  0.541  0.200  0.082-  34 2.85  34 2.85  22 2.89  16 2.98  16 2.98  28 3.38  14 3.75
   4  0.459  0.800  0.918-  35 2.85  35 2.85  23 2.89  17 2.98  17 2.98  29 3.38  15 3.75
   5  0.337  0.170  0.674-  20 2.73  32 2.80  32 2.80  24 3.07  24 3.07
   6  0.663  0.830  0.326-  21 2.73  33 2.80  33 2.80  25 3.07  25 3.07
   7  0.733  0.139  0.465-  20 2.82  20 2.82  21 2.86  36 2.95  18 3.10  18 3.10
   8  0.267  0.861  0.535-  21 2.82  21 2.82  20 2.86  37 2.95  19 3.10  19 3.10
   9  0.938  0.171  0.877-  34 2.78  23 2.83  23 2.83  26 3.12  26 3.12
  10  0.062  0.829  0.123-  35 2.78  22 2.83  22 2.83  27 3.12  27 3.12
  11  0.000  0.500  0.000-  34 2.83  35 2.83  28 3.04  29 3.04  29 3.04  28 3.04
  12  0.108  0.498  0.217-  33 2.89  30 2.92  30 2.92  16 2.92  27 3.05  27 3.05
  13  0.892  0.502  0.783-  32 2.89  31 2.92  31 2.92  17 2.92  26 3.05  26 3.05
  14  0.627  0.168  0.254-  16 2.89  16 2.89  30 2.95  25 2.98  25 2.98  22 3.06  18 3.11  18 3.11
                             3 3.75
  15  0.373  0.832  0.746-  17 2.89  17 2.89  31 2.95  24 2.98  24 2.98  23 3.06  19 3.11  19 3.11
                             4 3.75
  16  0.089  0.254  0.178-  14 2.89  14 2.89  12 2.92   3 2.98   3 2.98
  17  0.911  0.746  0.822-  15 2.89  15 2.89  13 2.92   4 2.98   4 2.98
  18  0.181  0.166  0.361-  25 2.44   7 3.10   7 3.10  14 3.11  14 3.11
  19  0.819  0.834  0.639-  24 2.44   8 3.10   8 3.10  15 3.11  15 3.11
  20  0.275  0.106  0.550-   5 2.73   7 2.82   7 2.82   8 2.86
  21  0.725  0.894  0.450-   6 2.73   8 2.82   8 2.82   7 2.86
  22  0.572  0.989  0.143-  10 2.83  10 2.83   3 2.89  14 3.06
  23  0.428  0.011  0.857-   9 2.83   9 2.83   4 2.89  15 3.06
  24  0.857  0.999  0.715-  19 2.44  15 2.98  15 2.98   5 3.07   5 3.07
  25  0.143  0.001  0.285-  18 2.44  14 2.98  14 2.98   6 3.07   6 3.07
  26  0.414  0.339  0.828-  29 2.43  13 3.05  13 3.05   9 3.12   9 3.12
  27  0.586  0.661  0.172-  28 2.43  12 3.05  12 3.05  10 3.12  10 3.12
  28  0.551  0.489  0.101-  27 2.43  11 3.04  11 3.04   3 3.38
  29  0.449  0.511  0.899-  26 2.43  11 3.04  11 3.04   4 3.38
  30  0.648  0.414  0.295-  12 2.92  12 2.92  14 2.95   1 3.09   1 3.09
  31  0.352  0.586  0.705-  13 2.92  13 2.92  15 2.95   2 3.09   2 3.09
  32  0.840  0.328  0.681-   5 2.80   5 2.80   2 2.88  13 2.89
  33  0.160  0.672  0.319-   6 2.80   6 2.80   1 2.88  12 2.89
  34  0.000  0.259  0.001-   9 2.78  11 2.83   3 2.85   3 2.85
  35  1.000  0.741  0.999-  10 2.78  11 2.83   4 2.85   4 2.85
  36  0.738  0.391  0.475-   1 2.95   1 2.95   7 2.95   2 3.02
  37  0.262  0.609  0.525-   2 2.95   2 2.95   8 2.95   1 3.02

  LATTYP: Found a base centered monoclinic cell.
 ALAT       =    42.9902860000
 B/A-ratio  =     0.0976775079
 C/A-ratio  =     0.2729749367
 COS(beta)  =    -0.0761195912

  Lattice vectors:

 A1 = ( -21.4951430000,  -2.0995920000,   0.0000000000)
 A2 = ( -21.4951430000,   2.0995920000,   0.0000000000)
 A3 = (   0.8932840000,   0.0000000000, -11.7012230000)

Analysis of symmetry for initial positions (statically):
 Subroutine PRICEL returns:
 Original cell was already a primitive cell.

 Routine SETGRP: Setting up the symmetry group for a
 base centered monoclinic supercell.

 Subroutine GETGRP returns: Found  4 space group operations
 (whereof  4 operations were pure point group operations)
 out of a pool of  4 trial point group operations.

The static configuration has the point symmetry C_2h.

Analysis of symmetry for dynamics (positions and initial velocities):
 Subroutine PRICEL returns:
 Original cell was already a primitive cell.

[...]

The dynamic configuration has the point symmetry C_2h.

Analysis of structural, dynamic, and magnetic symmetry:
 Subroutine PRICEL returns:
 Original cell was already a primitive cell.

 Routine SETGRP: Setting up the symmetry group for a
 base centered monoclinic supercell.

 Subroutine GETGRP returns: Found  4 space group operations
 (whereof  4 operations were pure point group operations)
 out of a pool of  4 trial point group operations.

The overall configuration has the point symmetry C_2h.

 Subroutine INISYM returns: Found  4 space group operations
 (whereof  4 operations are pure point group operations),
 and found     1 'primitive' translations

                                     Primitive cell

  volume of cell :    1056.1765

  direct lattice vectors                    reciprocal lattice vectors
     0.000000000  4.199184000  0.000000000    -0.023261069  0.238141506 -0.001775775
     0.893284000  0.000000000-11.701223000    -0.000000000  0.000000000 -0.085461152
   -21.495143000 -2.099592000  0.000000000    -0.046522138  0.000000000 -0.003551550

  length of vectors
     4.199184000 11.735270598 21.597441033     0.239281440  0.085461152  0.046657505

  position of ions in fractional coordinates (direct lattice)
     0.198537000  0.482414000  0.397075000
     0.801463000  0.517586000  0.602925000
     0.541038000  0.200386000  0.082076000
     0.458962000  0.799614000  0.917924000
     0.337210000  0.170022000  0.674421000
     0.662790000  0.829978000  0.325579000
     0.732562000  0.138696000  0.465124000
     0.267438000  0.861304000  0.534876000
     0.938478000  0.170572000  0.876955000
     0.061522000  0.829428000  0.123045000
     0.000000000  0.500000000  0.000000000
     0.108328000  0.497707000  0.216655000
     0.891672000  0.502293000  0.783345000
     0.627211000  0.168039000  0.254422000
     0.372789000  0.831961000  0.745578000
     0.089047000  0.253751000  0.178095000
     0.910953000  0.746249000  0.821905000
     0.180598000  0.166027000  0.361196000
     0.819402000  0.833973000  0.638804000
     0.274819000  0.105759000  0.549638000
     0.725181000  0.894241000  0.450362000
     0.571599000  0.989169000  0.143197000
     0.428401000  0.010831000  0.856803000
     0.857377000  0.999181000  0.714754000
     0.142623000  0.000819000  0.285246000
     0.414075000  0.339108000  0.828150000
     0.585925000  0.660892000  0.171850000
     0.550659000  0.488535000  0.101319000
     0.449341000  0.511465000  0.898681000
     0.647730000  0.413667000  0.295461000
     0.352270000  0.586333000  0.704539000
     0.840395000  0.327989000  0.680791000
     0.159605000  0.672011000  0.319209000
     0.000315000  0.258619000  0.000630000
     0.999685000  0.741381000  0.999370000
     0.737706000  0.390767000  0.475412000
     0.262294000  0.609233000  0.524588000

  ion indices of the primitive-cell ions
   primitive index   ion index
                 1           1
                 2           2
                 3           3
                 4           4
                 5           5
                 6           6
                 7           7
                 8           8
                 9           9
                10          10
                11          11
                12          12
                13          13
                14          14
                15          15
                16          16
                17          17
                18          18
                19          19
                20          20
                21          21
                22          22
                23          23
                24          24
                25          25
                26          26
                27          27
                28          28
                29          29
                30          30
[...]
  168      force_and_stress                     10.690020                              1   2
  169        forloc                                0.013753                            1   3
  170        fornlr                                0.605881                            1   3
  171          rspher_all                            0.121846                          3   4
  172          phaser                                0.051591                          6   4
  173          rpro_isp                              0.431367                          6   4
  174            fftwav_mpi                            0.081859                     2388   5
  175              fftwav                                0.079073                   2388   6
  176                fft3d                                 0.015936                 2388   7
  177            rpromu_acc                            0.211099                      600   5
  178          m_sumb_d                              0.000040                          1   4
  179        fordep                                0.617279                            1   3
  180          setdij_                               0.617020                          6   4
  181        setdij_                               2.042596                           20   3
  182        set_dd_magatom                        0.000005                            1   3
  183        set_dd_paw                            5.395257                            1   3
  184          m_sumb_d                              0.491546                          7   4
  185        strkin                                0.003126                            1   3
  186          m_sumb_d                              0.000019                          1   4
  187        strelo                                0.031755                            1   3
  188        strnlr                                1.813374                            1   3
  189          rspher_all                            0.365588                          9   4
  190          phaser                                0.153761                         18   4
  191          rpro_isp                              1.290548                         18   4
  192            fftwav_mpi                            0.243782                     7164   5
  193              fftwav                                0.235456                   7164   6
  194                fft3d                                 0.047240                 7164   7
  195            rpromu_acc                            0.632581                     1800   5
  196          m_sumb_d                              0.000330                          9   4
  197        fft3d_mpi                             0.009223                           22   3
  198          fftbrc_mpi                            0.006327                         22   4
  199            fftbas_plan_mpi                       0.006315                       22   5
  200              map_forward                           0.003069                     20   6
  201                map_scatter                           0.001589                   10   7
  202              map_backward                          0.002613                     24   6
  203                map_gather                            0.001303                   12   7
  204        forhar                                0.013708                            1   3
  205        strehar                               0.017035                            1   3
  206        m_bcast_d                             0.005845                            2   3
  207      potlok                                0.339745                              2   2
  208        fft3d_mpi                             0.216828                           36   3
  209          fftbrc_mpi                            0.180819                         36   4
  210            fftbas_plan_mpi                       0.180804                       36   5
  211              map_forward                           0.029678                     40   6
  212                map_scatter                           0.020843                   20   7
  213              map_backward                          0.029592                     32   6
  214                map_gather                            0.022859                   16   7
  215              dfftw_execute                         0.119708                     30   6
  216        pothar                                0.021000                            2   3
  217      potlok_metagga                        0.000000                              1   2
  218      set_dd_magatom                        0.000004                              1   2
  219      set_dd_paw                            5.369591                              1   2
  220        m_sumb_d                              0.475650                            7   3
  221      augmentation_charge                   0.164335                              1   2
  222        fft3d_mpi                             0.051651                            2   3
  223          fftbrc_mpi                            0.042948                          2   4
  224            fftbas_plan_mpi                       0.042947                        2   5
  225              dfftw_execute                         0.028975                      6   6
  226              map_backward                          0.013745                      4   6
  227                map_gather                            0.010984                    2   7

 Flat profile

 set_dd_paw                            230.282125          47
 total_time                             31.679479           1
 m_sumb_d                               23.419350         833
 edwav                                  19.789356          44
 eccp                                    9.485598       74028
 rpro1_acc                               8.707603       17512
 setdij_                                 7.516909          73
 init_acc                                6.991338           1
 racc0_acc                               6.654933       17512
 augmentation_charge                     5.343030          46
 densta                                  4.361960          56
 elmin_all                               3.211040           1
 eddav                                   2.713153           5
 acc_init_cublas                         2.417691           1
 fftwav                                  2.274612      114066
 overl                                   1.937345       41794
 dfftw_execute                           1.866543         624
 set_charge                              1.675139          45
 fftext_mpi                              1.552573       49771
 soft_charge                             1.473826          45
 potlok                                  1.462961          47
 pw_charge                               1.191038       26464
 phaser                                  1.148910         134
 fft3d                                   1.139522      163837
 raccmu_                                 1.083738        1754
 fft3d_mpi                               0.933741       51197
 rpromu_acc                              0.919131        3854
 lapack                                  0.883790        1754
 acc_init_cusolver                       0.790901           1
 hamilt_local                            0.643512       18308
 map_gather                              0.642619         756
 depsum                                  0.599759          45
 rpro_isp                                0.587968          26
 rspher_all                              0.542057          14
 choleski                                0.486730         180
 eddiag                                  0.409036          23
 vhamil                                  0.361991       32259
 lincom                                  0.290397         556
 kinhamil                                0.289775       32259
 hamiltmu                                0.286788        1754
 newband                                 0.266448        1774
 orthch                                  0.250317          45
 proall                                  0.234909           1
 stufak                                  0.222748           1
 map_backward                            0.218589        1512
 orth1                                   0.199803        9854
 w1_copy                                 0.196062       41853
 sphpro_fast                             0.174593           2
 map_scatter                             0.155718         670
 setup_precond                           0.139839        3980
 acc_cufft_makeplan                      0.138199          19
 fftwav_mpi                              0.137121      114066
 w1_dscal                                0.130627       17512
 force_and_stress                        0.121183           1
 map_forward                             0.112929        1340
 racc0mu_acc                             0.095872        1754
 fftbas_plan_mpi                         0.062292        1426
 apply_precond                           0.047662        9971
 pothar                                  0.033028          47
 strelo                                  0.031755           1
 overl_mu                                0.028619        1754
 ggemm                                   0.026201        2254
 strehar                                 0.017035           1
 forloc                                  0.013753           1
 forhar                                  0.013708           1
 fft_gq                                  0.010324          45
 rsp                                     0.008132           1
 m_bcast_d                               0.006043           7
 inisym                                  0.004372           1
 strnlr                                  0.003147           1
 strkin                                  0.003107           1
 brgrid                                  0.002084           1
 m_bcast_z                               0.001549          87
 truncate_high_frequency_w1              0.001348       17931
 w1_projall                              0.001261        1254
 fornlr                                  0.001037           1
 fftbrc_mpi                              0.000734        1426
 fewald                                  0.000358           1
 fordep                                  0.000259           1
 rcp                                     0.000046           1
 posmap                                  0.000033           2
 crpa_reader                             0.000027           1
 acc_cufft_makeplans                     0.000014           3
 set_dd_magatom                          0.000009           2
 vectorpot                               0.000005           1
 potlok_metagga                          0.000005          46
 redis_pw_over_bands                     0.000004          45
 shift_bands_between_low_high            0.000001           4
 rotate_active_occupied_orbital          0.000000           1
  summed up times     391.1608829498291

 Accumulative profile

 total_time                            391.160883           1
 elmin_all                             328.446045           1
 set_dd_paw                            253.185763          47
 edwav                                  49.984996          44
 m_sumb_d                               23.419350         833
 set_charge                             14.296188          45
 force_and_stress                       10.690020           1
 eccp                                    9.485598       74028
 rpro1_acc                               8.707603       17512
 augmentation_charge                     7.882304          46
 setdij_                                 7.516909          73
 eddav                                   7.372804           5
 init_acc                                6.991338           1
 racc0_acc                               6.654933       17512
 densta                                  4.362941          56
 fft3d_mpi                               4.345786       51197
 soft_charge                             4.284167          45
 fftwav_mpi                              3.198634      114066
 fftwav                                  3.061513      114066
 fftbrc_mpi                              3.059424        1426
 fftbas_plan_mpi                         3.058690        1426
 eddiag                                  2.778418          23
 acc_init_cublas                         2.417691           1
 potlok                                  2.193743          47
 hamilt_local                            2.016283       18308
 overl                                   1.937345       41794
 fftext_mpi                              1.919170       49771
 dfftw_execute                           1.866543         624
 rpro_isp                                1.817232          26
 strnlr                                  1.813374           1
 hamiltmu                                1.760056        1754
 kinhamil                                1.275818       32259
 raccmu_                                 1.208230        1754
 pw_charge                               1.191038       26464
 phaser                                  1.148910         134
 fft3d                                   1.139522      163837
 newband                                 0.966064        1774
 rpromu_acc                              0.919131        3854
 lapack                                  0.883790        1754
 map_backward                            0.861208        1512
 acc_init_cusolver                       0.790901           1
 orthch                                  0.784151          45
 map_gather                              0.642619         756
 depsum                                  0.618914          45
 fordep                                  0.617279           1
 fornlr                                  0.605881           1
 rspher_all                              0.542057          14
 choleski                                0.486730         180
 vhamil                                  0.361991       32259
 proall                                  0.348985           1
 fft_gq                                  0.344855          45
 lincom                                  0.290397         556
 map_forward                             0.268647        1340
 stufak                                  0.222748           1
 orth1                                   0.199803        9854
 w1_copy                                 0.196062       41853
 sphpro_fast                             0.181763           2
 map_scatter                             0.155718         670
 setup_precond                           0.139839        3980
 acc_cufft_makeplans                     0.138213           3
 acc_cufft_makeplan                      0.138199          19
 w1_dscal                                0.130627       17512
 racc0mu_acc                             0.095872        1754
 w1_projall                              0.062707        1254
 apply_precond                           0.047662        9971
 pothar                                  0.033028          47
 strelo                                  0.031755           1
 overl_mu                                0.028619        1754
 ggemm                                   0.026201        2254
 strehar                                 0.017035           1
 forloc                                  0.013753           1
 forhar                                  0.013708           1
 fewald                                  0.008648           1
 rsp                                     0.008132           1
 m_bcast_d                               0.006043           7
 inisym                                  0.004405           1
 strkin                                  0.003126           1
 brgrid                                  0.002084           1
 m_bcast_z                               0.001549          87
 truncate_high_frequency_w1              0.001348       17931
 rcp                                     0.000046           1
 posmap                                  0.000033           2
 crpa_reader                             0.000027           1
 set_dd_magatom                          0.000009           2
 vectorpot                               0.000005           1
 potlok_metagga                          0.000005          46
 redis_pw_over_bands                     0.000004          45
 shift_bands_between_low_high            0.000001           4
 rotate_active_occupied_orbital          0.000000           1

Profiling took   0.098449  0.068382  0.003176  0.003089 seconds
Profiling took   0.071432 seconds