 vasp.6.3.2 27Jun22 (build Jul  3 2023 11:46:21) complex
 executed on    LinuxNV_CrayMPICH date 2024.04.20  18:48:20

 INCAR:
   ADDGRID = True
   ALGO = Normal
   EDIFF = 0.0026
   ENCUT = 520.0
   IBRION = -1
   ICHARG = 0
   ISIF = 3
   ISMEAR = -5
   ISPIN = 2
   KPOINT_BSE = -1 0 0 0
   LAECHG = True
   LASPH = True
   LCHARG = True
   LELF = True
   LORBIT = 11
   LREAL = Auto
   LVHAR = True
   LWAVE = False
   MAGMOM = 8*7.0 44*0.6
   NELM = 1000
   NSW = 0
   PREC = accurate
   SIGMA = 0.05

 POTCAR:    PAW_PBE Eu 23Dec2003
 POTCAR:    PAW_PBE Ge_d 03Jul2007
 POTCAR:    PAW_PBE B 06Sep2000
 POTCAR:    PAW_PBE O 08Apr2002
 POTCAR:    PAW_PBE Eu 23Dec2003
   VRHFIN =Eu : [core=Kr4d]

   TITEL  = PAW_PBE Eu 23Dec2003
   POMASS =  151.965; ZVAL   =   17.000    mass and valenz
   ENMAX  =  249.668; ENMIN  =  187.251 eV

   TITEL  = PAW_PBE Ge_d 03Jul2007
   POMASS =   72.610; ZVAL   =   14.000    mass and valenz
   ENMAX  =  310.294; ENMIN  =  232.720 eV

   TITEL  = PAW_PBE B 06Sep2000
   POMASS =   10.811; ZVAL   =    3.000    mass and valenz
   ENMAX  =  318.614; ENMIN  =  238.960 eV

   TITEL  = PAW_PBE O 08Apr2002
   POMASS =   16.000; ZVAL   =    6.000    mass and valenz
   ENMAX  =  400.000; ENMIN  =  300.000 eV

 Optimization of the real space projectors (new method)

 maximal supplied QI-value         = 13.42
 optimisation between [QCUT,QGAM] = [ 11.67, 23.35] = [ 38.16,152.62] Ry
 Optimized for a Real-space Cutoff    1.63 Angstroem

   l    n(q)    QCUT    max X(q) W(low)/X(q) W(high)/X(q)  e(spline)
   0     11    11.673    10.400    0.14E-04    0.18E-05    0.24E-07
   0     11    11.673    10.768    0.21E-04    0.32E-05    0.49E-07
   1     11    11.673     4.094    0.40E-05    0.13E-04    0.93E-07
   1     11    11.673     4.009    0.11E-04    0.46E-04    0.33E-06
   2     10    11.673    29.030    0.79E-04    0.60E-04    0.70E-06
   2     10    11.673    19.941    0.80E-04    0.60E-04    0.71E-06
   3     10    11.673    88.889    0.23E-03    0.29E-03    0.30E-06
   3     10    11.673    76.102    0.23E-03    0.30E-03    0.30E-06
 Optimization of the real space projectors (new method)

[...]

   l    n(q)    QCUT    max X(q) W(low)/X(q) W(high)/X(q)  e(spline)
   0      8    11.497    53.033    0.18E-03    0.30E-03    0.10E-06
   0      8    11.497    34.740    0.17E-03    0.29E-03    0.10E-06
   1      8    11.497    30.949    0.20E-03    0.12E-03    0.21E-06
   1      8    11.497    19.518    0.18E-03    0.11E-03    0.19E-06
 Optimization of the real space projectors (new method)

 maximal supplied QI-value         = 24.76
 optimisation between [QCUT,QGAM] = [ 11.64, 23.27] = [ 37.91,151.63] Ry
 Optimized for a Real-space Cutoff    1.14 Angstroem

   l    n(q)    QCUT    max X(q) W(low)/X(q) W(high)/X(q)  e(spline)
   0      8    11.635    20.381    0.10E-03    0.33E-03    0.24E-06
   0      8    11.635    15.268    0.11E-03    0.35E-03    0.26E-06
   1      7    11.635     5.964    0.24E-03    0.31E-03    0.30E-06
   1      7    11.635     5.382    0.22E-03    0.25E-03    0.26E-06
  PAW_PBE Eu 23Dec2003                  :
  PAW_PBE Ge_d 03Jul2007                :
  PAW_PBE B 06Sep2000                   :
  PAW_PBE O 08Apr2002                   :

 POSCAR: Eu8 Ge4 B8 O32
  positions in direct lattice
 exchange correlation table for  LEXCH =        8
   RHO(1)=    0.500       N(1)  =     2000
   RHO(2)=  100.500       N(2)  =     4000

 VTST: version 4.2, (08/11/21)

 CHAIN: initializing optimizer

 OPT: Using VASP Dynamics algorithm
 CHAIN: Read ICHAIN             0

 POSCAR: Eu8 Ge4 B8 O32
  positions in direct lattice

 ion  position               nearest neighbor table
   1  0.465  0.529  0.640-  49 2.35  45 2.35  25 2.42  34 2.47  23 2.48  23 2.52  42 2.59
   2  0.035  0.029  0.860-  50 2.35  46 2.35  26 2.42  33 2.47  24 2.48  24 2.52  41 2.59
   3  0.035  0.471  0.140-  51 2.35  47 2.35  27 2.42  36 2.47  21 2.48  21 2.52  44 2.59
   4  0.465  0.971  0.360-  52 2.35  48 2.35  28 2.42  35 2.47  22 2.48  22 2.52  43 2.59
   5  0.535  0.471  0.360-  45 2.35  49 2.35  21 2.42  30 2.47  27 2.48  27 2.52  38 2.59
   6  0.965  0.971  0.140-  46 2.35  50 2.35  22 2.42  29 2.47  28 2.48  28 2.52  37 2.59
   7  0.965  0.529  0.860-  47 2.35  51 2.35  23 2.42  32 2.47  25 2.48  25 2.52  40 2.59
   8  0.535  0.029  0.640-  48 2.35  52 2.35  24 2.42  31 2.47  26 2.48  26 2.52  39 2.59
   9  0.920  0.750  0.500-  45 1.75  48 1.75  34 1.80  35 1.80
  10  0.580  0.250  0.000-  46 1.75  47 1.75  33 1.80  36 1.80
  11  0.080  0.250  0.500-  49 1.75  52 1.75  30 1.80  31 1.80
  12  0.420  0.750  0.000-  50 1.75  51 1.75  29 1.80  32 1.80
  13  0.533  0.705  0.201-  21 1.46  37 1.50  43 1.50  29 1.51
  14  0.967  0.205  0.299-  22 1.46  38 1.50  44 1.50  30 1.51
  15  0.967  0.295  0.701-  23 1.46  39 1.50  41 1.50  31 1.51
  16  0.533  0.795  0.799-  24 1.46  40 1.50  42 1.50  32 1.51
  17  0.467  0.295  0.799-  25 1.46  41 1.50  39 1.50  33 1.51
  18  0.033  0.795  0.701-  26 1.46  42 1.50  40 1.50  34 1.51
  19  0.033  0.705  0.299-  27 1.46  43 1.50  37 1.50  35 1.51
  20  0.467  0.205  0.201-  28 1.46  44 1.50  38 1.50  36 1.51
  21  0.539  0.554  0.194-  13 1.46   5 2.42   3 2.48   3 2.52
  22  0.961  0.054  0.306-  14 1.46   6 2.42   4 2.48   4 2.52
  23  0.961  0.446  0.694-  15 1.46   7 2.42   1 2.48   1 2.52
  24  0.539  0.946  0.806-  16 1.46   8 2.42   2 2.48   2 2.52
  25  0.461  0.446  0.806-  17 1.46   1 2.42   7 2.48   7 2.52
  26  0.039  0.946  0.694-  18 1.46   2 2.42   8 2.48   8 2.52
  27  0.039  0.554  0.306-  19 1.46   3 2.42   5 2.48   5 2.52
  28  0.461  0.054  0.194-  20 1.46   4 2.42   6 2.48   6 2.52
  29  0.652  0.765  0.107-  13 1.51  12 1.80   6 2.47
  30  0.848  0.265  0.393-  14 1.51  11 1.80   5 2.47
  31  0.848  0.235  0.607-  15 1.51  11 1.80   8 2.47
  32  0.652  0.735  0.893-  16 1.51  12 1.80   7 2.47
  33  0.348  0.235  0.893-  17 1.51  10 1.80   2 2.47
  34  0.152  0.735  0.607-  18 1.51   9 1.80   1 2.47
  35  0.152  0.765  0.393-  19 1.51   9 1.80   4 2.47
  36  0.348  0.265  0.107-  20 1.51  10 1.80   3 2.47
  37  0.225  0.759  0.218-  13 1.50  19 1.50   6 2.59
  38  0.275  0.259  0.282-  14 1.50  20 1.50   5 2.59
  39  0.275  0.241  0.718-  15 1.50  17 1.50   8 2.59
  40  0.225  0.741  0.782-  16 1.50  18 1.50   7 2.59
  41  0.775  0.241  0.782-  17 1.50  15 1.50   2 2.59
  42  0.725  0.741  0.718-  18 1.50  16 1.50   1 2.59
  43  0.725  0.759  0.282-  19 1.50  13 1.50   4 2.59
  44  0.775  0.259  0.218-  20 1.50  14 1.50   3 2.59
  45  0.705  0.599  0.495-   9 1.75   5 2.35   1 2.35
  46  0.795  0.099  0.005-  10 1.75   6 2.35   2 2.35
  47  0.795  0.401  0.995-  10 1.75   7 2.35   3 2.35
  48  0.705  0.901  0.505-   9 1.75   8 2.35   4 2.35
  49  0.295  0.401  0.505-  11 1.75   1 2.35   5 2.35
  50  0.205  0.901  0.995-  12 1.75   2 2.35   6 2.35
  51  0.205  0.599  0.005-  12 1.75   3 2.35   7 2.35
  52  0.295  0.099  0.495-  11 1.75   4 2.35   8 2.35

  LATTYP: Found a simple orthorhombic cell.
 ALAT       =     4.5033170000
 B/A-ratio  =     2.1368588976
 C/A-ratio  =     3.0438716617

  Lattice vectors:

 A1 = (   4.5033170000,   0.0000000000,   0.0000000000)
 A2 = (   0.0000000000,   9.6229530000,   0.0000000000)
 A3 = (   0.0000000000,   0.0000000000,  13.7075190000)

Analysis of symmetry for initial positions (statically):
 Subroutine PRICEL returns:
 Original cell was already a primitive cell.

 Routine SETGRP: Setting up the symmetry group for a
 simple orthorhombic supercell.

 Subroutine GETGRP returns: Found  8 space group operations
 (whereof  2 operations were pure point group operations)
 out of a pool of  8 trial point group operations.

The static configuration has the point symmetry S_2 .
 The point group associated with its full space group is D_2h.

Analysis of symmetry for dynamics (positions and initial velocities):
 Subroutine PRICEL returns:
 Original cell was already a primitive cell.

[...]

The dynamic configuration has the point symmetry S_2 .
 The point group associated with its full space group is D_2h.

Analysis of structural, dynamic, and magnetic symmetry:
 Subroutine PRICEL returns:
 Original cell was already a primitive cell.

 Routine SETGRP: Setting up the symmetry group for a
 simple orthorhombic supercell.

 Subroutine GETGRP returns: Found  8 space group operations
 (whereof  2 operations were pure point group operations)
 out of a pool of  8 trial point group operations.

The overall configuration has the point symmetry S_2 .
 The point group associated with its full space group is D_2h.

 Subroutine INISYM returns: Found  8 space group operations
 (whereof  2 operations are pure point group operations),
 and found     1 'primitive' translations

                                     Primitive cell

  volume of cell :     594.0182

  direct lattice vectors                    reciprocal lattice vectors
     4.503317000  0.000000000  0.000000000     0.222058540  0.000000000  0.000000000
     0.000000000  9.622953000  0.000000000     0.000000000  0.103918205  0.000000000
     0.000000000  0.000000000 13.707519000     0.000000000  0.000000000  0.072952662

  length of vectors
     4.503317000  9.622953000 13.707519000     0.222058540  0.103918205  0.072952662

  position of ions in fractional coordinates (direct lattice)
     0.465037000  0.528941000  0.639751000
     0.034963000  0.028941000  0.860249000
     0.034963000  0.471059000  0.139751000
     0.465037000  0.971059000  0.360249000
     0.534963000  0.471059000  0.360249000
     0.965037000  0.971059000  0.139751000
     0.965037000  0.528941000  0.860249000
     0.534963000  0.028941000  0.639751000
     0.919810000  0.750000000  0.500000000
     0.580190000  0.250000000  0.000000000
     0.080190000  0.250000000  0.500000000
     0.419810000  0.750000000  0.000000000
     0.532953000  0.705020000  0.201006000
     0.967047000  0.205020000  0.298994000
     0.967047000  0.294980000  0.701006000
     0.532953000  0.794980000  0.798994000
     0.467047000  0.294980000  0.798994000
     0.032953000  0.794980000  0.701006000
     0.032953000  0.705020000  0.298994000
     0.467047000  0.205020000  0.201006000
     0.539377000  0.553981000  0.193851000
     0.960623000  0.053981000  0.306149000
     0.960623000  0.446019000  0.693851000
     0.539377000  0.946019000  0.806149000
     0.460623000  0.446019000  0.806149000
     0.039377000  0.946019000  0.693851000
     0.039377000  0.553981000  0.306149000
     0.460623000  0.053981000  0.193851000
     0.651616000  0.765398000  0.106737000
     0.848384000  0.265398000  0.393263000
     0.848384000  0.234602000  0.606737000
     0.651616000  0.734602000  0.893263000
     0.348384000  0.234602000  0.893263000
     0.151616000  0.734602000  0.606737000
     0.151616000  0.765398000  0.393263000
     0.348384000  0.265398000  0.106737000
     0.224804000  0.758654000  0.217920000
     0.275196000  0.258654000  0.282080000
     0.275196000  0.241346000  0.717920000
     0.224804000  0.741346000  0.782080000
     0.775196000  0.241346000  0.782080000
     0.724804000  0.741346000  0.717920000
     0.724804000  0.758654000  0.282080000
     0.775196000  0.258654000  0.217920000
[...]
  318                map_forward                           0.000325                    4   7
  319                  map_gather                            0.000056                  2   8
  320                  m_alltoallv_z                         0.000025                  2   8
  321                  map_scatter                           0.000209                  2   8
  322                map_backward                          0.000109                    2   7
  323                  map_gather                            0.000028                  1   8
  324                  m_alltoallv_z                         0.000011                  1   8
  325                  map_scatter                           0.000053                  1   8
  326          m_sumb_d                              0.000012                          2   4
  327          pothar                                0.000098                          1   4
  328            m_sumb_d                              0.000018                        1   5
  329        brmix                                 0.015005                            1   3
  330          m_sumb_d                              0.000127                          6   4
  331          brpre                                 0.000048                          2   4
  332          setg0                                 0.002010                          1   4
  333          broyd                                 0.010332                          1   4
  334            m_sumb_d                              0.000428                       48   5
  335            brget                                 0.002213                      214   5
  336            brsav                                 0.000461                       46   5
  337        m_bcast_d                             0.000131                            2   3
  338      potlok                                0.067997                              2   2
  339        fft3d_mpi                             0.040107                           36   3
  340          fftbrc_mpi                            0.034080                         36   4
  341            fftbas_plan_mpi                       0.034055                       36   5
  342              map_forward                           0.009473                     40   6
  343                map_gather                            0.002729                   24   7
  344                m_alltoallv_z                         0.003788                   24   7
  345                map_scatter                           0.002720                   24   7
  346              map_backward                          0.008178                     32   6
  347                map_gather                            0.002482                   16   7
  348                m_alltoallv_z                         0.003078                   16   7
  349                map_scatter                           0.002406                   16   7
  350              dfftw_execute                         0.014581                     30   6
  351        m_sumb_d                              0.000028                            5   3
  352        pothar                                0.002783                            2   3
  353          m_sumb_d                              0.000251                          2   4
  354        m_bcast_d                             0.004697                            4   3
  355      potlok_metagga                        0.000001                              1   2
  356      set_dd_magatom                        0.000004                              1   2
  357      set_dd_paw                            4.595395                              1   2
  358        m_sumb_d                              0.000654                            7   3
  359      augmentation_charge                   0.266813                              1   2
  360        fft3d_mpi                             0.121007                            2   3
  361          fftbrc_mpi                            0.105250                          2   4
  362            fftbas_plan_mpi                       0.105246                        2   5
  363              dfftw_execute                         0.068674                      6   6
  364              map_backward                          0.036247                      4   6
  365                map_gather                            0.012975                    2   7
  366                m_alltoallv_z                         0.011616                    2   7
  367                map_scatter                           0.011643                    2   7
  368      fftwav_mpi                           13.728020                           6912   2
  369        fftwav                               13.718983                         6912   3
  370          fft3d                                12.714917                       6912   4
  371      densta                               24.173368                              1   2

 Flat profile

 set_dd_paw                            247.651185          54
 eddav                                 137.217470          56
 raccmu_                               118.705831      249389
 lapack                                117.519560      249389
 redis_pw                               62.094363     1370958
 m_sumb_d                               57.058760      756180
 densta                                 36.068514          57
 fft3d                                  26.666675     1491330
 total_time                             25.622936           1
 m_alltoall_d                           25.396154     3631990
 eccp                                   14.748920      129024
 phaser                                 14.537089        2000
 orth1                                  13.465944      748455
 init_acc                               11.530114           1
 redis_proj                             11.452217     1740744
 setdij_                                10.864658          80
 fftwav                                 10.659990      992552
 dfftw_execute                          10.360375        1740
 hamiltmu                                8.646238      249389
 augmentation_charge                     7.875880          54
 rpromu_acc                              7.575659      192365
 racc0mu_acc                             7.257710      249389
 w1_copy                                 7.181328     1496334
 overl                                   7.090392      868564
 m_bcast_z                               6.561327      258605
 ggemm                                   5.256189      313901
 soft_charge                             4.725815          53
 setup_precond                           4.665973      129024
 m_bcast_d                               4.150025      498891
 overl_mu                                3.907900      249389
 acc_init_cublas                         3.436597           1
 pw_charge                               3.339716       87156
 fft3d_mpi                               2.274068      500761
 kinhamil                                2.234021      498778
 vhamil                                  2.223166      498778
 m_alltoallv_z                           2.179013        2217
 fftext_mpi                              2.078403      498778
 newband                                 2.003006      251181
 depsum                                  1.986155          53
 apply_precond                           1.969773      369754
 map_scatter                             1.627681        2217
 map_gather                              1.595127        2217
 rpro_isp                                1.574392         208
 fftwav_mpi                              1.301841      992552
 acc_init_cusolver                       1.096293           1
 set_charge                              0.947006          53
 sphpro_fast                             0.879347           2
 rspher_all                              0.458709          14
 potlok                                  0.380939          54
 acc_cufft_makeplan                      0.271892          19
 elmin                                   0.230887           1
 broyd                                   0.209332          52
 w1_projall                              0.174821      184877
 brmix                                   0.169127          52
 proall                                  0.151896           1
 fftbas_plan_mpi                         0.124209        1983
 setg0                                   0.103423          54
 orthch                                  0.102542           1
 brget                                   0.074548        7101
 lincom                                  0.073387        1824
 force_and_stress                        0.055094           1
 truncate_high_frequency_w1              0.050777      627802
 stufak                                  0.047521           1
 choleski                                0.029910          32
 brsav                                   0.018321        1785
 map_forward                             0.013165        1888
 map_backward                            0.012833        2078
 strnlr                                  0.012092           1
 fft_gq                                  0.009526          53
 pothar                                  0.007374          55
 forhar                                  0.004971           2
 inisym                                  0.004859           1
 strkin                                  0.004376           1
 fornlr                                  0.004097           1
 strelo                                  0.003613           1
 rsp                                     0.002979           1
 strehar                                 0.002713           1
 brpre                                   0.002679         104
 forloc                                  0.002556           1
 fftbrc_mpi                              0.001311        1983
 fewald                                  0.000415           1
 brgrid                                  0.000371           1
 chggra                                  0.000273           1
 set_dd_magatom                          0.000245          54
 vectorpot                               0.000213          53
 fordep                                  0.000175           1
 posmap                                  0.000100           2
 rcp                                     0.000091           1
 crpa_reader                             0.000026           1
 acc_cufft_makeplans                     0.000010           3
 potlok_metagga                          0.000005          53
 rotate_active_occupied_orbital          0.000000           1
 redis_pw_over_bands                     0.000000           1
  summed up times     1062.079192161560

 Accumulative profile

 total_time                           1062.079192           1
 elmin                                 950.201543           1
 eddav                                 655.796680          56
 set_dd_paw                            248.784756          54
 hamiltmu                              148.683143      249389
 raccmu_                               129.871440      249389
 lapack                                117.519560      249389
 redis_pw                               74.682142     1370958
 m_sumb_d                               57.058760      756180
 densta                                 36.068514          57
 fftwav_mpi                             35.147358      992552
 fftwav                                 33.845517      992552
 set_charge                             31.991020          53
 newband                                31.411925      251181
 fft3d                                  26.666675     1491330
 m_alltoall_d                           25.396154     3631990
 redis_proj                             24.260592     1740744
 fft3d_mpi                              21.668929      500761
 setdij_                                21.188219          80
 force_and_stress                       18.581238           1
 fftbrc_mpi                             15.913713        1983
 fftbas_plan_mpi                        15.912402        1983
 eccp                                   14.748920      129024
 soft_charge                            14.594936          53
 augmentation_charge                    14.549149          54
 phaser                                 14.537089        2000
 orth1                                  13.465944      748455
 init_acc                               11.530114           1
 dfftw_execute                          10.360375        1740
 kinhamil                                7.942298      498778
 rpromu_acc                              7.575659      192365
 racc0mu_acc                             7.257710      249389
 w1_copy                                 7.181328     1496334
 overl                                   7.090392      868564
 m_bcast_z                               6.561327      258605
 fftext_mpi                              5.708277      498778
 w1_projall                              5.526575      184877
 ggemm                                   5.256189      313901
 strnlr                                  4.836329           1
 rpro_isp                                4.762725         208
 setup_precond                           4.665973      129024
 m_bcast_d                               4.150025      498891
 overl_mu                                3.907900      249389
 acc_init_cublas                         3.436597           1
 pw_charge                               3.339716       87156
 map_backward                            2.788519        2078
 map_forward                             2.639300        1888
 vhamil                                  2.223166      498778
 m_alltoallv_z                           2.179013        2217
 depsum                                  2.016023          53
 apply_precond                           1.969773      369754
 map_scatter                             1.627681        2217
 fornlr                                  1.609231           1
 map_gather                              1.595127        2217
 fordep                                  1.581540           1
 acc_init_cusolver                       1.096293           1
 sphpro_fast                             0.918416           2
 potlok                                  0.841173          54
 orthch                                  0.662195           1
 brmix                                   0.594929          52
 rspher_all                              0.458709          14
 proall                                  0.450031           1
 broyd                                   0.315358          52
 acc_cufft_makeplans                     0.271902           3
 acc_cufft_makeplan                      0.271892          19
 fft_gq                                  0.211539          53
 setg0                                   0.103423          54
 brget                                   0.074548        7101
 lincom                                  0.073387        1824
 truncate_high_frequency_w1              0.050777      627802
 stufak                                  0.047521           1
 choleski                                0.029910          32
 brsav                                   0.018321        1785
 pothar                                  0.008180          55
 forhar                                  0.005016           2
 inisym                                  0.004959           1
 strkin                                  0.004396           1
 forloc                                  0.004091           1
 fewald                                  0.003813           1
 strelo                                  0.003622           1
 rsp                                     0.002979           1
 strehar                                 0.002737           1
 brpre                                   0.002679         104
 chggra                                  0.001019           1
 brgrid                                  0.000371           1
 set_dd_magatom                          0.000245          54
 vectorpot                               0.000213          53
 posmap                                  0.000100           2
 rcp                                     0.000091           1
 crpa_reader                             0.000026           1
 potlok_metagga                          0.000005          53
 rotate_active_occupied_orbital          0.000000           1
 redis_pw_over_bands                     0.000000           1

Profiling took   3.252135  1.521325  0.003257  0.003138 seconds
Profiling took   1.933902 seconds