 vasp.6.3.2 27Jun22 (build Jul  3 2023 11:46:21) complex
 executed on    LinuxNV_CrayMPICH date 2024.04.20  22:57:46

 INCAR:
   ADDGRID = True
   ALGO = Normal
   EDIFF = 0.0007
   ENCUT = 520.0
   IBRION = -1
   ICHARG = 0
   ISIF = 3
   ISMEAR = -5
   ISPIN = 2
   KPOINT_BSE = -1 0 0 0
   LAECHG = True
   LASPH = True
   LCHARG = True
   LELF = True
   LORBIT = 11
   LREAL = Auto
   LVHAR = True
   LWAVE = False
   MAGMOM = 2*0.6 2*7.0 10*0.6
   NELM = 1000
   NSW = 0
   PREC = accurate
   SIGMA = 0.05

 POTCAR:    PAW_PBE Li_sv 10Sep2004
 POTCAR:    PAW_PBE Eu 23Dec2003
 POTCAR:    PAW_PBE P 06Sep2000
 POTCAR:    PAW_PBE Se 06Sep2000
 POTCAR:    PAW_PBE Li_sv 10Sep2004
   VRHFIN =Li: 1s2s2p

   TITEL  = PAW_PBE Li_sv 10Sep2004
   POMASS =    7.010; ZVAL   =    3.000    mass and valenz
   ENMAX  =  499.034; ENMIN  =  374.276 eV

   TITEL  = PAW_PBE Eu 23Dec2003
   POMASS =  151.965; ZVAL   =   17.000    mass and valenz
   ENMAX  =  249.668; ENMIN  =  187.251 eV

   TITEL  = PAW_PBE P 06Sep2000
   POMASS =   30.974; ZVAL   =    5.000    mass and valenz
   ENMAX  =  255.040; ENMIN  =  191.280 eV

   TITEL  = PAW_PBE Se 06Sep2000
   POMASS =   78.960; ZVAL   =    6.000    mass and valenz
   ENMAX  =  211.555; ENMIN  =  158.666 eV

 Optimization of the real space projectors (new method)

 maximal supplied QI-value         = 22.11
 optimisation between [QCUT,QGAM] = [ 11.50, 23.22] = [ 37.02,150.92] Ry
 Optimized for a Real-space Cutoff    1.08 Angstroem

   l    n(q)    QCUT    max X(q) W(low)/X(q) W(high)/X(q)  e(spline)
   0      7    11.497    10.506    0.36E-04    0.62E-04    0.14E-07
   0      7    11.497     8.367    0.65E-04    0.14E-03    0.28E-07
   1      7    11.497     8.983    0.21E-03    0.43E-03    0.90E-07
 Optimization of the real space projectors (new method)

[...]

   l    n(q)    QCUT    max X(q) W(low)/X(q) W(high)/X(q)  e(spline)
   0      8    11.508   160.924    0.96E-04    0.17E-03    0.52E-07
   0      8    11.508   130.086    0.95E-04    0.17E-03    0.51E-07
   1      8    11.508    74.434    0.16E-03    0.74E-04    0.91E-07
   1      8    11.508    49.120    0.16E-03    0.71E-04    0.89E-07
 Optimization of the real space projectors (new method)

 maximal supplied QI-value         = 17.95
 optimisation between [QCUT,QGAM] = [ 11.67, 23.34] = [ 38.13,152.52] Ry
 Optimized for a Real-space Cutoff    1.25 Angstroem

   l    n(q)    QCUT    max X(q) W(low)/X(q) W(high)/X(q)  e(spline)
   0      9    11.669   133.320    0.17E-03    0.44E-04    0.69E-07
   0      9    11.669   111.601    0.18E-03    0.46E-04    0.72E-07
   1      8    11.669    47.222    0.22E-03    0.37E-03    0.10E-06
   1      8    11.669    33.775    0.22E-03    0.36E-03    0.10E-06
   2      8    11.669     3.720    0.19E-03    0.46E-04    0.50E-07
  PAW_PBE Li_sv 10Sep2004               :
  PAW_PBE Eu 23Dec2003                  :
  PAW_PBE P 06Sep2000                   :
  PAW_PBE Se 06Sep2000                  :

 POSCAR: Li2 Eu2 P2 Se8
  positions in direct lattice
 exchange correlation table for  LEXCH =        8
   RHO(1)=    0.500       N(1)  =     2000
   RHO(2)=  100.500       N(2)  =     4000

 VTST: version 4.2, (08/11/21)

 CHAIN: initializing optimizer

 OPT: Using VASP Dynamics algorithm
 CHAIN: Read ICHAIN             0

 POSCAR: Li2 Eu2 P2 Se8
  positions in direct lattice

 ion  position               nearest neighbor table
   1  0.632  0.632  0.000-  14 2.54   7 2.54
   2  0.632  0.632  0.500-  11 2.54  10 2.54
   3  0.107  0.107  0.000-   8 3.01  12 3.01   7 3.11  14 3.11
   4  0.107  0.107  0.500-   8 3.01  12 3.01  11 3.11  10 3.11
   5  0.847  0.415  0.250-   8 2.25   7 2.25  10 2.25   9 2.27
   6  0.415  0.847  0.750-  12 2.25  11 2.25  14 2.25  13 2.27
   7  0.680  0.254  0.057-   5 2.25   1 2.54   3 3.11
   8  0.201  0.402  0.250-   5 2.25   4 3.01   3 3.01
   9  0.831  0.772  0.250-   5 2.27
  10  0.680  0.254  0.443-   5 2.25   2 2.54   4 3.11
  11  0.254  0.680  0.557-   6 2.25   2 2.54   4 3.11
  12  0.402  0.201  0.750-   6 2.25   4 3.01   3 3.01
  13  0.772  0.831  0.750-   6 2.27
  14  0.254  0.680  0.943-   6 2.25   1 2.54   3 3.11

  LATTYP: Found a base centered orthorhombic cell.
 ALAT       =     7.5933360000
 B/A-ratio  =     1.3185390453
 C/A-ratio  =     1.2790934051

  Lattice vectors:

 A1 = (   3.7966680000,  -5.0060550000,   0.0000000000)
 A2 = (   3.7966680000,   5.0060550000,   0.0000000000)
 A3 = (   0.0000000000,   0.0000000000,   9.7125860000)

Analysis of symmetry for initial positions (statically):
 Subroutine PRICEL returns:
 Original cell was already a primitive cell.

 Routine SETGRP: Setting up the symmetry group for a
 base centered orthorhombic supercell.

 Subroutine GETGRP returns: Found  4 space group operations
 (whereof  2 operations were pure point group operations)
 out of a pool of  8 trial point group operations.

The static configuration has the point symmetry C_2 .
 The point group associated with its full space group is C_2v.

Analysis of symmetry for dynamics (positions and initial velocities):
 Subroutine PRICEL returns:
 Original cell was already a primitive cell.

[...]

The dynamic configuration has the point symmetry C_2 .
 The point group associated with its full space group is C_2v.

Analysis of structural, dynamic, and magnetic symmetry:
 Subroutine PRICEL returns:
 Original cell was already a primitive cell.

 Routine SETGRP: Setting up the symmetry group for a
 base centered orthorhombic supercell.

 Subroutine GETGRP returns: Found  4 space group operations
 (whereof  2 operations were pure point group operations)
 out of a pool of  8 trial point group operations.

The overall configuration has the point symmetry C_2 .
 The point group associated with its full space group is C_2v.

 Subroutine INISYM returns: Found  4 space group operations
 (whereof  2 operations are pure point group operations),
 and found     1 'primitive' translations

                                     Primitive cell

  volume of cell :     369.2012

  direct lattice vectors                    reciprocal lattice vectors
     3.796668000 -5.006055000  0.000000000     0.131694423 -0.099879046  0.000000000
     3.796668000  5.006055000  0.000000000     0.131694423  0.099879046 -0.000000000
     0.000000000  0.000000000  9.712586000    -0.000000000  0.000000000  0.102959191

  length of vectors
     6.282935187  6.282935187  9.712586000     0.165285344  0.165285344  0.102959191

  position of ions in fractional coordinates (direct lattice)
     0.632035000  0.632035000  0.000000000
     0.632035000  0.632035000  0.500000000
     0.106639000  0.106639000  0.000000000
     0.106639000  0.106639000  0.500000000
     0.846824000  0.415078000  0.250000000
     0.415078000  0.846824000  0.750000000
     0.679910000  0.253828000  0.056884000
     0.200681000  0.401608000  0.250000000
     0.830573000  0.772417000  0.250000000
     0.679910000  0.253828000  0.443116000
     0.253828000  0.679910000  0.556884000
     0.401608000  0.200681000  0.750000000
     0.772417000  0.830573000  0.750000000
     0.253828000  0.679910000  0.943116000

  ion indices of the primitive-cell ions
   primitive index   ion index
                 1           1
                 2           2
                 3           3
                 4           4
                 5           5
                 6           6
                 7           7
                 8           8
                 9           9
                10          10
                11          11
                12          12
                13          13
                14          14

 KPOINTS: Kpoints from vasprun.xml

Automatic generation of k-mesh.
 Grid dimensions read from file:
 generate k-points for:    4    4    3

 Generating k-lattice:

  Cartesian coordinates                     Fractional coordinates (reciprocal lattice)
     0.032923606 -0.024969762  0.000000000     0.250000000  0.000000000  0.000000000
     0.032923606  0.024969762 -0.000000000     0.000000000  0.250000000  0.000000000
    -0.000000000  0.000000000  0.034319730     0.000000000  0.000000000  0.333333333

  Length of vectors
     0.041321336  0.041321336  0.034319730

  Shift w.r.t. Gamma in fractional coordinates (k-lattice)
     0.000000000  0.000000000  0.000000000

 TETIRR: Found     74 inequivalent tetrahedra from      288

 Subroutine IBZKPT returns following result:

 Found     14 irreducible k-points:

 Following reciprocal coordinates:
            Coordinates               Weight
  0.000000  0.000000  0.000000      1.000000
  0.250000  0.000000  0.000000      4.000000
  0.500000  0.000000  0.000000      2.000000
  0.250000  0.250000  0.000000      2.000000
  0.500000  0.250000  0.000000      4.000000
 -0.250000  0.250000  0.000000      2.000000
  0.500000  0.500000  0.000000      1.000000
  0.000000  0.000000  0.333333      2.000000
  0.250000  0.000000  0.333333      8.000000
  0.500000  0.000000  0.333333      4.000000
  0.250000  0.250000  0.333333      4.000000
  0.500000  0.250000  0.333333      8.000000
 -0.250000  0.250000  0.333333      4.000000
  0.500000  0.500000  0.333333      2.000000

 Following cartesian coordinates:
            Coordinates               Weight
  0.000000  0.000000  0.000000      1.000000
  0.032924 -0.024970  0.000000      4.000000
  0.065847 -0.049940  0.000000      2.000000
  0.065847  0.000000  0.000000      2.000000
  0.098771 -0.024970  0.000000      4.000000
  0.000000  0.049940  0.000000      2.000000
  0.131694  0.000000  0.000000      1.000000
  0.000000  0.000000  0.034320      2.000000
  0.032924 -0.024970  0.034320      8.000000
  0.065847 -0.049940  0.034320      4.000000
  0.065847  0.000000  0.034320      4.000000
  0.098771 -0.024970  0.034320      8.000000
  0.000000  0.049940  0.034320      4.000000
  0.131694  0.000000  0.034320      2.000000

 SYSTEM =  unknown system
 POSCAR =  Li2 Eu2 P2 Se8

 Startparameter for this run:
   NWRITE =      2    write-flag & timer
   PREC   = accura    normal or accurate (medium, high low for compatibility)
   ISTART =      0    job   : 0-new  1-cont  2-samecut
   ICHARG =      0    charge: 1-file 2-atom 10-const
   ISPIN  =      2    spin polarized calculation?
   LNONCOLLINEAR =      F non collinear calculations
   LSORBIT =      F    spin-orbit coupling
   INIWAV =      1    electr: 0-lowe 1-rand  2-diag
   LASPH  =      T    aspherical Exc in radial PAW
 Electronic Relaxation 1
   ENCUT  =  520.0 eV  38.22 Ry    6.18 a.u.  11.68 11.68 18.06*2*pi/ulx,y,z
   ENINI  =  520.0     initial cutoff
   ENAUG  =  628.9 eV  augmentation charge cutoff
   NELM   =   1000;   NELMIN=  2; NELMDL= -5     # of ELM steps
   EDIFF  = 0.7E-03   stopping-criterion for ELM
   LREAL  =      T    real-space projection
   NLSPLINE    = F    spline interpolate recip. space projectors
   LCOMPAT=      F    compatible to vasp.4.4
   GGA_COMPAT  = T    GGA compatible to vasp.4.4-vasp.4.6
   LMAXPAW     = -100 max onsite density
   LMAXMIX     =    2 max onsite mixed and CHGCAR
   VOSKOWN=      0    Vosko Wilk Nusair interpolation
   ROPT   =   -0.00025  -0.00025  -0.00025  -0.00025
 Ionic relaxation
   EDIFFG = 0.7E-02   stopping-criterion for IOM
[...]
  318                map_forward                           0.000205                    4   7
  319                  map_gather                            0.000050                  2   8
  320                  m_alltoallv_z                         0.000027                  2   8
  321                  map_scatter                           0.000097                  2   8
  322                map_backward                          0.000099                    2   7
  323                  map_gather                            0.000024                  1   8
  324                  m_alltoallv_z                         0.000011                  1   8
  325                  map_scatter                           0.000049                  1   8
  326          m_sumb_d                              0.000009                          2   4
  327          pothar                                0.000085                          1   4
  328            m_sumb_d                              0.000010                        1   5
  329        brmix                                 0.010261                            1   3
  330          m_sumb_d                              0.000034                          6   4
  331          brpre                                 0.000029                          2   4
  332          setg0                                 0.001163                          1   4
  333          broyd                                 0.007636                          1   4
  334            brget                                 0.001772                      326   5
  335            brsav                                 0.000819                      163   5
  336            m_sumb_d                              0.000712                       47   5
  337        m_bcast_d                             0.000022                            2   3
  338      potlok                                0.043797                              2   2
  339        fft3d_mpi                             0.026277                           36   3
  340          fftbrc_mpi                            0.022324                         36   4
  341            fftbas_plan_mpi                       0.022300                       36   5
  342              map_forward                           0.006363                     40   6
  343                map_gather                            0.001987                   24   7
  344                m_alltoallv_z                         0.002334                   24   7
  345                map_scatter                           0.001837                   24   7
  346              map_backward                          0.005821                     32   6
  347                map_gather                            0.001749                   16   7
  348                m_alltoallv_z                         0.002337                   16   7
  349                map_scatter                           0.001549                   16   7
  350              dfftw_execute                         0.008172                     30   6
  351        m_sumb_d                              0.000025                            5   3
  352        pothar                                0.001650                            2   3
  353          m_sumb_d                              0.000142                          2   4
  354        m_bcast_d                             0.002779                            4   3
  355      potlok_metagga                        0.000000                              1   2
  356      set_dd_magatom                        0.000004                              1   2
  357      set_dd_paw                            1.912028                              1   2
  358        m_sumb_d                              0.001323                            7   3
  359      augmentation_charge                   0.128746                              1   2
  360        fft3d_mpi                             0.057599                            2   3
  361          fftbrc_mpi                            0.050888                          2   4
  362            fftbas_plan_mpi                       0.050885                        2   5
  363              dfftw_execute                         0.032851                      6   6
  364              map_backward                          0.017744                      4   6
  365                map_gather                            0.004328                    2   7
  366                m_alltoallv_z                         0.006801                    2   7
  367                map_scatter                           0.006607                    2   7
  368      fftwav_mpi                            1.848992                           1512   2
  369        fftwav                                1.847039                         1512   3
  370          fft3d                                 1.714968                       1512   4
  371      densta                                0.943716                              1   2

 Flat profile

 set_dd_paw                            216.060092         113
 eddav                                  59.095018         115
 lapack                                 55.733325      115859
 m_sumb_d                               55.385526      360719
 raccmu_                                44.237382      115859
 redis_pw                               25.971080      643690
 total_time                             12.540100           1
 m_alltoall_d                           11.923409     1682506
 init_acc                               11.286164           1
 dfftw_execute                           9.383726        3156
 setdij_                                 9.223439         139
 augmentation_charge                     7.927284         113
 fft3d                                   7.155670      685126
 phaser                                  6.512529        3402
 eccp                                    5.903308       57960
 redis_proj                              5.377281      817476
 densta                                  5.109123         116
 fftwav                                  4.386745      453408
 orth1                                   3.725276      347661
 w1_copy                                 3.423429      695154
 racc0mu_acc                             3.402610      115859
 overl                                   3.375245      405504
 hamiltmu                                3.317259      115859
 rpromu_acc                              2.859605       88699
 soft_charge                             2.739153         112
 m_bcast_z                               2.602364      117875
 acc_init_cublas                         2.396559           1
 m_alltoallv_z                           2.303252        4459
 setup_precond                           2.107376       57960
 m_bcast_d                               1.973353      231949
 map_scatter                             1.858848        4459
 overl_mu                                1.786324      115859
 fft3d_mpi                               1.767045      235707
 ggemm                                   1.513877      144839
 pw_charge                               1.241328       39868
 map_gather                              1.188128        4459
 set_charge                              1.180861         112
 vhamil                                  1.077535      231718
 kinhamil                                1.050268      231718
 fftext_mpi                              0.970251      231718
 apply_precond                           0.946185      173758
 newband                                 0.925102      119079
 depsum                                  0.922653         112
 acc_init_cusolver                       0.793090           1
 fftwav_mpi                              0.606007      453408
 potlok                                  0.521110         113
 broyd                                   0.452356         111
 rpro_isp                                0.363203         182
 fftbas_plan_mpi                         0.233813        3989
 elmin                                   0.229624           1
 brmix                                   0.226764         111
 acc_cufft_makeplan                      0.172352          19
 setg0                                   0.132028         113
 brget                                   0.124552       21431
 rspher_all                              0.120046          14
 lincom                                  0.110966        3248
 w1_projall                              0.089259       86879
 sphpro_fast                             0.067266           2
 proall                                  0.052252           1
 brsav                                   0.032938        5975
 map_backward                            0.023393        4202
 map_forward                             0.023324        3776
 truncate_high_frequency_w1              0.022150      289678
 orthch                                  0.018001           1
 force_and_stress                        0.014187           1
 fft_gq                                  0.011430         112
 pothar                                  0.010666         114
 choleski                                0.009127          28
 stufak                                  0.008679           1
 inisym                                  0.004326           1
 strnlr                                  0.003997           1
 brpre                                   0.003728         222
 forhar                                  0.003096           2
 fftbrc_mpi                              0.002352        3989
 strelo                                  0.002323           1
 forloc                                  0.001838           1
 strehar                                 0.001676           1
 fornlr                                  0.001420           1
 strkin                                  0.000664           1
 set_dd_magatom                          0.000511         113
 vectorpot                               0.000478         112
 fewald                                  0.000383           1
 rsp                                     0.000288           1
 chggra                                  0.000257           1
 brgrid                                  0.000230           1
 fordep                                  0.000081           1
 crpa_reader                             0.000026           1
 rcp                                     0.000023           1
 posmap                                  0.000022           2
 acc_cufft_makeplans                     0.000011           3
 potlok_metagga                          0.000005         112
 redis_pw_over_bands                     0.000001           1
 rotate_active_occupied_orbital          0.000000           1
  summed up times     608.3614079952240

 Accumulative profile

 total_time                            608.361408           1
 elmin                                 567.445322           1
 eddav                                 311.753375         115
 set_dd_paw                            216.134350         113
 hamiltmu                               57.541618      115859
 lapack                                 55.733325      115859
 m_sumb_d                               55.385526      360719
 raccmu_                                49.426316      115859
 redis_pw                               31.780866      643690
 set_charge                             23.045004         112
 fft3d_mpi                              18.414714      235707
 setdij_                                18.247961         139
 fftbrc_mpi                             15.016837        3989
 fftbas_plan_mpi                        15.014484        3989
 augmentation_charge                    14.559670         113
 newband                                13.408771      119079
 m_alltoall_d                           11.923409     1682506
 redis_proj                             11.490905      817476
 init_acc                               11.286164           1
 fftwav_mpi                             10.517589      453408
 fftwav                                  9.911582      453408
 dfftw_execute                           9.383726        3156
 fft3d                                   7.155670      685126
 force_and_stress                        6.862469           1
 phaser                                  6.512529        3402
 soft_charge                             6.286946         112
 eccp                                    5.903308       57960
 densta                                  5.109123         116
 orth1                                   3.725276      347661
 kinhamil                                3.720508      231718
 w1_copy                                 3.423429      695154
 racc0mu_acc                             3.402610      115859
 overl                                   3.375245      405504
 map_backward                            2.861981        4202
 rpromu_acc                              2.859605       88699
 fftext_mpi                              2.670240      231718
 w1_projall                              2.634524       86879
 m_bcast_z                               2.602364      117875
 map_forward                             2.534964        3776
 acc_init_cublas                         2.396559           1
 m_alltoallv_z                           2.303252        4459
 setup_precond                           2.107376       57960
 m_bcast_d                               1.973353      231949
 map_scatter                             1.858848        4459
 overl_mu                                1.786324      115859
 ggemm                                   1.513877      144839
 pw_charge                               1.241328       39868
 potlok                                  1.189885         113
 map_gather                              1.188128        4459
 vhamil                                  1.077535      231718
 brmix                                   1.064364         111
 strnlr                                  0.970897           1
 apply_precond                           0.946185      173758
 depsum                                  0.943000         112
 rpro_isp                                0.877079         182
 acc_init_cusolver                       0.793090           1
 fordep                                  0.784873           1
 broyd                                   0.692948         111
 fornlr                                  0.323820           1
 orthch                                  0.303221           1
 fft_gq                                  0.301786         112
 acc_cufft_makeplans                     0.172363           3
 acc_cufft_makeplan                      0.172352          19
 setg0                                   0.132028         113
 brget                                   0.124552       21431
 rspher_all                              0.120046          14
 lincom                                  0.110966        3248
 proall                                  0.106429           1
 sphpro_fast                             0.069965           2
 brsav                                   0.032938        5975
 truncate_high_frequency_w1              0.022150      289678
 pothar                                  0.011877         114
 choleski                                0.009127          28
 stufak                                  0.008679           1
 inisym                                  0.004348           1
 brpre                                   0.003728         222
 forhar                                  0.003147           2
 strelo                                  0.002354           1
 forloc                                  0.001875           1
 strehar                                 0.001680           1
 fewald                                  0.001467           1
 chggra                                  0.000843           1
 strkin                                  0.000683           1
 set_dd_magatom                          0.000511         113
 vectorpot                               0.000478         112
 rsp                                     0.000288           1
 brgrid                                  0.000230           1
 crpa_reader                             0.000026           1
 rcp                                     0.000023           1
 posmap                                  0.000022           2
 potlok_metagga                          0.000005         112
 redis_pw_over_bands                     0.000001           1
 rotate_active_occupied_orbital          0.000000           1

Profiling took   1.447378  0.701039  0.003151  0.003066 seconds
Profiling took   0.875780 seconds