 vasp.6.3.2 27Jun22 (build Jul  3 2023 11:46:21) complex
 executed on    LinuxNV_CrayMPICH date 2024.04.21  19:57:50

 INCAR:
   ALGO = Fast
   EDIFF = 0.0026
   EFIELD_PEAD = 0.0 0.0 0.0
   ENCUT = 520.0
   IBRION = 2
   ICHARG = 1
   ISIF = 3
   ISMEAR = 0
   ISPIN = 2
   ISTART = 1
   LCALCEPS = False
   LCALCPOL = False
   LEFG = False
   LORBIT = 11
   LPEAD = False
   LREAL = Auto
   LWAVE = False
   MAGMOM = 8*7.0 12*0.6 32*5.0
   NELM = 1000
   NSW = 99
   PREC = accurate
   SIGMA = 0.2

 POTCAR:    PAW_PBE Eu 23Dec2003
 POTCAR:    PAW_PBE Si 05Jan2001
 POTCAR:    PAW_PBE Ni_pv 06Sep2000
 POTCAR:    PAW_PBE Eu 23Dec2003
   VRHFIN =Eu : [core=Kr4d]

   TITEL  = PAW_PBE Eu 23Dec2003
   POMASS =  151.965; ZVAL   =   17.000    mass and valenz
   ENMAX  =  249.668; ENMIN  =  187.251 eV

   TITEL  = PAW_PBE Si 05Jan2001
   POMASS =   28.085; ZVAL   =    4.000    mass and valenz
   ENMAX  =  245.345; ENMIN  =  184.009 eV

   TITEL  = PAW_PBE Ni_pv 06Sep2000
   POMASS =   58.690; ZVAL   =   16.000    mass and valenz
   ENMAX  =  367.986; ENMIN  =  275.989 eV

 Optimization of the real space projectors (new method)

 maximal supplied QI-value         = 13.42
 optimisation between [QCUT,QGAM] = [ 11.67, 23.35] = [ 38.16,152.62] Ry
 Optimized for a Real-space Cutoff    1.63 Angstroem

   l    n(q)    QCUT    max X(q) W(low)/X(q) W(high)/X(q)  e(spline)
   0     11    11.673    10.400    0.14E-04    0.18E-05    0.24E-07
   0     11    11.673    10.768    0.21E-04    0.32E-05    0.49E-07
   1     11    11.673     4.094    0.40E-05    0.13E-04    0.93E-07
   1     11    11.673     4.009    0.11E-04    0.46E-04    0.33E-06
   2     10    11.673    29.030    0.79E-04    0.60E-04    0.70E-06
   2     10    11.673    19.941    0.80E-04    0.60E-04    0.71E-06
   3     10    11.673    88.889    0.23E-03    0.29E-03    0.30E-06
   3     10    11.673    76.102    0.23E-03    0.30E-03    0.30E-06
 Optimization of the real space projectors (new method)

[...]

   l    n(q)    QCUT    max X(q) W(low)/X(q) W(high)/X(q)  e(spline)
   0      8    11.508   159.560    0.71E-04    0.15E-03    0.51E-07
   0      8    11.508   115.863    0.70E-04    0.15E-03    0.51E-07
   1      8    11.508    88.339    0.16E-03    0.38E-04    0.82E-07
   1      8    11.508    48.592    0.15E-03    0.36E-04    0.79E-07
 Optimization of the real space projectors (new method)

 maximal supplied QI-value         = 18.90
 optimisation between [QCUT,QGAM] = [ 11.53, 23.24] = [ 37.21,151.29] Ry
 Optimized for a Real-space Cutoff    1.36 Angstroem

   l    n(q)    QCUT    max X(q) W(low)/X(q) W(high)/X(q)  e(spline)
   1      9    11.527     2.836    0.16E-04    0.30E-04    0.95E-07
   1      9    11.527     4.023    0.73E-04    0.81E-04    0.21E-06
   2      9    11.527    73.368    0.15E-03    0.29E-03    0.28E-06
   2      9    11.527    69.010    0.15E-03    0.29E-03    0.29E-06
   0      9    11.527    54.797    0.43E-04    0.28E-04    0.85E-07
   0      9    11.527    24.266    0.33E-04    0.24E-04    0.75E-07
  PAW_PBE Eu 23Dec2003                  :
  PAW_PBE Si 05Jan2001                  :
  PAW_PBE Ni_pv 06Sep2000               :

 POSCAR: Eu8 Si12 Ni32
  positions in direct lattice
 exchange correlation table for  LEXCH =        8
   RHO(1)=    0.500       N(1)  =     2000
   RHO(2)=  100.500       N(2)  =     4000

 VTST: version 4.2, (08/11/21)

 CHAIN: initializing optimizer

 OPT: Using VASP Conjugate-Gradient optimizer
 CHAIN: Read ICHAIN             0

 POSCAR: Eu8 Si12 Ni32
  positions in direct lattice

 ion  position               nearest neighbor table
   1  0.886  0.008  0.250-  42 2.80  46 2.80  18 2.84  31 2.90  35 2.90  52 2.93  49 2.96  26 2.96
                            11 3.10  15 3.10
   2  0.614  0.750  0.508-  21 2.80  43 2.80  12 2.84  33 2.90  27 2.90  40 2.93  22 2.96  34 2.96
                            15 3.10   9 3.10
   3  0.114  0.992  0.750-  30 2.80  33 2.80  14 2.84  21 2.90  50 2.90  22 2.93  40 2.96  28 2.96
                            19 3.10  16 3.10
   4  0.386  0.250  0.492-  31 2.80  44 2.80  20 2.84  32 2.90  46 2.90  49 2.93  24 2.96  52 2.96
                            13 3.10  19 3.10
   5  0.614  0.750  0.992-  47 2.80  50 2.80  12 2.84  30 2.90  41 2.90  28 2.93  34 2.96  22 2.96
                            10 3.10  11 3.10
   6  0.886  0.492  0.250-  32 2.80  36 2.80  18 2.84  23 2.90  44 2.90  24 2.93  26 2.96  49 2.96
                             9 3.10  10 3.10
   7  0.386  0.250  0.008-  23 2.80  35 2.80  20 2.84  36 2.90  42 2.90  26 2.93  24 2.96  52 2.96
                            16 3.10  17 3.10
   8  0.114  0.508  0.750-  27 2.80  41 2.80  14 2.84  43 2.90  47 2.90  34 2.93  40 2.96  28 2.96
                            17 3.10  13 3.10
   9  0.750  0.467  0.533-  27 2.33  44 2.33  43 2.34  32 2.34  39 2.34  45 2.34  34 2.84  49 2.84
                             2 3.10   6 3.10
  10  0.750  0.467  0.967-  23 2.33  41 2.33  36 2.34  47 2.34  45 2.34  29 2.34  26 2.84  34 2.84
                             5 3.10   6 3.10
  11  0.750  0.033  0.967-  30 2.33  35 2.33  42 2.34  50 2.34  25 2.34  29 2.34  26 2.84  22 2.84
                             1 3.10   5 3.10
  12  0.483  0.750  0.250-  37 2.18  51 2.18  48 2.56  38 2.56   2 2.84   5 2.84
  13  0.250  0.533  0.467-  32 2.33  43 2.33  27 2.34  44 2.34  37 2.34  48 2.34  40 2.84  24 2.84
                             4 3.10   8 3.10
  14  0.983  0.250  0.750-  29 2.18  39 2.18  25 2.56  45 2.56   3 2.84   8 2.84
  15  0.750  0.033  0.533-  31 2.33  33 2.33  21 2.34  46 2.34  39 2.34  25 2.34  22 2.84  49 2.84
                             1 3.10   2 3.10
  16  0.250  0.967  0.033-  42 2.33  50 2.33  30 2.34  35 2.34  38 2.34  51 2.34  28 2.84  52 2.84
                             3 3.10   7 3.10
  17  0.250  0.533  0.033-  36 2.33  47 2.33  41 2.34  23 2.34  37 2.34  38 2.34  28 2.84  24 2.84
                             7 3.10   8 3.10
  18  0.017  0.750  0.250-  38 2.18  48 2.18  37 2.56  51 2.56   1 2.84   6 2.84
  19  0.250  0.967  0.467-  21 2.33  46 2.33  33 2.34  31 2.34  48 2.34  51 2.34  40 2.84  52 2.84
                             3 3.10   4 3.10
  20  0.517  0.250  0.750-  25 2.18  45 2.18  39 2.56  29 2.56   4 2.84   7 2.84
  21  0.473  0.970  0.629-  19 2.33  15 2.34  25 2.48  50 2.50   2 2.80   3 2.90
  22  0.755  0.865  0.750-  25 2.35  34 2.38  11 2.84  15 2.84   3 2.93   2 2.96   5 2.96
  23  0.527  0.470  0.129-  10 2.33  17 2.34  37 2.48  44 2.50   7 2.80   6 2.90
  24  0.245  0.365  0.250-  37 2.35  52 2.38  13 2.84  17 2.84   6 2.93   4 2.96   7 2.96
  25  0.714  0.090  0.750-  20 2.18  15 2.34  11 2.34  22 2.35  29 2.40  39 2.40  21 2.48  50 2.48
                            14 2.56
  26  0.745  0.250  0.135-  29 2.35  49 2.38  10 2.84  11 2.84   7 2.93   6 2.96   1 2.96
  27  0.973  0.629  0.530-   9 2.33  13 2.34  48 2.48  33 2.50   8 2.80   2 2.90
  28  0.255  0.750  0.865-  38 2.35  40 2.38  16 2.84  17 2.84   5 2.93   3 2.96   8 2.96
  29  0.786  0.250  0.910-  14 2.18  11 2.34  10 2.34  26 2.35  25 2.40  45 2.40  42 2.48  36 2.48
                            20 2.56
  30  0.973  0.871  0.970-  11 2.33  16 2.34  38 2.48  41 2.50   3 2.80   5 2.90
  31  0.527  0.030  0.371-  15 2.33  19 2.34  51 2.48  35 2.50   4 2.80   1 2.90
  32  0.027  0.371  0.470-  13 2.33   9 2.34  39 2.48  46 2.50   6 2.80   4 2.90
  33  0.973  0.871  0.530-  15 2.33  19 2.34  48 2.48  27 2.50   3 2.80   2 2.90
  34  0.755  0.635  0.750-  45 2.35  22 2.38   9 2.84  10 2.84   8 2.93   5 2.96   2 2.96
  35  0.527  0.030  0.129-  11 2.33  16 2.34  51 2.48  31 2.50   7 2.80   1 2.90
  36  0.027  0.371  0.030-  17 2.33  10 2.34  29 2.48  42 2.50   6 2.80   7 2.90
  37  0.286  0.590  0.250-  12 2.18  13 2.34  17 2.34  24 2.35  38 2.40  48 2.40  44 2.48  23 2.48
                            18 2.56
  38  0.214  0.750  0.090-  18 2.18  17 2.34  16 2.34  28 2.35  37 2.40  51 2.40  41 2.48  30 2.48
                            12 2.56
  39  0.786  0.250  0.590-  14 2.18   9 2.34  15 2.34  49 2.35  45 2.40  25 2.40  46 2.48  32 2.48
                            20 2.56
  40  0.255  0.750  0.635-  48 2.35  28 2.38  13 2.84  19 2.84   2 2.93   3 2.96   8 2.96
  41  0.973  0.629  0.970-  10 2.33  17 2.34  38 2.48  30 2.50   8 2.80   5 2.90
  42  0.027  0.129  0.030-  16 2.33  11 2.34  29 2.48  36 2.50   1 2.80   7 2.90
  43  0.473  0.530  0.629-  13 2.33   9 2.34  45 2.48  47 2.50   2 2.80   8 2.90
  44  0.527  0.470  0.371-   9 2.33  13 2.34  37 2.48  23 2.50   4 2.80   6 2.90
  45  0.714  0.410  0.750-  20 2.18  10 2.34   9 2.34  34 2.35  29 2.40  39 2.40  43 2.48  47 2.48
                            14 2.56
  46  0.027  0.129  0.470-  19 2.33  15 2.34  39 2.48  32 2.50   1 2.80   4 2.90
  47  0.473  0.530  0.871-  17 2.33  10 2.34  45 2.48  43 2.50   5 2.80   8 2.90
  48  0.214  0.750  0.410-  18 2.18  13 2.34  19 2.34  40 2.35  37 2.40  51 2.40  33 2.48  27 2.48
                            12 2.56
  49  0.745  0.250  0.365-  39 2.35  26 2.38   9 2.84  15 2.84   4 2.93   1 2.96   6 2.96
  50  0.473  0.970  0.871-  16 2.33  11 2.34  25 2.48  21 2.50   5 2.80   3 2.90
  51  0.286  0.910  0.250-  12 2.18  16 2.34  19 2.34  52 2.35  48 2.40  38 2.40  35 2.48  31 2.48
                            18 2.56
  52  0.245  0.135  0.250-  51 2.35  24 2.38  16 2.84  19 2.84   1 2.93   4 2.96   7 2.96

  LATTYP: Found a simple tetragonal cell.
 ALAT       =    10.3517371800
 C/A-ratio  =     0.7014759604

  Lattice vectors:

 A1 = (   0.0000000000,  10.3517371800,   0.0000000000)
 A2 = (   0.0000000000,   0.0000000000,  10.3517371800)
 A3 = (   7.2614947800,   0.0000000000,   0.0000000000)

Analysis of symmetry for initial positions (statically):
 Subroutine PRICEL returns:
 Original cell was already a primitive cell.

 Routine SETGRP: Setting up the symmetry group for a
 simple tetragonal supercell.

 Subroutine GETGRP returns: Found 16 space group operations
 (whereof  2 operations were pure point group operations)
 out of a pool of 16 trial point group operations.

The static configuration has the point symmetry S_2 .
 The point group associated with its full space group is D_4h.

Analysis of symmetry for dynamics (positions and initial velocities):
 Subroutine PRICEL returns:
 Original cell was already a primitive cell.

[...]

The dynamic configuration has the point symmetry S_2 .
 The point group associated with its full space group is D_4h.

Analysis of structural, dynamic, and magnetic symmetry:
 Subroutine PRICEL returns:
 Original cell was already a primitive cell.

 Routine SETGRP: Setting up the symmetry group for a
 simple tetragonal supercell.

 Subroutine GETGRP returns: Found 16 space group operations
 (whereof  2 operations were pure point group operations)
 out of a pool of 16 trial point group operations.

The overall configuration has the point symmetry S_2 .
 The point group associated with its full space group is D_4h.

 Subroutine INISYM returns: Found 16 space group operations
 (whereof  2 operations are pure point group operations),
 and found     1 'primitive' translations

                                     Primitive cell

  volume of cell :     778.1306

[...]
  325          m_sumb_d                              0.000365                         18   4
  326          brpre                                 0.000177                          6   4
  327          setg0                                 0.009630                          3   4
  328          broyd                                 0.009125                          3   4
  329            m_sumb_d                              0.001064                       61   5
  330            brsav                                 0.000707                       56   5
  331            brget                                 0.002844                      227   5
  332        m_bcast_d                             0.000188                            6   3
  333      potlok                                0.028890                              3   2
  334        fft3d_mpi                             0.017511                           78   3
  335          fftbrc_mpi                            0.013747                         78   4
  336            fftbas_plan_mpi                       0.013714                       78   5
  337              map_forward                           0.006148                     84   6
  338                map_gather                            0.001305                   48   7
  339                m_alltoallv_z                         0.000613                   48   7
  340                map_scatter                           0.003550                   48   7
  341              map_backward                          0.005121                     72   6
  342                map_gather                            0.001093                   36   7
  343                m_alltoallv_z                         0.000471                   36   7
  344                map_scatter                           0.002883                   36   7
  345        m_sumb_d                              0.000081                           15   3
  346        pothar                                0.000297                            3   3
  347          m_sumb_d                              0.000014                          3   4
  348        m_bcast_d                             0.000076                            6   3
  349      potlok_metagga                        0.000000                              3   2
  350      set_dd_magatom                        0.000011                              3   2
  351      set_dd_paw                            0.129147                              3   2
  352        m_sumb_d                              0.002075                           21   3
  353      wavpre_noio                           0.177642                              2   2
  354        stufak                                0.108480                            2   3
  355      densta                                0.011443                              1   2
  356        m_sumb_d                              0.002872                           42   3

 Flat profile

 init_acc                               10.877857           1
 total_time                             10.146769           1
 eccp                                    9.033934       95907
 raccmu_                                 8.855343       18869
 m_sumb_d                                4.947203       24374
 i2                                      4.612536       12525
 redis_pw                                4.211194       40064
 eccp_nl                                 3.946815       70903
 eddav                                   3.804175           7
 eddrmm                                  3.675618          40
 w1_gemv                                 3.387540      135636
 lapack                                  2.710647        6344
 setdij_                                 2.559536         125
 acc_init_cublas                         2.432599           1
 rpromu_acc                              2.413149       22297
 phaser                                  2.230683         266
 m_alltoall_d                            2.214797      333956
 eddiag                                  2.118022          40
 set_dd_paw                              2.071177          49
 cnorma                                  1.939067       70903
 fftwav                                  1.750885      150186
 fft3d                                   1.686948      233685
 rspher_all                              1.679394          40
 hamilt_local                            1.517510       21280
 augmentation_charge                     1.138350          43
 overl1                                  1.106769       67818
 rpro_isp                                1.104031          78
 soft_charge                             0.976106          43
 w1_copy                                 0.964519      186657
 set_charge                              0.932361          43
 setup_precond                           0.883999       25004
 hamiltmu                                0.841518       18869
 w1_dscal                                0.810685      134652
 acc_init_cusolver                       0.803645           1
 newband                                 0.722101       19057
 racc0mu_acc                             0.640576       18869
 w1_dot                                  0.610362       21280
 pw_charge                               0.608167       15787
 redis_proj                              0.605129       43988
 w1_daxpy                                0.569652       99246
 apply_precond                           0.556651      120118
 m_bcast_z                               0.523522        8472
 orth1                                   0.472904       24676
 w1_gaxpy                                0.450388       89966
 depsum                                  0.383665          43
 potlok                                  0.367923          46
 kinhamil                                0.358183       83499
 vhamil                                  0.354887       83499
 fftext_mpi                              0.337303       83499
 m_alltoallv_z                           0.300388        1628
 overl_mu                                0.292410       18869
 fft3d_mpi                               0.281041       84949
 choleski                                0.255882         172
 sphpro_fast                             0.254890           4
 dfftw_execute                           0.245649         537
 elmin                                   0.235647           3
 zhegv                                   0.217703       28343
 fftwav_mpi                              0.204252      150186
 proall                                  0.188944           3
 overl                                   0.182009       21800
 map_scatter                             0.166743        1628
 stufak                                  0.164390           3
 ggemm                                   0.136015        8220
 acc_cufft_makeplan                      0.129963          19
 i3                                      0.129154       12525
 brmix                                   0.125616          43
 orthch                                  0.122500          43
 map_gather                              0.117193        1628
 setg0                                   0.112460          49
 m_bcast_d                               0.107690       12793
 force_and_stress                        0.083342           3
 wavpre_noio                             0.069162           2
 fftbas_plan_mpi                         0.060330        1450
 broyd                                   0.036161          43
 densta                                  0.035135          48
 lincom                                  0.032969         360
 brget                                   0.024176        1974
 w1_projall                              0.016227       16993
 i1                                      0.015073       12525
 strelo                                  0.014311           3
 map_backward                            0.011598        1526
 forhar                                  0.011307           6
 map_forward                             0.011214        1374
 strehar                                 0.009775           3
 strnlr                                  0.009461           3
 fft_gq                                  0.008489          43
 brsav                                   0.006735         543
 truncate_high_frequency_w1              0.006643       87223
 rsp                                     0.006323           3
 inisym                                  0.005792           1
 forloc                                  0.005665           3
 pothar                                  0.004577          49
 strkin                                  0.003857           3
 fornlr                                  0.003125           3
 brpre                                   0.002622          86
 chggra                                  0.000953           3
 fftbrc_mpi                              0.000799        1450
 fordep                                  0.000742           3
 brgrid                                  0.000425           1
 fewald                                  0.000395           3
 posmap                                  0.000294           2
 rcp                                     0.000242           3
 set_dd_magatom                          0.000209          49
 vectorpot                               0.000185          44
 crpa_reader                             0.000027           1
 shift_bands_between_low_high            0.000025         160
 acc_cufft_makeplans                     0.000007           3
 potlok_metagga                          0.000001          46
 rotate_active_occupied_orbital          0.000001           3
 redis_pw_over_bands                     0.000000           3
  summed up times     116.4157080650330

 Accumulative profile

 total_time                            116.415708           1
 elmin                                  81.692418           3
 eddrmm                                 44.288336          40
 eddav                                  17.187637           7
 i3                                     13.855357       12525
 i2                                     12.084156       12525
 hamiltmu                               11.864560       18869
 init_acc                               10.877857           1
 raccmu_                                 9.788329       18869
 eccp                                    9.033934       95907
 force_and_stress                        8.026134           3
 eddiag                                  7.528977          40
 cnorma                                  5.885882       70903
 set_charge                              5.758463          43
 redis_pw                                5.243134       40064
 newband                                 5.027823       19057
 m_sumb_d                                4.947203       24374
 w1_gemv                                 4.494309      135636
 strnlr                                  4.260308           3
 eccp_nl                                 3.946815       70903
 orthch                                  3.749888          43
 rpro_isp                                3.658886          78
 fftwav_mpi                              3.086670      150186
 fftwav                                  2.882418      150186
 lapack                                  2.710647        6344
 setdij_                                 2.657769         125
 soft_charge                             2.583056          43
 acc_init_cublas                         2.432599           1
 rpromu_acc                              2.413149       22297
 phaser                                  2.230683         266
 m_alltoall_d                            2.214797      333956
 set_dd_paw                              2.102589          49
 hamilt_local                            1.912747       21280
 redis_proj                              1.787985       43988
 fft3d_mpi                               1.750371       84949
 fft3d                                   1.686948      233685
 rspher_all                              1.679394          40
 augmentation_charge                     1.642230          43
 fornlr                                  1.420211           3
 kinhamil                                1.275063       83499
 overl1                                  1.106769       67818
 w1_copy                                 0.964519      186657
 fftext_mpi                              0.916880       83499
 fftbrc_mpi                              0.913916        1450
 fftbas_plan_mpi                         0.913116        1450
 setup_precond                           0.883999       25004
 w1_dscal                                0.810685      134652
 acc_init_cusolver                       0.803645           1
 potlok                                  0.767302          46
 racc0mu_acc                             0.640576       18869
 w1_dot                                  0.610362       21280
 pw_charge                               0.608167       15787
 w1_projall                              0.588474       16993
 w1_daxpy                                0.569652       99246
 apply_precond                           0.556651      120118
 m_bcast_z                               0.523522        8472
 orth1                                   0.472904       24676
 w1_gaxpy                                0.450388       89966
 depsum                                  0.423939          43
 proall                                  0.414479           3
 fordep                                  0.386570           3
 map_backward                            0.366158        1526
 vhamil                                  0.354887       83499
 brmix                                   0.318843          43
 m_alltoallv_z                           0.300388        1628
 overl_mu                                0.292410       18869
 sphpro_fast                             0.264480           4
 choleski                                0.255882         172
 dfftw_execute                           0.245649         537
 map_forward                             0.240979        1374
 i1                                      0.237011       12525
 fft_gq                                  0.221664          43
 zhegv                                   0.217703       28343
 overl                                   0.182009       21800
 wavpre_noio                             0.177642           2
 map_scatter                             0.166743        1628
 stufak                                  0.164390           3
 ggemm                                   0.136015        8220
 acc_cufft_makeplans                     0.129970           3
 acc_cufft_makeplan                      0.129963          19
 map_gather                              0.117193        1628
 setg0                                   0.112460          49
 m_bcast_d                               0.107690       12793
 broyd                                   0.074512          43
 densta                                  0.048307          48
 lincom                                  0.032969         360
 brget                                   0.024176        1974
 strelo                                  0.016305           3
 forhar                                  0.011748           6
 strehar                                 0.009814           3
 fewald                                  0.007858           3
 brsav                                   0.006735         543
 truncate_high_frequency_w1              0.006643       87223
 rsp                                     0.006323           3
 forloc                                  0.006170           3
 inisym                                  0.006086           1
 pothar                                  0.005042          49
 strkin                                  0.003892           3
 chggra                                  0.003295           3
 brpre                                   0.002622          86
 brgrid                                  0.000425           1
 posmap                                  0.000294           2
 rcp                                     0.000242           3
 set_dd_magatom                          0.000209          49
 vectorpot                               0.000185          44
 crpa_reader                             0.000027           1
 shift_bands_between_low_high            0.000025         160
 potlok_metagga                          0.000001          46
 rotate_active_occupied_orbital          0.000001           3
 redis_pw_over_bands                     0.000000           3

Profiling took   0.314633  0.215569  0.003537  0.003446 seconds
Profiling took   0.251236 seconds