 vasp.6.3.2 27Jun22 (build Jul  3 2023 11:46:21) complex
 executed on    LinuxNV_CrayMPICH date 2024.04.21  21:38:26

 INCAR:
   ALGO = Normal
   EDIFF = 1e-05
   ENCUT = 520.0
   IBRION = -1
   ISIF = 3
   ISMEAR = -5
   ISPIN = 2
   LAECHG = True
   LASPH = True
   LCHARG = True
   LORBIT = 11
   LREAL = Auto
   LVHAR = True
   LWAVE = False
   MAGMOM = 4*7.0 20*0.6
   NELM = 1000
   NSW = 0
   PREC = Accurate
   SIGMA = 0.05

 POTCAR:    PAW_PBE Gd 23Dec2003
 POTCAR:    PAW_PBE Co 02Aug2007
 POTCAR:    PAW_PBE B 06Sep2000
 POTCAR:    PAW_PBE Gd 23Dec2003
   VRHFIN =Gd : [core=Xe4]

   TITEL  = PAW_PBE Gd 23Dec2003
   POMASS =  157.250; ZVAL   =   18.000    mass and valenz
   ENMAX  =  256.472; ENMIN  =  192.354 eV

   TITEL  = PAW_PBE Co 02Aug2007
   POMASS =   58.933; ZVAL   =    9.000    mass and valenz
   ENMAX  =  267.968; ENMIN  =  200.976 eV

   TITEL  = PAW_PBE B 06Sep2000
   POMASS =   10.811; ZVAL   =    3.000    mass and valenz
   ENMAX  =  318.614; ENMIN  =  238.960 eV

 Optimization of the real space projectors (new method)

 maximal supplied QI-value         = 13.42
 optimisation between [QCUT,QGAM] = [ 11.67, 23.35] = [ 38.16,152.62] Ry
 Optimized for a Real-space Cutoff    1.63 Angstroem

   l    n(q)    QCUT    max X(q) W(low)/X(q) W(high)/X(q)  e(spline)
   0     11    11.673    10.501    0.14E-04    0.17E-05    0.21E-07
   0     11    11.673     9.148    0.21E-04    0.32E-05    0.45E-07
   1     11    11.673     4.035    0.33E-05    0.11E-04    0.84E-07
   1     11    11.673     4.388    0.11E-04    0.47E-04    0.34E-06
   2     10    11.673    20.656    0.12E-04    0.28E-04    0.54E-06
   2     10    11.673    12.651    0.11E-04    0.26E-04    0.51E-06
   3     10    11.673    61.921    0.19E-03    0.22E-03    0.23E-06
   3     10    11.673    48.328    0.20E-03    0.23E-03    0.23E-06
 Optimization of the real space projectors (new method)

[...]

   l    n(q)    QCUT    max X(q) W(low)/X(q) W(high)/X(q)  e(spline)
   2      9    11.539    65.824    0.19E-03    0.47E-04    0.16E-06
   2      9    11.539    61.429    0.20E-03    0.48E-04    0.16E-06
   0     10    11.539    56.174    0.76E-04    0.45E-04    0.23E-06
   0     10    11.539    31.263    0.69E-04    0.41E-04    0.21E-06
   1     10    11.539    19.828    0.78E-04    0.14E-03    0.70E-07
   1     10    11.539    15.139    0.65E-04    0.12E-03    0.64E-07
 Optimization of the real space projectors (new method)

 maximal supplied QI-value         = 22.11
 optimisation between [QCUT,QGAM] = [ 11.50, 23.22] = [ 37.02,150.92] Ry
 Optimized for a Real-space Cutoff    1.21 Angstroem

   l    n(q)    QCUT    max X(q) W(low)/X(q) W(high)/X(q)  e(spline)
   0      8    11.497    53.033    0.18E-03    0.30E-03    0.10E-06
   0      8    11.497    34.740    0.17E-03    0.29E-03    0.10E-06
   1      8    11.497    30.949    0.20E-03    0.12E-03    0.21E-06
   1      8    11.497    19.518    0.18E-03    0.11E-03    0.19E-06
  PAW_PBE Gd 23Dec2003                  :
  PAW_PBE Co 02Aug2007                  :
  PAW_PBE B 06Sep2000                   :

 POSCAR: Gd4 Co4 B16
  positions in direct lattice
 exchange correlation table for  LEXCH =        8
   RHO(1)=    0.500       N(1)  =     2000
   RHO(2)=  100.500       N(2)  =     4000

 VTST: version 4.2, (08/11/21)

 CHAIN: initializing optimizer

 OPT: Using VASP Dynamics algorithm
 CHAIN: Read ICHAIN             0

 POSCAR: Gd4 Co4 B16
  positions in direct lattice

 ion  position               nearest neighbor table
   1  0.000  0.372  0.650-  13 2.59  13 2.59  11 2.66  11 2.66  22 2.69  22 2.69  18 2.69  18 2.69
                            21 2.70  21 2.70  20 2.71  20 2.71   9 2.72   9 2.72   5 3.00   7 3.00
   2  0.000  0.628  0.350-  14 2.59  14 2.59  12 2.66  12 2.66  21 2.69  21 2.69  17 2.69  17 2.69
                            22 2.70  22 2.70  19 2.71  19 2.71  10 2.72  10 2.72   6 3.00   8 3.00
   3  0.000  0.872  0.850-  15 2.59  15 2.59   9 2.66   9 2.66  24 2.69  24 2.69  20 2.69  20 2.69
                            23 2.70  23 2.70  18 2.71  18 2.71  11 2.72  11 2.72   7 3.00   5 3.00
   4  0.000  0.128  0.150-  16 2.59  16 2.59  10 2.66  10 2.66  23 2.69  23 2.69  19 2.69  19 2.69
                            24 2.70  24 2.70  17 2.71  17 2.71  12 2.72  12 2.72   8 3.00   6 3.00
   5  0.000  0.365  0.911-  20 2.20  20 2.20  24 2.26  24 2.26  11 2.26  11 2.26  15 2.29  15 2.29
                            16 2.30  16 2.30   6 2.59   1 3.00   3 3.00   3 3.08   4 3.08
   6  0.000  0.635  0.089-  19 2.20  19 2.20  23 2.26  23 2.26  12 2.26  12 2.26  16 2.29  16 2.29
                            15 2.30  15 2.30   5 2.59   2 3.00   4 3.00   4 3.08   3 3.08
   7  0.000  0.865  0.589-  18 2.20  18 2.20  22 2.26  22 2.26   9 2.26   9 2.26  13 2.29  13 2.29
                            14 2.30  14 2.30   8 2.59   3 3.00   1 3.00   1 3.08   2 3.08
   8  0.000  0.135  0.411-  17 2.20  17 2.20  21 2.26  21 2.26  10 2.26  10 2.26  14 2.29  14 2.29
                            13 2.30  13 2.30   7 2.59   4 3.00   2 3.00   2 3.08   1 3.08
   9  0.500  0.022  0.690-  13 1.74  18 1.80  20 1.86   7 2.26   7 2.26   3 2.66   3 2.66   1 2.72
                             1 2.72
  10  0.500  0.978  0.310-  14 1.74  17 1.80  19 1.86   8 2.26   8 2.26   4 2.66   4 2.66   2 2.72
                             2 2.72
  11  0.500  0.522  0.810-  15 1.74  20 1.80  18 1.86   5 2.26   5 2.26   1 2.66   1 2.66   3 2.72
                             3 2.72
  12  0.500  0.478  0.190-  16 1.74  19 1.80  17 1.86   6 2.26   6 2.26   2 2.66   2 2.66   4 2.72
                             4 2.72
  13  0.500  0.111  0.546-  14 1.68  21 1.73   9 1.74   7 2.29   7 2.29   8 2.30   8 2.30   1 2.59
                             1 2.59
  14  0.500  0.889  0.454-  13 1.68  22 1.73  10 1.74   8 2.29   8 2.29   7 2.30   7 2.30   2 2.59
                             2 2.59
  15  0.500  0.611  0.954-  16 1.68  23 1.73  11 1.74   5 2.29   5 2.29   6 2.30   6 2.30   3 2.59
                             3 2.59
  16  0.500  0.389  0.046-  15 1.68  24 1.73  12 1.74   6 2.29   6 2.29   5 2.30   5 2.30   4 2.59
                             4 2.59
  17  0.500  0.281  0.316-  21 1.80  10 1.80  12 1.86   8 2.20   8 2.20   2 2.69   2 2.69   4 2.71
                             4 2.71
  18  0.500  0.719  0.684-  22 1.80   9 1.80  11 1.86   7 2.20   7 2.20   1 2.69   1 2.69   3 2.71
                             3 2.71
  19  0.500  0.781  0.184-  23 1.80  12 1.80  10 1.86   6 2.20   6 2.20   4 2.69   4 2.69   2 2.71
                             2 2.71
  20  0.500  0.219  0.816-  24 1.80  11 1.80   9 1.86   5 2.20   5 2.20   3 2.69   3 2.69   1 2.71
                             1 2.71
  21  0.500  0.360  0.467-  13 1.73  17 1.80  22 1.82   8 2.26   8 2.26   2 2.69   2 2.69   1 2.70
                             1 2.70
  22  0.500  0.640  0.533-  14 1.73  18 1.80  21 1.82   7 2.26   7 2.26   1 2.69   1 2.69   2 2.70
                             2 2.70
  23  0.500  0.860  0.033-  15 1.73  19 1.80  24 1.82   6 2.26   6 2.26   4 2.69   4 2.69   3 2.70
                             3 2.70
  24  0.500  0.140  0.967-  16 1.73  20 1.80  23 1.82   5 2.26   5 2.26   3 2.69   3 2.69   4 2.70
                             4 2.70

  LATTYP: Found a simple orthorhombic cell.
 ALAT       =     3.4041030000
 B/A-ratio  =     1.7397587558
 C/A-ratio  =     3.3716979187

  Lattice vectors:

 A1 = (   3.4041030000,   0.0000000000,   0.0000000000)
 A2 = (   0.0000000000,   5.9223180000,   0.0000000000)
 A3 = (   0.0000000000,   0.0000000000,  11.4776070000)

Analysis of symmetry for initial positions (statically):
 Subroutine PRICEL returns:
 Original cell was already a primitive cell.

 Routine SETGRP: Setting up the symmetry group for a
 simple orthorhombic supercell.

 Subroutine GETGRP returns: Found  8 space group operations
 (whereof  4 operations were pure point group operations)
 out of a pool of  8 trial point group operations.

The static configuration has the point symmetry C_2h.
 The point group associated with its full space group is D_2h.

Analysis of symmetry for dynamics (positions and initial velocities):
 Subroutine PRICEL returns:
 Original cell was already a primitive cell.

[...]

The dynamic configuration has the point symmetry C_2h.
 The point group associated with its full space group is D_2h.

Analysis of structural, dynamic, and magnetic symmetry:
 Subroutine PRICEL returns:
 Original cell was already a primitive cell.

 Routine SETGRP: Setting up the symmetry group for a
 simple orthorhombic supercell.

 Subroutine GETGRP returns: Found  8 space group operations
 (whereof  4 operations were pure point group operations)
 out of a pool of  8 trial point group operations.

The overall configuration has the point symmetry C_2h.
 The point group associated with its full space group is D_2h.

 Subroutine INISYM returns: Found  8 space group operations
 (whereof  4 operations are pure point group operations),
 and found     1 'primitive' translations

                                     Primitive cell

  volume of cell :     231.3906

  direct lattice vectors                    reciprocal lattice vectors
     3.404103000  0.000000000  0.000000000     0.293763144  0.000000000  0.000000000
     0.000000000  5.922318000  0.000000000     0.000000000  0.168852804  0.000000000
     0.000000000  0.000000000 11.477607000     0.000000000  0.000000000  0.087126175

  length of vectors
     3.404103000  5.922318000 11.477607000     0.293763144  0.168852804  0.087126175

  position of ions in fractional coordinates (direct lattice)
     0.000000000  0.372486000  0.650135000
     0.000000000  0.627514000  0.349865000
     0.000000000  0.872486000  0.849865000
     0.000000000  0.127514000  0.150135000
     0.000000000  0.365436000  0.911096000
     0.000000000  0.634564000  0.088904000
     0.000000000  0.865436000  0.588904000
     0.000000000  0.134564000  0.411096000
     0.500000000  0.021879000  0.689837000
     0.500000000  0.978121000  0.310163000
     0.500000000  0.521879000  0.810163000
     0.500000000  0.478121000  0.189837000
     0.500000000  0.111006000  0.545820000
     0.500000000  0.888994000  0.454180000
     0.500000000  0.611006000  0.954180000
     0.500000000  0.388994000  0.045820000
     0.500000000  0.281416000  0.316063000
     0.500000000  0.718584000  0.683937000
     0.500000000  0.781416000  0.183937000
     0.500000000  0.218584000  0.816063000
     0.500000000  0.360008000  0.467155000
     0.500000000  0.639992000  0.532845000
     0.500000000  0.860008000  0.032845000
     0.500000000  0.139992000  0.967155000

  ion indices of the primitive-cell ions
   primitive index   ion index
                 1           1
                 2           2
                 3           3
                 4           4
                 5           5
                 6           6
                 7           7
                 8           8
                 9           9
                10          10
                11          11
                12          12
                13          13
                14          14
                15          15
                16          16
                17          17
[...]
  239          fft3d_mpi                             0.000459                          3   4
  240            fftbrc_mpi                            0.000357                        3   5
  241              fftbas_plan_mpi                       0.000357                      3   6
  242                map_forward                           0.000182                    4   7
  243                  map_gather                            0.000041                  2   8
  244                  m_alltoallv_z                         0.000029                  2   8
  245                  map_scatter                           0.000081                  2   8
  246                map_backward                          0.000090                    2   7
  247                  map_gather                            0.000020                  1   8
  248                  m_alltoallv_z                         0.000012                  1   8
  249                  map_scatter                           0.000040                  1   8
  250          m_sumb_d                              0.000010                          2   4
  251          pothar                                0.000078                          1   4
  252            m_sumb_d                              0.000005                        1   5
  253        brmix                                 0.007130                            1   3
  254          m_sumb_d                              0.000049                          6   4
  255          brpre                                 0.000022                          2   4
  256          setg0                                 0.000851                          1   4
  257          broyd                                 0.005243                          1   4
  258            m_sumb_d                              0.000452                       49   5
  259            brget                                 0.000943                      219   5
  260            brsav                                 0.000206                       47   5
  261        m_bcast_d                             0.000027                            2   3
  262      potlok                                0.030986                              2   2
  263        fft3d_mpi                             0.019958                           36   3
  264          fftbrc_mpi                            0.016319                         36   4
  265            fftbas_plan_mpi                       0.016296                       36   5
  266              map_forward                           0.004661                     40   6
  267                map_gather                            0.001642                   24   7
  268                m_alltoallv_z                         0.001519                   24   7
  269                map_scatter                           0.001306                   24   7
  270              map_backward                          0.003966                     32   6
  271                map_gather                            0.001376                   16   7
  272                m_alltoallv_z                         0.001154                   16   7
  273                map_scatter                           0.001229                   16   7
  274              dfftw_execute                         0.006040                     30   6
  275        m_sumb_d                              0.000027                            5   3
  276        pothar                                0.001219                            2   3
  277          m_sumb_d                              0.000073                          2   4
  278        m_bcast_d                             0.001978                            4   3
  279      potlok_metagga                        0.000000                              1   2
  280      set_dd_magatom                        0.000004                              1   2
  281      set_dd_paw                            2.199078                              1   2
  282        m_sumb_d                              0.000337                            7   3
  283      augmentation_charge                   0.014801                              1   2
  284        fft3d_mpi                             0.003511                            2   3
  285          fftbrc_mpi                            0.003113                          2   4
  286            fftbas_plan_mpi                       0.003112                        2   5
  287              dfftw_execute                         0.001373                      6   6
  288              map_backward                          0.001531                      4   6
  289                map_gather                            0.000508                    2   7
  290                m_alltoallv_z                         0.000664                    2   7
  291                map_scatter                           0.000358                    2   7
  292      densta                                3.232043                              1   2

 Flat profile

 set_dd_paw                            120.739190          55
 eddav                                  28.146379          57
 raccmu_                                26.134507       55308
 lapack                                 25.992438       55308
 m_sumb_d                               20.727983      172386
 redis_pw                               11.899214      294017
 init_acc                               10.900098           1
 total_time                              8.199049           1
 densta                                  6.280502          58
 m_alltoall_d                            5.484679      772189
 phaser                                  4.164336        1016
 eccp                                    2.629333       26448
 redis_proj                              2.478198      373788
 acc_init_cublas                         2.440766           1
 fft3d                                   2.323056      315179
 fftwav                                  1.954961      208976
 orth1                                   1.747935      165988
 racc0mu_acc                             1.603467       55308
 w1_copy                                 1.560455      318609
 overl                                   1.551521      185974
 rpromu_acc                              1.545076       43292
 hamiltmu                                1.538806       55308
 m_bcast_z                               1.289510       57164
 soft_charge                             1.100892          53
 setup_precond                           0.958873       26448
 m_bcast_d                               0.905054      110731
 overl_mu                                0.846228       55308
 setdij_                                 0.803196          81
 acc_init_cusolver                       0.790491           1
 ggemm                                   0.713346       68988
 augmentation_charge                     0.605227          54
 pw_charge                               0.501904       16986
 kinhamil                                0.488288      106203
 vhamil                                  0.483836      106203
 newband                                 0.449501       56220
 fftext_mpi                              0.446678      106203
 apply_precond                           0.437558       79755
 depsum                                  0.404278          53
 set_charge                              0.398679          53
 rpro_isp                                0.310566         104
 fftwav_mpi                              0.278346      208976
 rspher_all                              0.262686          14
 potlok                                  0.217808          55
 m_alltoallv_z                           0.193684        1885
 map_scatter                             0.154999        1885
 fft3d_mpi                               0.145102      107872
 acc_cufft_makeplan                      0.133290          19
 dfftw_execute                           0.116048         720
 elmin                                   0.106997           1
 broyd                                   0.104642          53
 sphpro_fast                             0.092897           2
 map_gather                              0.075294        1885
 fftbas_plan_mpi                         0.068166        1669
 proall                                  0.052922           1
 brmix                                   0.051862          53
 setg0                                   0.045601          55
 w1_projall                              0.041654       41628
 lincom                                  0.036169         928
 brget                                   0.030406        7320
 force_and_stress                        0.011888           1
 map_backward                            0.011788        1770
 truncate_high_frequency_w1              0.011102      132651
 orthch                                  0.010665           1
 stufak                                  0.010065           1
 map_forward                             0.010037        1568
 choleski                                0.007484          16
 brsav                                   0.007414        1832
 pothar                                  0.005191          56
 inisym                                  0.004584           1
 fft_gq                                  0.003267          53
 strnlr                                  0.002979           1
 strelo                                  0.001949           1
 forhar                                  0.001851           2
 strehar                                 0.001256           1
 brpre                                   0.001193         106
 fornlr                                  0.001040           1
 rsp                                     0.001022           1
 forloc                                  0.000963           1
 fftbrc_mpi                              0.000863        1669
 strkin                                  0.000442           1
 fewald                                  0.000366           1
 set_dd_magatom                          0.000229          55
 chggra                                  0.000228           1
 vectorpot                               0.000223          54
 brgrid                                  0.000191           1
 fordep                                  0.000090           1
 posmap                                  0.000048           2
 rcp                                     0.000034           1
 crpa_reader                             0.000026           1
 potlok_metagga                          0.000009          54
 acc_cufft_makeplans                     0.000009           3
 rotate_active_occupied_orbital          0.000001           1
 redis_pw_over_bands                     0.000000           1
  summed up times     304.2931220531464

 Accumulative profile

 total_time                            304.293122           1
 elmin                                 271.540086           1
 eddav                                 146.171141          57
 set_dd_paw                            121.268994          55
 hamiltmu                               32.319198       55308
 raccmu_                                28.584203       55308
 lapack                                 25.992438       55308
 m_sumb_d                               20.727983      172386
 redis_pw                               14.547780      294017
 init_acc                               10.900098           1
 densta                                  6.280502          58
 newband                                 6.035001       56220
 m_alltoall_d                            5.484679      772189
 redis_proj                              5.314311      373788
 phaser                                  4.164336        1016
 force_and_stress                        4.051275           1
 set_charge                              4.009202          53
 fftwav_mpi                              3.810578      208976
 fftwav                                  3.532232      208976
 eccp                                    2.629333       26448
 acc_init_cublas                         2.440766           1
 soft_charge                             2.338947          53
 fft3d                                   2.323056      315179
 orth1                                   1.747935      165988
 kinhamil                                1.712353      106203
 racc0mu_acc                             1.603467       55308
 w1_copy                                 1.560455      318609
 overl                                   1.551521      185974
 rpromu_acc                              1.545076       43292
 fft3d_mpi                               1.521766      107872
 m_bcast_z                               1.289510       57164
 w1_projall                              1.230369       41628
 fftext_mpi                              1.224066      106203
 strnlr                                  1.104314           1
 setup_precond                           0.958873       26448
 m_bcast_d                               0.905054      110731
 rpro_isp                                0.848650         104
 overl_mu                                0.846228       55308
 setdij_                                 0.836232          81
 augmentation_charge                     0.802395          54
 acc_init_cusolver                       0.790491           1
 ggemm                                   0.713346       68988
 potlok                                  0.641900          55
 fftbrc_mpi                              0.630878        1669
 fftbas_plan_mpi                         0.630015        1669
 pw_charge                               0.501904       16986
 vhamil                                  0.483836      106203
 apply_precond                           0.437558       79755
 depsum                                  0.418309          53
 fornlr                                  0.368380           1
 orthch                                  0.273219           1
 rspher_all                              0.262686          14
 brmix                                   0.260208          53
 map_forward                             0.253778        1568
 m_alltoallv_z                           0.193684        1885
 map_backward                            0.192024        1770
 broyd                                   0.158990          53
 map_scatter                             0.154999        1885
 acc_cufft_makeplans                     0.133299           3
 acc_cufft_makeplan                      0.133290          19
 dfftw_execute                           0.116048         720
 proall                                  0.110744           1
 sphpro_fast                             0.096753           2
 fft_gq                                  0.093682          53
 map_gather                              0.075294        1885
 fordep                                  0.062197           1
 setg0                                   0.045601          55
 lincom                                  0.036169         928
 brget                                   0.030406        7320
 truncate_high_frequency_w1              0.011102      132651
 stufak                                  0.010065           1
 choleski                                0.007484          16
 brsav                                   0.007414        1832
 pothar                                  0.005711          56
 inisym                                  0.004632           1
 strelo                                  0.002023           1
 forhar                                  0.001912           2
 fewald                                  0.001771           1
 strehar                                 0.001260           1
 brpre                                   0.001193         106
 forloc                                  0.001078           1
 rsp                                     0.001022           1
 chggra                                  0.000775           1
 strkin                                  0.000447           1
 set_dd_magatom                          0.000229          55
 vectorpot                               0.000223          54
 brgrid                                  0.000191           1
 posmap                                  0.000048           2
 rcp                                     0.000034           1
 crpa_reader                             0.000026           1
 potlok_metagga                          0.000009          54
 rotate_active_occupied_orbital          0.000001           1
 redis_pw_over_bands                     0.000000           1

Profiling took   0.673293  0.333522  0.003081  0.003026 seconds
Profiling took   0.434033 seconds