 vasp.6.3.2 27Jun22 (build Jul  3 2023 11:46:21) complex
 executed on    LinuxNV_CrayMPICH date 2024.04.22  02:34:50

 INCAR:
   ADDGRID = True
   ALGO = Normal
   EDIFF = 0.00145
   ENCUT = 520.0
   IBRION = -1
   ICHARG = 0
   ISIF = 3
   ISMEAR = 0
   ISPIN = 2
   ISTART = 1
   KPOINT_BSE = -1 0 0 0
   LAECHG = True
   LASPH = True
   LCHARG = True
   LELF = True
   LORBIT = 11
   LREAL = Auto
   LVHAR = True
   LWAVE = False
   MAGMOM = 3*7.0 26*0.6
   NELM = 1000
   NSW = 0
   PREC = accurate
   SIGMA = 0.05

 POTCAR:    PAW_PBE Gd 23Dec2003
 POTCAR:    PAW_PBE P 06Sep2000
 POTCAR:    PAW_PBE Pd 04Jan2005
 POTCAR:    PAW_PBE Gd 23Dec2003
   VRHFIN =Gd : [core=Xe4]

   TITEL  = PAW_PBE Gd 23Dec2003
   POMASS =  157.250; ZVAL   =   18.000    mass and valenz
   ENMAX  =  256.472; ENMIN  =  192.354 eV

   TITEL  = PAW_PBE P 06Sep2000
   POMASS =   30.974; ZVAL   =    5.000    mass and valenz
   ENMAX  =  255.040; ENMIN  =  191.280 eV

   TITEL  = PAW_PBE Pd 04Jan2005
   POMASS =  106.420; ZVAL   =   10.000    mass and valenz
   ENMAX  =  250.925; ENMIN  =  188.194 eV

 Optimization of the real space projectors (new method)

 maximal supplied QI-value         = 13.42
 optimisation between [QCUT,QGAM] = [ 11.67, 23.35] = [ 38.16,152.62] Ry
 Optimized for a Real-space Cutoff    1.63 Angstroem

   l    n(q)    QCUT    max X(q) W(low)/X(q) W(high)/X(q)  e(spline)
   0     11    11.673    10.501    0.14E-04    0.17E-05    0.21E-07
   0     11    11.673     9.148    0.21E-04    0.32E-05    0.45E-07
   1     11    11.673     4.035    0.33E-05    0.11E-04    0.84E-07
   1     11    11.673     4.388    0.11E-04    0.47E-04    0.34E-06
   2     10    11.673    20.656    0.12E-04    0.28E-04    0.54E-06
   2     10    11.673    12.651    0.11E-04    0.26E-04    0.51E-06
   3     10    11.673    61.921    0.19E-03    0.22E-03    0.23E-06
   3     10    11.673    48.328    0.20E-03    0.23E-03    0.23E-06
 Optimization of the real space projectors (new method)

[...]

   l    n(q)    QCUT    max X(q) W(low)/X(q) W(high)/X(q)  e(spline)
   0      8    11.508   160.924    0.96E-04    0.17E-03    0.52E-07
   0      8    11.508   130.086    0.95E-04    0.17E-03    0.51E-07
   1      8    11.508    74.434    0.16E-03    0.74E-04    0.91E-07
   1      8    11.508    49.120    0.16E-03    0.71E-04    0.89E-07
 Optimization of the real space projectors (new method)

 maximal supplied QI-value         = 14.36
 optimisation between [QCUT,QGAM] = [ 11.63, 23.27] = [ 37.90,151.59] Ry
 Optimized for a Real-space Cutoff    1.49 Angstroem

   l    n(q)    QCUT    max X(q) W(low)/X(q) W(high)/X(q)  e(spline)
   2      9    11.633    59.108    0.81E-04    0.17E-04    0.26E-06
   2      9    11.633    58.101    0.82E-04    0.18E-04    0.27E-06
   0     10    11.633   102.235    0.26E-04    0.16E-04    0.21E-06
   0     10    11.633    58.388    0.23E-04    0.15E-04    0.20E-06
   1     10    11.633    22.191    0.10E-03    0.20E-03    0.14E-06
   1     10    11.633    15.590    0.86E-04    0.17E-03    0.12E-06
  PAW_PBE Gd 23Dec2003                  :
  PAW_PBE P 06Sep2000                   :
  PAW_PBE Pd 04Jan2005                  :

 POSCAR: Gd3 P6 Pd20
  positions in direct lattice
 exchange correlation table for  LEXCH =        8
   RHO(1)=    0.500       N(1)  =     2000
   RHO(2)=  100.500       N(2)  =     4000

 VTST: version 4.2, (08/11/21)

 CHAIN: initializing optimizer

 OPT: Using VASP Dynamics algorithm
 CHAIN: Read ICHAIN             0

 POSCAR: Gd3 P6 Pd20
  positions in direct lattice

 ion  position               nearest neighbor table
   1  0.250  0.250  0.250-  13 2.88  16 2.88  12 2.88  10 2.88  24 3.36  26 3.36  27 3.36  28 3.36
                            29 3.36  23 3.36  18 3.36  25 3.36  19 3.36  20 3.36  21 3.36  22 3.36
   2  0.750  0.750  0.750-  15 2.88  17 2.88  14 2.88  11 2.88  22 3.36  26 3.36  27 3.36  28 3.36
                            29 3.36  23 3.36  24 3.36  25 3.36  19 3.36  20 3.36  21 3.36  18 3.36
   3  0.000  0.000  0.000-  18 3.01  19 3.01  20 3.01  21 3.01  22 3.01  23 3.01  24 3.01  25 3.01
                            26 3.01  27 3.01  28 3.01  29 3.01   4 3.23   5 3.23   6 3.23   7 3.23
   4  0.737  0.263  0.263-  22 2.40  23 2.40  26 2.40  28 2.40  14 2.51  15 2.51  10 2.51  16 2.51
                             3 3.23
   5  0.263  0.737  0.737-  24 2.40  25 2.40  27 2.40  29 2.40  12 2.51  13 2.51  11 2.51  17 2.51
                             3 3.23
   6  0.263  0.737  0.263-  18 2.40  21 2.40  26 2.40  29 2.40  14 2.51  17 2.51  10 2.51  13 2.51
                             3 3.23
   7  0.737  0.263  0.737-  19 2.40  20 2.40  27 2.40  28 2.40  12 2.51  16 2.51  11 2.51  15 2.51
                             3 3.23
   8  0.263  0.263  0.737-  18 2.40  20 2.40  22 2.40  25 2.40  15 2.51  17 2.51  10 2.51  12 2.51
                             3 3.23
   9  0.737  0.737  0.263-  19 2.40  21 2.40  23 2.40  24 2.40  13 2.51  16 2.51  11 2.51  14 2.51
                             3 3.23
  10  0.385  0.385  0.385-   4 2.51   6 2.51   8 2.51  14 2.83  15 2.83  17 2.83   1 2.88  20 3.06
                            21 3.06  23 3.06  25 3.06  28 3.06  29 3.06
  11  0.615  0.615  0.615-   5 2.51   7 2.51   9 2.51  12 2.83  13 2.83  16 2.83   2 2.88  20 3.06
                            21 3.06  25 3.06  23 3.06  28 3.06  29 3.06
  12  0.385  0.385  0.845-   5 2.51   7 2.51   8 2.51  11 2.83  15 2.83  17 2.83   1 2.88  28 3.06
                            29 3.06  19 3.06  24 3.06  22 3.06  18 3.06
  13  0.385  0.845  0.385-   5 2.51   9 2.51   6 2.51  11 2.83  14 2.83  17 2.83   1 2.88  23 3.06
                            25 3.06  27 3.06  19 3.06  26 3.06  18 3.06
  14  0.615  0.615  0.155-   4 2.51   6 2.51   9 2.51  10 2.83  13 2.83  16 2.83   2 2.88  28 3.06
                            29 3.06  18 3.06  22 3.06  24 3.06  19 3.06
  15  0.615  0.155  0.615-   4 2.51   8 2.51   7 2.51  10 2.83  12 2.83  16 2.83   2 2.88  23 3.06
                            25 3.06  26 3.06  18 3.06  27 3.06  19 3.06
  16  0.845  0.385  0.385-   7 2.51   9 2.51   4 2.51  11 2.83  14 2.83  15 2.83   1 2.88  20 3.06
                            21 3.06  24 3.06  27 3.06  26 3.06  22 3.06
  17  0.155  0.615  0.615-   6 2.51   8 2.51   5 2.51  10 2.83  12 2.83  13 2.83   2 2.88  20 3.06
                            21 3.06  22 3.06  26 3.06  24 3.06  27 3.06
  18  0.346  0.000  0.000-   6 2.40   8 2.40  19 2.69   3 3.01  22 3.01  25 3.01  26 3.01  29 3.01
                            15 3.06  14 3.06  13 3.06  12 3.06   1 3.36   2 3.36
  19  0.654  0.000  0.000-   7 2.40   9 2.40  18 2.69   3 3.01  23 3.01  24 3.01  27 3.01  28 3.01
                            13 3.06  12 3.06  15 3.06  14 3.06   1 3.36   2 3.36
  20  0.000  0.346  0.654-   7 2.40   8 2.40  21 2.69   3 3.01  22 3.01  25 3.01  27 3.01  28 3.01
                            17 3.06  16 3.06  11 3.06  10 3.06   1 3.36   2 3.36
  21  0.000  0.654  0.346-   6 2.40   9 2.40  20 2.69   3 3.01  23 3.01  24 3.01  26 3.01  29 3.01
                            17 3.06  16 3.06  11 3.06  10 3.06   1 3.36   2 3.36
  22  0.000  0.346  0.000-   4 2.40   8 2.40  24 2.69  18 3.01  20 3.01   3 3.01  26 3.01  28 3.01
                            17 3.06  14 3.06  12 3.06  16 3.06   2 3.36   1 3.36
  23  0.654  0.000  0.346-   4 2.40   9 2.40  25 2.69  19 3.01  21 3.01   3 3.01  26 3.01  28 3.01
                            15 3.06  13 3.06  10 3.06  11 3.06   1 3.36   2 3.36
  24  0.000  0.654  0.000-   5 2.40   9 2.40  22 2.69  19 3.01  21 3.01   3 3.01  27 3.01  29 3.01
                            16 3.06  12 3.06  14 3.06  17 3.06   1 3.36   2 3.36
  25  0.346  0.000  0.654-   5 2.40   8 2.40  23 2.69  18 3.01  20 3.01   3 3.01  27 3.01  29 3.01
                            15 3.06  13 3.06  11 3.06  10 3.06   1 3.36   2 3.36
  26  0.000  0.000  0.346-   4 2.40   6 2.40  27 2.69  18 3.01  21 3.01  22 3.01  23 3.01   3 3.01
                            15 3.06  17 3.06  13 3.06  16 3.06   1 3.36   2 3.36
  27  0.000  0.000  0.654-   5 2.40   7 2.40  26 2.69  19 3.01  20 3.01  24 3.01  25 3.01   3 3.01
                            13 3.06  16 3.06  15 3.06  17 3.06   1 3.36   2 3.36
  28  0.654  0.346  0.000-   4 2.40   7 2.40  29 2.69  19 3.01  20 3.01  22 3.01  23 3.01   3 3.01
                            14 3.06  12 3.06  11 3.06  10 3.06   1 3.36   2 3.36
  29  0.346  0.654  0.000-   5 2.40   6 2.40  28 2.69  18 3.01  21 3.01  24 3.01  25 3.01   3 3.01
                            14 3.06  12 3.06  11 3.06  10 3.06   1 3.36   2 3.36

  LATTYP: Found a face centered cubic cell.
 ALAT       =    12.3132780000

  Lattice vectors:

 A1 = (   0.0000000000,   6.1566390000,   6.1566390000)
 A2 = (   6.1566390000,   0.0000000000,   6.1566390000)
 A3 = (   6.1566390000,   6.1566390000,   0.0000000000)

Analysis of symmetry for initial positions (statically):
 Subroutine PRICEL returns:
 Original cell was already a primitive cell.

 Routine SETGRP: Setting up the symmetry group for a
 face centered cubic supercell.

 Subroutine GETGRP returns: Found 48 space group operations
 (whereof 48 operations were pure point group operations)
 out of a pool of 48 trial point group operations.

The static configuration has the point symmetry O_h .

Analysis of symmetry for dynamics (positions and initial velocities):
 Subroutine PRICEL returns:
 Original cell was already a primitive cell.

[...]

The dynamic configuration has the point symmetry O_h .

Analysis of structural, dynamic, and magnetic symmetry:
 Subroutine PRICEL returns:
 Original cell was already a primitive cell.

 Routine SETGRP: Setting up the symmetry group for a
 face centered cubic supercell.

 Subroutine GETGRP returns: Found 48 space group operations
 (whereof 48 operations were pure point group operations)
 out of a pool of 48 trial point group operations.

The overall configuration has the point symmetry O_h .

 Subroutine INISYM returns: Found 48 space group operations
 (whereof 48 operations are pure point group operations),
 and found     1 'primitive' translations

                                     Primitive cell

  volume of cell :     466.7250

  direct lattice vectors                    reciprocal lattice vectors
     0.000000000  6.156639000  6.156639000    -0.081213142  0.081213142  0.081213142
     6.156639000  0.000000000  6.156639000     0.081213142 -0.081213142  0.081213142
     6.156639000  6.156639000  0.000000000     0.081213142  0.081213142 -0.081213142

  length of vectors
     8.706802372  8.706802372  8.706802372     0.140665289  0.140665289  0.140665289

  position of ions in fractional coordinates (direct lattice)
     0.250000000  0.250000000  0.250000000
     0.750000000  0.750000000  0.750000000
     0.000000000  0.000000000  0.000000000
     0.737448000  0.262552000  0.262552000
     0.262552000  0.737448000  0.737448000
     0.262552000  0.737448000  0.262552000
     0.737448000  0.262552000  0.737448000
     0.262552000  0.262552000  0.737448000
     0.737448000  0.737448000  0.262552000
     0.385019000  0.385019000  0.385019000
     0.614981000  0.614981000  0.614981000
     0.385019000  0.385019000  0.844944000
     0.385019000  0.844944000  0.385019000
[...]
  292                  map_gather                            0.000057                  2   8
  293                  m_alltoallv_z                         0.000030                  2   8
  294                  map_scatter                           0.000193                  2   8
  295                map_backward                          0.000127                    2   7
  296                  map_gather                            0.000029                  1   8
  297                  m_alltoallv_z                         0.000013                  1   8
  298                  map_scatter                           0.000060                  1   8
  299          m_sumb_d                              0.000010                          2   4
  300          pothar                                0.000106                          1   4
  301            m_sumb_d                              0.000023                        1   5
  302        brmix                                 0.020310                            1   3
  303          m_sumb_d                              0.000057                          6   4
  304          brpre                                 0.000056                          2   4
  305          setg0                                 0.003758                          1   4
  306          broyd                                 0.013505                          1   4
  307            m_sumb_d                              0.000225                       51   5
  308            brget                                 0.002795                      229   5
  309            brsav                                 0.000584                       49   5
  310        m_bcast_d                             0.000035                            2   3
  311      potlok                                0.077695                              2   2
  312        fft3d_mpi                             0.050007                           36   3
  313          fftbrc_mpi                            0.043163                         36   4
  314            fftbas_plan_mpi                       0.043146                       36   5
  315              map_forward                           0.011608                     40   6
  316                map_gather                            0.003182                   24   7
  317                m_alltoallv_z                         0.004924                   24   7
  318                map_scatter                           0.003261                   24   7
  319              map_backward                          0.010029                     32   6
  320                map_gather                            0.002751                   16   7
  321                m_alltoallv_z                         0.003901                   16   7
  322                map_scatter                           0.003092                   16   7
  323              dfftw_execute                         0.019666                     30   6
  324        m_sumb_d                              0.000035                            5   3
  325        pothar                                0.003577                            2   3
  326          m_sumb_d                              0.000097                          2   4
  327        m_bcast_d                             0.005756                            4   3
  328      potlok_metagga                        0.000000                              1   2
  329      set_dd_magatom                        0.000005                              1   2
  330      set_dd_paw                            3.688712                              1   2
  331        m_sumb_d                              0.935452                            7   3
  332      augmentation_charge                   0.401501                              1   2
  333        fft3d_mpi                             0.139531                            2   3
  334          fftbrc_mpi                            0.117961                          2   4
  335            fftbas_plan_mpi                       0.117958                        2   5
  336              dfftw_execute                         0.073616                      6   6
  337              map_backward                          0.044057                      4   6
  338                map_gather                            0.015898                    2   7
  339                m_alltoallv_z                         0.010314                    2   7
  340                map_scatter                           0.017833                    2   7
  341      fftwav_mpi                            2.591365                           1128   2
  342        fftwav                                2.589799                         1128   3
  343          fft3d                                 2.402195                       1128   4
  344      densta                                0.003273                              1   2
  345        m_sumb_d                              0.001678                           41   3

 Flat profile

 set_dd_paw                            727.993949         262
 m_sumb_d                              288.095874      570121
 raccmu_                               124.771417      178581
 eddav                                  98.718656         264
 lapack                                 80.934819      178581
 setdij_                                71.433198         288
 augmentation_charge                    68.058116         261
 dfftw_execute                          46.088630        6720
 redis_pw                               43.182951      947947
 total_time                             24.743994           1
 phaser                                 20.774155        2164
 m_alltoall_d                           17.733719     2534743
 fft3d_mpi                              11.829973      356708
 eccp                                   11.468762       99264
 init_acc                               10.923038           1
 fft3d                                   9.995045     1025865
 orth1                                   9.368956      535791
 map_scatter                             9.126686       10115
 m_alltoallv_z                           8.669380       10115
 map_gather                              8.461058       10115
 redis_proj                              7.849442     1196348
 set_charge                              7.662716         260
 fftwav                                  6.806092      678208
 hamiltmu                                6.569063      178581
 racc0mu_acc                             5.197916      178581
 w1_copy                                 5.065172     1042971
 overl                                   4.934914      596058
 soft_charge                             4.467891         260
 rpromu_acc                              4.132029      129141
 m_bcast_z                               3.959447      180085
 setup_precond                           3.614673       99264
 m_bcast_d                               2.977394      357691
 pw_charge                               2.921665       76142
 ggemm                                   2.798048      229269
 overl_mu                                2.790406      178581
 acc_init_cublas                         2.432200           1
 broyd                                   2.251627         260
 potlok                                  2.161166         262
 depsum                                  1.620374         260
 vhamil                                  1.582193      347657
 kinhamil                                1.564174      347657
 newband                                 1.505164      180693
 fftext_mpi                              1.484534      347657
 apply_precond                           1.349431      248393
 brmix                                   1.015502         260
 fftwav_mpi                              0.886927      678208
 acc_init_cusolver                       0.796746           1
 brget                                   0.710736       57465
 setg0                                   0.687135         262
 rspher_all                              0.625927          14
 elmin                                   0.621364           1
 fftbas_plan_mpi                         0.491113        9051
 rpro_isp                                0.268639          52
 brsav                                   0.195821       16402
 w1_projall                              0.123515      127893
 acc_cufft_makeplan                      0.122472          19
 sphpro_fast                             0.096516           2
 lincom                                  0.083979        2120
 densta                                  0.079563         265
 map_backward                            0.079222        9558
 map_forward                             0.065251        8544
 proall                                  0.062454           1
 fft_gq                                  0.052618         260
 truncate_high_frequency_w1              0.036926      446921
 stufak                                  0.030834           1
 pothar                                  0.028172         263
 force_and_stress                        0.021439           1
 brpre                                   0.015923         520
 orthch                                  0.015033           1
 choleski                                0.006486           8
 fftbrc_mpi                              0.005814        9051
 inisym                                  0.005652           1
 strelo                                  0.004292           1
 forhar                                  0.003690           2
 strehar                                 0.003231           1
 strnlr                                  0.002303           1
 forloc                                  0.001906           1
 vectorpot                               0.001629         261
 rsp                                     0.001281           1
 set_dd_magatom                          0.001191         262
 fornlr                                  0.000784           1
 strkin                                  0.000767           1
 brgrid                                  0.000413           1
 fewald                                  0.000372           1
 posmap                                  0.000297           2
 chggra                                  0.000286           1
 fordep                                  0.000159           1
 rcp                                     0.000054           1
 crpa_reader                             0.000027           1
 potlok_metagga                          0.000022         261
 acc_cufft_makeplans                     0.000014           3
 rotate_active_occupied_orbital          0.000001           1
 redis_pw_over_bands                     0.000000           1
  summed up times     1787.324602127075

 Accumulative profile

 total_time                           1787.324602           1
 elmin                                1722.541137           1
 set_dd_paw                            974.372286         262
 eddav                                 514.084147         264
 m_sumb_d                              288.095874      570121
 hamiltmu                              146.513487      178581
 raccmu_                               132.759738      178581
 set_charge                            127.307705         260
 setdij_                               116.220458         288
 augmentation_charge                   104.514516         261
 fft3d_mpi                              87.269101      356708
 lapack                                 80.934819      178581
 fftbrc_mpi                             72.987155        9051
 fftbas_plan_mpi                        72.981341        9051
 redis_pw                               51.996990      947947
 dfftw_execute                          46.088630        6720
 newband                                24.470329      180693
 phaser                                 20.774155        2164
 m_alltoall_d                           17.733719     2534743
 redis_proj                             16.769122     1196348
 force_and_stress                       16.483872           1
 fftwav_mpi                             15.236091      678208
 map_backward                           14.587385        9558
 fftwav                                 14.349163      678208
 soft_charge                            12.726048         260
 map_forward                            11.814213        8544
 eccp                                   11.468762       99264
 init_acc                               10.923038           1
 fft3d                                   9.995045     1025865
 orth1                                   9.368956      535791
 map_scatter                             9.126686       10115
 m_alltoallv_z                           8.669380       10115
 map_gather                              8.461058       10115
 kinhamil                                5.602492      347657
 racc0mu_acc                             5.197916      178581
 w1_copy                                 5.065172     1042971
 brmix                                   4.965907         260
 overl                                   4.934914      596058
 rpromu_acc                              4.132029      129141
 fftext_mpi                              4.038318      347657
 m_bcast_z                               3.959447      180085
 potlok                                  3.957059         262
 w1_projall                              3.817845      127893
 setup_precond                           3.614673       99264
 broyd                                   3.221819         260
 m_bcast_d                               2.977394      357691
 pw_charge                               2.921665       76142
 ggemm                                   2.798048      229269
 overl_mu                                2.790406      178581
 acc_init_cublas                         2.432200           1
 fordep                                  2.394183           1
 depsum                                  1.755809         260
 vhamil                                  1.582193      347657
 strnlr                                  1.410328           1
 apply_precond                           1.349431      248393
 fft_gq                                  1.285830         260
 rpro_isp                                0.862251          52
 acc_init_cusolver                       0.796746           1
 brget                                   0.710736       57465
 setg0                                   0.687135         262
 rspher_all                              0.625927          14
 fornlr                                  0.472511           1
 orthch                                  0.267361           1
 brsav                                   0.195821       16402
 densta                                  0.134563         265
 proall                                  0.124689           1
 acc_cufft_makeplans                     0.122486           3
 acc_cufft_makeplan                      0.122472          19
 sphpro_fast                             0.100259           2
 lincom                                  0.083979        2120
 truncate_high_frequency_w1              0.036926      446921
 pothar                                  0.031351         263
 stufak                                  0.030834           1
 brpre                                   0.015923         520
 choleski                                0.006486           8
 inisym                                  0.005949           1
 strelo                                  0.004518           1
 forhar                                  0.003993           2
 forloc                                  0.003441           1
 strehar                                 0.003265           1
 fewald                                  0.001936           1
 vectorpot                               0.001629         261
 rsp                                     0.001281           1
 set_dd_magatom                          0.001191         262
 chggra                                  0.001076           1
 strkin                                  0.000772           1
 brgrid                                  0.000413           1
 posmap                                  0.000297           2
 rcp                                     0.000054           1
 crpa_reader                             0.000027           1
 potlok_metagga                          0.000022         261
 rotate_active_occupied_orbital          0.000001           1
 redis_pw_over_bands                     0.000000           1

Profiling took   2.222338  1.061566  0.003237  0.003133 seconds
Profiling took   1.412974 seconds