 vasp.6.3.2 27Jun22 (build Jul  3 2023 11:46:21) complex
 executed on    LinuxNV_CrayMPICH date 2024.04.22  03:09:28

 INCAR:
   ADDGRID = True
   ALGO = Normal
   EDIFF = 0.0002
   ENCUT = 520.0
   IBRION = -1
   ICHARG = 0
   ISIF = 3
   ISMEAR = 0
   ISPIN = 2
   KPOINT_BSE = -1 0 0 0
   LAECHG = True
   LASPH = True
   LCHARG = True
   LELF = True
   LORBIT = 11
   LREAL = Auto
   LVHAR = True
   LWAVE = False
   MAGMOM = 1*0.6 2*7.0 1*0.6
   NELM = 1000
   NSW = 0
   PREC = accurate
   SIGMA = 0.05

 POTCAR:    PAW_PBE Li_sv 10Sep2004
 POTCAR:    PAW_PBE Gd 23Dec2003
 POTCAR:    PAW_PBE Rh_pv 25Jan2005
 POTCAR:    PAW_PBE Li_sv 10Sep2004
   VRHFIN =Li: 1s2s2p

   TITEL  = PAW_PBE Li_sv 10Sep2004
   POMASS =    7.010; ZVAL   =    3.000    mass and valenz
   ENMAX  =  499.034; ENMIN  =  374.276 eV

   TITEL  = PAW_PBE Gd 23Dec2003
   POMASS =  157.250; ZVAL   =   18.000    mass and valenz
   ENMAX  =  256.472; ENMIN  =  192.354 eV

   TITEL  = PAW_PBE Rh_pv 25Jan2005
   POMASS =  102.906; ZVAL   =   15.000    mass and valenz
   ENMAX  =  247.408; ENMIN  =  185.556 eV

 Optimization of the real space projectors (new method)

 maximal supplied QI-value         = 22.11
 optimisation between [QCUT,QGAM] = [ 11.50, 23.22] = [ 37.02,150.92] Ry
 Optimized for a Real-space Cutoff    1.08 Angstroem

   l    n(q)    QCUT    max X(q) W(low)/X(q) W(high)/X(q)  e(spline)
   0      7    11.497    10.506    0.36E-04    0.62E-04    0.14E-07
   0      7    11.497     8.367    0.65E-04    0.14E-03    0.28E-07
   1      7    11.497     8.983    0.21E-03    0.43E-03    0.90E-07
 Optimization of the real space projectors (new method)

[...]

   l    n(q)    QCUT    max X(q) W(low)/X(q) W(high)/X(q)  e(spline)
   0     11    11.673    10.501    0.14E-04    0.17E-05    0.21E-07
   0     11    11.673     9.148    0.21E-04    0.32E-05    0.45E-07
   1     11    11.673     4.035    0.33E-05    0.11E-04    0.84E-07
   1     11    11.673     4.388    0.11E-04    0.47E-04    0.34E-06
   2     10    11.673    20.656    0.12E-04    0.28E-04    0.54E-06
   2     10    11.673    12.651    0.11E-04    0.26E-04    0.51E-06
   3     10    11.673    61.921    0.19E-03    0.22E-03    0.23E-06
   3     10    11.673    48.328    0.20E-03    0.23E-03    0.23E-06
 Optimization of the real space projectors (new method)

 maximal supplied QI-value         = 15.68
 optimisation between [QCUT,QGAM] = [ 11.61, 23.21] = [ 37.72,150.90] Ry
 Optimized for a Real-space Cutoff    1.45 Angstroem

   l    n(q)    QCUT    max X(q) W(low)/X(q) W(high)/X(q)  e(spline)
   1     10    11.607     3.143    0.27E-04    0.48E-04    0.10E-06
   1     10    11.607     5.034    0.71E-04    0.17E-03    0.32E-06
   2      9    11.607    64.180    0.22E-03    0.59E-04    0.28E-06
   2      9    11.607    61.342    0.22E-03    0.61E-04    0.29E-06
   0     10    11.607    55.593    0.52E-04    0.32E-04    0.17E-06
   0     10    11.607    26.178    0.47E-04    0.29E-04    0.15E-06
  PAW_PBE Li_sv 10Sep2004               :
  PAW_PBE Gd 23Dec2003                  :
  PAW_PBE Rh_pv 25Jan2005               :

 POSCAR: Li1 Gd2 Rh1
  positions in direct lattice
 exchange correlation table for  LEXCH =        8
   RHO(1)=    0.500       N(1)  =     2000
   RHO(2)=  100.500       N(2)  =     4000

 VTST: version 4.2, (08/11/21)

 CHAIN: initializing optimizer

 OPT: Using VASP Dynamics algorithm
 CHAIN: Read ICHAIN             0

 POSCAR: Li1 Gd2 Rh1
  positions in direct lattice

 ion  position               nearest neighbor table
   1  0.500  0.500  0.500-   2 3.06   2 3.06   3 3.06   3 3.06   3 3.06   3 3.06   2 3.06   2 3.06

   2  0.250  0.250  0.250-   4 3.06   4 3.06   1 3.06   1 3.06   4 3.06   1 3.06   4 3.06   1 3.06
                             3 3.54   3 3.54   3 3.54   3 3.54   3 3.54   3 3.54
   3  0.750  0.750  0.750-   1 3.06   1 3.06   4 3.06   4 3.06   4 3.06   4 3.06   1 3.06   1 3.06
                             2 3.54   2 3.54   2 3.54   2 3.54   2 3.54   2 3.54
   4  0.000  0.000  0.000-   3 3.06   3 3.06   2 3.06   2 3.06   3 3.06   2 3.06   3 3.06   2 3.06

  LATTYP: Found a face centered cubic cell.
 ALAT       =     7.0754720000

  Lattice vectors:

 A1 = (   0.0000000000,   3.5377360000,   3.5377360000)
 A2 = (   3.5377360000,   0.0000000000,   3.5377360000)
 A3 = (   3.5377360000,   3.5377360000,   0.0000000000)

Analysis of symmetry for initial positions (statically):
 Subroutine PRICEL returns:
 Original cell was already a primitive cell.

 Routine SETGRP: Setting up the symmetry group for a
 face centered cubic supercell.

 Subroutine GETGRP returns: Found 48 space group operations
 (whereof 48 operations were pure point group operations)
 out of a pool of 48 trial point group operations.

The static configuration has the point symmetry O_h .

Analysis of symmetry for dynamics (positions and initial velocities):
 Subroutine PRICEL returns:
 Original cell was already a primitive cell.

[...]

The dynamic configuration has the point symmetry O_h .

Analysis of structural, dynamic, and magnetic symmetry:
 Subroutine PRICEL returns:
 Original cell was already a primitive cell.

 Routine SETGRP: Setting up the symmetry group for a
 face centered cubic supercell.

 Subroutine GETGRP returns: Found 48 space group operations
 (whereof 48 operations were pure point group operations)
 out of a pool of 48 trial point group operations.

The overall configuration has the point symmetry O_h .

 Subroutine INISYM returns: Found 48 space group operations
 (whereof 48 operations are pure point group operations),
 and found     1 'primitive' translations

                                     Primitive cell

  volume of cell :      88.5536

  direct lattice vectors                    reciprocal lattice vectors
     0.000000000  3.537736000  3.537736000    -0.141333327  0.141333327  0.141333327
     3.537736000  0.000000000  3.537736000     0.141333327 -0.141333327  0.141333327
     3.537736000  3.537736000  0.000000000     0.141333327  0.141333327 -0.141333327

  length of vectors
     5.003114231  5.003114231  5.003114231     0.244796504  0.244796504  0.244796504

  position of ions in fractional coordinates (direct lattice)
     0.500000000  0.500000000  0.500000000
     0.250000000  0.250000000  0.250000000
     0.750000000  0.750000000  0.750000000
     0.000000000  0.000000000  0.000000000

  ion indices of the primitive-cell ions
   primitive index   ion index
                 1           1
                 2           2
                 3           3
                 4           4

 KPOINTS: Kpoints from vasprun.xml

Automatic generation of k-mesh.
 Grid dimensions read from file:
 generate k-points for:    6    6    6

 Generating k-lattice:

  Cartesian coordinates                     Fractional coordinates (reciprocal lattice)
    -0.023555555  0.023555555  0.023555555     0.166666667 -0.000000000 -0.000000000
     0.023555555 -0.023555555  0.023555555    -0.000000000  0.166666667  0.000000000
     0.023555555  0.023555555 -0.023555555     0.000000000  0.000000000  0.166666667

  Length of vectors
     0.040799417  0.040799417  0.040799417

  Shift w.r.t. Gamma in fractional coordinates (k-lattice)
     0.000000000  0.000000000  0.000000000

 Subroutine IBZKPT returns following result:

 Found     16 irreducible k-points:

 Following reciprocal coordinates:
            Coordinates               Weight
  0.000000  0.000000  0.000000      1.000000
  0.166667  0.000000  0.000000      8.000000
  0.333333  0.000000  0.000000      8.000000
  0.500000  0.000000  0.000000      4.000000
  0.166667  0.166667  0.000000      6.000000
  0.333333  0.166667  0.000000     24.000000
  0.500000  0.166667  0.000000     24.000000
 -0.333333  0.166667  0.000000     24.000000
 -0.166667  0.166667  0.000000     12.000000
  0.333333  0.333333  0.000000      6.000000
  0.500000  0.333333  0.000000     24.000000
 -0.333333  0.333333  0.000000     12.000000
  0.500000  0.500000  0.000000      3.000000
  0.500000  0.333333  0.166667     24.000000
 -0.333333  0.333333  0.166667     24.000000
 -0.333333  0.500000  0.166667     12.000000

 Following cartesian coordinates:
            Coordinates               Weight
  0.000000  0.000000  0.000000      1.000000
 -0.023556  0.023556  0.023556      8.000000
 -0.047111  0.047111  0.047111      8.000000
 -0.070667  0.070667  0.070667      4.000000
  0.000000  0.000000  0.047111      6.000000
 -0.023556  0.023556  0.070667     24.000000
 -0.047111  0.047111  0.094222     24.000000
  0.070667 -0.070667 -0.023556     24.000000
  0.047111 -0.047111  0.000000     12.000000
  0.000000  0.000000  0.094222      6.000000
 -0.023556  0.023556  0.117778     24.000000
  0.094222 -0.094222  0.000000     12.000000
  0.000000  0.000000  0.141333      3.000000
  0.000000  0.047111  0.094222     24.000000
  0.117778 -0.070667 -0.023556     24.000000
  0.141333 -0.094222  0.000000     12.000000

 SYSTEM =  unknown system
 POSCAR =  Li1 Gd2 Rh1

 Startparameter for this run:
   NWRITE =      2    write-flag & timer
   PREC   = accura    normal or accurate (medium, high low for compatibility)
   ISTART =      0    job   : 0-new  1-cont  2-samecut
   ICHARG =      0    charge: 1-file 2-atom 10-const
   ISPIN  =      2    spin polarized calculation?
   LNONCOLLINEAR =      F non collinear calculations
   LSORBIT =      F    spin-orbit coupling
   INIWAV =      1    electr: 0-lowe 1-rand  2-diag
   LASPH  =      T    aspherical Exc in radial PAW
 Electronic Relaxation 1
   ENCUT  =  520.0 eV  38.22 Ry    6.18 a.u.   9.30  9.30  9.30*2*pi/ulx,y,z
   ENINI  =  520.0     initial cutoff
   ENAUG  =  628.9 eV  augmentation charge cutoff
   NELM   =   1000;   NELMIN=  2; NELMDL= -5     # of ELM steps
   EDIFF  = 0.2E-03   stopping-criterion for ELM
   LREAL  =      T    real-space projection
   NLSPLINE    = F    spline interpolate recip. space projectors
   LCOMPAT=      F    compatible to vasp.4.4
   GGA_COMPAT  = T    GGA compatible to vasp.4.4-vasp.4.6
   LMAXPAW     = -100 max onsite density
   LMAXMIX     =    2 max onsite mixed and CHGCAR
   VOSKOWN=      0    Vosko Wilk Nusair interpolation
   ROPT   =   -0.00025  -0.00025  -0.00025
 Ionic relaxation
   EDIFFG = 0.2E-02   stopping-criterion for IOM
   NSW    =      0    number of steps for IOM
   NBLOCK =      1;   KBLOCK =      1    inner block; outer block
   IBRION =     -1    ionic relax: 0-MD 1-quasi-New 2-CG
   NFREE  =      0    steps in history (QN), initial steepest desc. (CG)
   ISIF   =      3    stress and relaxation
   IWAVPR =     10    prediction:  0-non 1-charg 2-wave 3-comb
   ISYM   =      2    0-nonsym 1-usesym 2-fastsym
   LCORR  =      T    Harris-Foulkes like correction to forces

   POTIM  = 0.5000    time-step for ionic-motion
   TEIN   =    0.0    initial temperature
   TEBEG  =    0.0;   TEEND  =   0.0 temperature during run
   SMASS  =  -3.00    Nose mass-parameter (am)
   estimated Nose-frequenzy (Omega)   =  0.10E-29 period in steps = 0.13E+47 mass=  -0.572E-27a.u.
   SCALEE = 1.0000    scale energy and forces
   NPACO  =    256;   APACO  = 10.0  distance and # of slots for P.C.
   PSTRESS=    0.0 pullay stress

  Mass of Ions in am
   POMASS =   7.01157.25102.91
[...]
  320                  map_gather                            0.000042                  2   8
  321                  m_alltoallv_z                         0.000027                  2   8
  322                  map_scatter                           0.000087                  2   8
  323                map_backward                          0.000079                    2   7
  324                  map_gather                            0.000019                  1   8
  325                  m_alltoallv_z                         0.000012                  1   8
  326                  map_scatter                           0.000032                  1   8
  327          m_sumb_d                              0.000010                          2   4
  328          pothar                                0.000082                          1   4
  329            m_sumb_d                              0.000012                        1   5
  330        brmix                                 0.003883                            1   3
  331          m_sumb_d                              0.000031                          6   4
  332          brpre                                 0.000018                          2   4
  333          setg0                                 0.000450                          1   4
  334          broyd                                 0.002786                          1   4
  335            m_sumb_d                              0.000267                       43   5
  336            brget                                 0.000520                      189   5
  337            brsav                                 0.000112                       41   5
  338        m_bcast_d                             0.000017                            2   3
  339      potlok                                0.018414                              2   2
  340        fft3d_mpi                             0.012051                           36   3
  341          fftbrc_mpi                            0.010329                         36   4
  342            fftbas_plan_mpi                       0.010314                       36   5
  343              map_forward                           0.003092                     40   6
  344                map_gather                            0.001058                   24   7
  345                m_alltoallv_z                         0.000928                   24   7
  346                map_scatter                           0.000928                   24   7
  347              map_backward                          0.002557                     32   6
  348                map_gather                            0.000906                   16   7
  349                m_alltoallv_z                         0.000696                   16   7
  350                map_scatter                           0.000777                   16   7
  351              dfftw_execute                         0.003102                     30   6
  352        m_sumb_d                              0.000025                            5   3
  353        pothar                                0.000683                            2   3
  354          m_sumb_d                              0.000048                          2   4
  355        m_bcast_d                             0.001116                            4   3
  356      potlok_metagga                        0.000000                              1   2
  357      set_dd_magatom                        0.000004                              1   2
  358      set_dd_paw                            0.937859                              1   2
  359        m_sumb_d                              0.467048                            7   3
  360      augmentation_charge                   0.075881                              1   2
  361        fft3d_mpi                             0.016923                            2   3
  362          fftbrc_mpi                            0.014282                          2   4
  363            fftbas_plan_mpi                       0.014279                        2   5
  364              dfftw_execute                         0.008749                      6   6
  365              map_backward                          0.005390                      4   6
  366                map_gather                            0.001355                    2   7
  367                m_alltoallv_z                         0.002798                    2   7
  368                map_scatter                           0.001231                    2   7
  369      fftwav_mpi                            0.433496                            960   2
  370        fftwav                                0.432309                          960   3
  371          fft3d                                 0.412974                        960   4
  372      densta                                0.000808                              1   2
  373        m_sumb_d                              0.000416                           37   3

 Flat profile

 m_sumb_d                               24.688232       82733
 set_dd_paw                             17.863942          39
 lapack                                 11.899146       25548
 eddav                                  11.890451          41
 init_acc                               10.707123           1
 raccmu_                                 9.369359       25548
 total_time                              7.358831           1
 redis_pw                                4.610212      142856
 setdij_                                 3.599952          65
 acc_init_cublas                         3.416139           1
 m_alltoall_d                            2.714611      372392
 augmentation_charge                     2.347123          39
 phaser                                  2.064880        1520
 fft3d                                   1.659286      154265
 dfftw_execute                           1.360229        1380
 redis_proj                              1.205076      180864
 eccp                                    1.127018       13120
 acc_init_cusolver                       1.086129           1
 fftwav                                  1.012938      103169
 orth1                                   0.833637       76708
 rpromu_acc                              0.755291       20236
 overl                                   0.751826       89104
 racc0mu_acc                             0.748434       25548
 w1_copy                                 0.739740      153288
 soft_charge                             0.685525          38
 m_bcast_z                               0.540266       26828
 hamiltmu                                0.530593       25548
 m_alltoallv_z                           0.520195        1647
 setup_precond                           0.472811       13120
 m_bcast_d                               0.422799       51179
 overl_mu                                0.393649       25548
 ggemm                                   0.335916       32108
 fft3d_mpi                               0.288696       52569
 acc_cufft_makeplan                      0.281290          19
 rpro_isp                                0.260981         208
 pw_charge                               0.237103        8977
 vhamil                                  0.235054       51096
 newband                                 0.235022       26860
 kinhamil                                0.234539       51096
 fftext_mpi                              0.218891       51096
 apply_precond                           0.209088       37976
 map_gather                              0.202221        1647
 set_charge                              0.200459          38
 depsum                                  0.197147          38
 map_scatter                             0.191567        1647
 fftwav_mpi                              0.137983      103169
 rspher_all                              0.111801          14
 potlok                                  0.110494          39
 fftbas_plan_mpi                         0.089356        1473
 elmin                                   0.068897           1
 lincom                                  0.041934        1344
 proall                                  0.040311           1
 broyd                                   0.027754          37
 sphpro_fast                             0.023787           2
 brmix                                   0.021420          37
 w1_projall                              0.019168       18988
 setg0                                   0.017322          39
 densta                                  0.010804          42
 brget                                   0.009303        3657
 orthch                                  0.007803           1
 force_and_stress                        0.007540           1
 map_backward                            0.007532        1538
 choleski                                0.007200          32
 map_forward                             0.007193        1408
 truncate_high_frequency_w1              0.005155       64216
 inisym                                  0.004778           1
 strnlr                                  0.004196           1
 pothar                                  0.003413          40
 brsav                                   0.002210         858
 stufak                                  0.001442           1
 fornlr                                  0.001439           1
 strelo                                  0.001112           1
 forhar                                  0.001087           2
 fft_gq                                  0.001081          38
 fftbrc_mpi                              0.000812        1473
 strehar                                 0.000774           1
 forloc                                  0.000693           1
 brpre                                   0.000637          74
 fewald                                  0.000341           1
 chggra                                  0.000234           1
 strkin                                  0.000206           1
 set_dd_magatom                          0.000175          39
 vectorpot                               0.000164          38
 brgrid                                  0.000109           1
 rsp                                     0.000049           1
 fordep                                  0.000043           1
 posmap                                  0.000034           2
 crpa_reader                             0.000027           1
 rcp                                     0.000013           1
 acc_cufft_makeplans                     0.000010           3
 potlok_metagga                          0.000004          38
 redis_pw_over_bands                     0.000001           1
 rotate_active_occupied_orbital          0.000000           1
  summed up times     131.5012581348419

 Accumulative profile

 total_time                            131.501258           1
 elmin                                 102.203767           1
 eddav                                  59.513851          41
 set_dd_paw                             36.641544          39
 m_sumb_d                               24.688232       82733
 hamiltmu                               12.110779       25548
 lapack                                 11.899146       25548
 init_acc                               10.707123           1
 raccmu_                                10.511442       25548
 redis_pw                                5.896937      142856
 setdij_                                 5.178995          65
 set_charge                              4.763206          38
 force_and_stress                        4.105450           1
 acc_init_cublas                         3.416139           1
 augmentation_charge                     3.033138          39
 fft3d_mpi                               3.032354       52569
 newband                                 2.807616       26860
 m_alltoall_d                            2.714611      372392
 redis_proj                              2.632961      180864
 fftwav_mpi                              2.445655      103169
 fftbrc_mpi                              2.379105        1473
 fftbas_plan_mpi                         2.378293        1473
 fftwav                                  2.307672      103169
 phaser                                  2.064880        1520
 fft3d                                   1.659286      154265
 soft_charge                             1.378531          38
 dfftw_execute                           1.360229        1380
 eccp                                    1.127018       13120
 acc_init_cusolver                       1.086129           1
 kinhamil                                0.833689       51096
 orth1                                   0.833637       76708
 rpromu_acc                              0.755291       20236
 overl                                   0.751826       89104
 racc0mu_acc                             0.748434       25548
 w1_copy                                 0.739740      153288
 strnlr                                  0.712157           1
 fftext_mpi                              0.599150       51096
 rpro_isp                                0.592178         208
 w1_projall                              0.569230       18988
 m_bcast_z                               0.540266       26828
 map_forward                             0.539808        1408
 m_alltoallv_z                           0.520195        1647
 fordep                                  0.479925           1
 setup_precond                           0.472811       13120
 m_bcast_d                               0.422799       51179
 potlok                                  0.397746          39
 overl_mu                                0.393649       25548
 map_backward                            0.388899        1538
 ggemm                                   0.335916       32108
 acc_cufft_makeplans                     0.281300           3
 acc_cufft_makeplan                      0.281290          19
 pw_charge                               0.237103        8977
 vhamil                                  0.235054       51096
 fornlr                                  0.235041           1
 orthch                                  0.220903           1
 apply_precond                           0.209088       37976
 map_gather                              0.202221        1647
 depsum                                  0.199390          38
 map_scatter                             0.191567        1647
 rspher_all                              0.111801          14
 brmix                                   0.084579          37
 proall                                  0.082094           1
 broyd                                   0.043920          37
 lincom                                  0.041934        1344
 fft_gq                                  0.039148          38
 sphpro_fast                             0.024418           2
 densta                                  0.019363          42
 setg0                                   0.017322          39
 brget                                   0.009303        3657
 choleski                                0.007200          32
 truncate_high_frequency_w1              0.005155       64216
 inisym                                  0.004812           1
 pothar                                  0.003750          40
 brsav                                   0.002210         858
 stufak                                  0.001442           1
 strelo                                  0.001122           1
 forhar                                  0.001112           2
 strehar                                 0.000854           1
 chggra                                  0.000782           1
 forloc                                  0.000709           1
 brpre                                   0.000637          74
 fewald                                  0.000456           1
 strkin                                  0.000221           1
 set_dd_magatom                          0.000175          39
 vectorpot                               0.000164          38
 brgrid                                  0.000109           1
 rsp                                     0.000049           1
 posmap                                  0.000034           2
 crpa_reader                             0.000027           1
 rcp                                     0.000013           1
 potlok_metagga                          0.000004          38
 redis_pw_over_bands                     0.000001           1
 rotate_active_occupied_orbital          0.000000           1

Profiling took   0.332585  0.163987  0.003235  0.003139 seconds
Profiling took   0.209455 seconds