 vasp.6.3.2 27Jun22 (build Jul  3 2023 11:46:21) complex
 executed on    LinuxNV_CrayMPICH date 2024.04.21  07:43:31

 INCAR:
   ADDGRID = True
   ALGO = Fast
   EDIFF = 5e-05
   ENCUT = 520.0
   IBRION = -1
   ISIF = 3
   ISMEAR = -5
   ISPIN = 2
   LAECHG = True
   LASPH = True
   LCHARG = True
   LORBIT = 11
   LREAL = Auto
   LVHAR = True
   LWAVE = False
   MAGMOM = 1*7.0 1*0.6 4*5.0
   NELM = 1000
   NSW = 0
   PREC = Accurate
   SIGMA = 0.05

 POTCAR:    PAW_PBE Gd 23Dec2003
 POTCAR:    PAW_PBE Mg_pv 13Apr2007
 POTCAR:    PAW_PBE Ni_pv 06Sep2000
 POTCAR:    PAW_PBE Gd 23Dec2003
   VRHFIN =Gd : [core=Xe4]

   TITEL  = PAW_PBE Gd 23Dec2003
   POMASS =  157.250; ZVAL   =   18.000    mass and valenz
   ENMAX  =  256.472; ENMIN  =  192.354 eV

   TITEL  = PAW_PBE Mg_pv 13Apr2007
   POMASS =   24.305; ZVAL   =    8.000    mass and valenz
   ENMAX  =  403.929; ENMIN  =  302.947 eV

   TITEL  = PAW_PBE Ni_pv 06Sep2000
   POMASS =   58.690; ZVAL   =   16.000    mass and valenz
   ENMAX  =  367.986; ENMIN  =  275.989 eV

 Optimization of the real space projectors (new method)

 maximal supplied QI-value         = 13.42
 optimisation between [QCUT,QGAM] = [ 11.67, 23.35] = [ 38.16,152.62] Ry
 Optimized for a Real-space Cutoff    1.63 Angstroem

   l    n(q)    QCUT    max X(q) W(low)/X(q) W(high)/X(q)  e(spline)
   0     11    11.673    10.501    0.14E-04    0.17E-05    0.21E-07
   0     11    11.673     9.148    0.21E-04    0.32E-05    0.45E-07
   1     11    11.673     4.035    0.33E-05    0.11E-04    0.84E-07
   1     11    11.673     4.388    0.11E-04    0.47E-04    0.34E-06
   2     10    11.673    20.656    0.12E-04    0.28E-04    0.54E-06
   2     10    11.673    12.651    0.11E-04    0.26E-04    0.51E-06
   3     10    11.673    61.921    0.19E-03    0.22E-03    0.23E-06
   3     10    11.673    48.328    0.20E-03    0.23E-03    0.23E-06
 Optimization of the real space projectors (new method)

[...]

   l    n(q)    QCUT    max X(q) W(low)/X(q) W(high)/X(q)  e(spline)
   1      8    11.527     2.974    0.44E-04    0.56E-04    0.12E-06
   1      8    11.527     4.279    0.12E-03    0.12E-03    0.26E-06
   0      9    11.527    16.381    0.46E-04    0.64E-04    0.78E-07
   0      9    11.527     5.611    0.26E-04    0.43E-04    0.55E-07
   2      8    11.527     4.652    0.22E-03    0.72E-04    0.47E-07
 Optimization of the real space projectors (new method)

 maximal supplied QI-value         = 18.90
 optimisation between [QCUT,QGAM] = [ 11.53, 23.24] = [ 37.21,151.29] Ry
 Optimized for a Real-space Cutoff    1.36 Angstroem

   l    n(q)    QCUT    max X(q) W(low)/X(q) W(high)/X(q)  e(spline)
   1      9    11.527     2.836    0.16E-04    0.30E-04    0.95E-07
   1      9    11.527     4.023    0.73E-04    0.81E-04    0.21E-06
   2      9    11.527    73.368    0.15E-03    0.29E-03    0.28E-06
   2      9    11.527    69.010    0.15E-03    0.29E-03    0.29E-06
   0      9    11.527    54.797    0.43E-04    0.28E-04    0.85E-07
   0      9    11.527    24.266    0.33E-04    0.24E-04    0.75E-07
  PAW_PBE Gd 23Dec2003                  :
  PAW_PBE Mg_pv 13Apr2007               :
  PAW_PBE Ni_pv 06Sep2000               :

 POSCAR: Gd1 Mg1 Ni4
  positions in direct lattice
 exchange correlation table for  LEXCH =        8
   RHO(1)=    0.500       N(1)  =     2000
   RHO(2)=  100.500       N(2)  =     4000

 VTST: version 4.2, (08/11/21)

 CHAIN: initializing optimizer

 OPT: Using VASP Dynamics algorithm
 CHAIN: Read ICHAIN             0

 POSCAR: Gd1 Mg1 Ni4
  positions in direct lattice

 ion  position               nearest neighbor table
   1  0.000  0.000  0.000-   3 2.91   4 2.91   5 2.91   6 2.91   6 2.91   6 2.91   4 2.91   5 2.91
                             3 2.91   3 2.91   5 2.91   4 2.91   2 3.04   2 3.04   2 3.04   2 3.04
   2  0.250  0.250  0.250-   1 3.04   1 3.04   1 3.04   1 3.04
   3  0.624  0.624  0.129-   4 2.45   5 2.45   6 2.45   4 2.50   5 2.50   6 2.50   1 2.91   1 2.91
                             1 2.91
   4  0.624  0.129  0.624-   3 2.45   5 2.45   6 2.45   5 2.50   3 2.50   6 2.50   1 2.91   1 2.91
                             1 2.91
   5  0.129  0.624  0.624-   3 2.45   4 2.45   6 2.45   4 2.50   3 2.50   6 2.50   1 2.91   1 2.91
                             1 2.91
   6  0.624  0.624  0.624-   3 2.45   4 2.45   5 2.45   5 2.50   4 2.50   3 2.50   1 2.91   1 2.91
                             1 2.91

  LATTYP: Found a face centered cubic cell.
 ALAT       =     7.0104120000

  Lattice vectors:

 A1 = (   0.0000000000,   3.5052060000,   3.5052060000)
 A2 = (   3.5052060000,   0.0000000000,   3.5052060000)
 A3 = (   3.5052060000,   3.5052060000,   0.0000000000)

Analysis of symmetry for initial positions (statically):
 Subroutine PRICEL returns:
 Original cell was already a primitive cell.

 Routine SETGRP: Setting up the symmetry group for a
 face centered cubic supercell.

 Subroutine GETGRP returns: Found 24 space group operations
 (whereof 24 operations were pure point group operations)
 out of a pool of 48 trial point group operations.

The static configuration has the point symmetry T_d .

Analysis of symmetry for dynamics (positions and initial velocities):
 Subroutine PRICEL returns:
 Original cell was already a primitive cell.

[...]

The dynamic configuration has the point symmetry T_d .

Analysis of structural, dynamic, and magnetic symmetry:
 Subroutine PRICEL returns:
 Original cell was already a primitive cell.

 Routine SETGRP: Setting up the symmetry group for a
 face centered cubic supercell.

 Subroutine GETGRP returns: Found 24 space group operations
 (whereof 24 operations were pure point group operations)
 out of a pool of 48 trial point group operations.

The overall configuration has the point symmetry T_d .

 Subroutine INISYM returns: Found 24 space group operations
 (whereof 24 operations are pure point group operations),
 and found     1 'primitive' translations

                                     Primitive cell

  volume of cell :      86.1332

  direct lattice vectors                    reciprocal lattice vectors
     0.000000000  3.505206000  3.505206000    -0.142644969  0.142644969  0.142644969
     3.505206000  0.000000000  3.505206000     0.142644969 -0.142644969  0.142644969
     3.505206000  3.505206000  0.000000000     0.142644969  0.142644969 -0.142644969

  length of vectors
     4.957109864  4.957109864  4.957109864     0.247068333  0.247068333  0.247068333

  position of ions in fractional coordinates (direct lattice)
     0.000000000  0.000000000  0.000000000
     0.250000000  0.250000000  0.250000000
     0.623795000  0.623795000  0.128615000
     0.623795000  0.128615000  0.623795000
     0.128615000  0.623795000  0.623795000
     0.623795000  0.623795000  0.623795000

  ion indices of the primitive-cell ions
   primitive index   ion index
                 1           1
                 2           2
                 3           3
                 4           4
                 5           5
                 6           6

 KPOINTS: Kpoints from vasprun.xml

Automatic generation of k-mesh.
 Grid dimensions read from file:
 generate k-points for:    6    6    6

 Generating k-lattice:

  Cartesian coordinates                     Fractional coordinates (reciprocal lattice)
    -0.023774161  0.023774161  0.023774161     0.166666667 -0.000000000 -0.000000000
     0.023774161 -0.023774161  0.023774161    -0.000000000  0.166666667  0.000000000
     0.023774161  0.023774161 -0.023774161     0.000000000  0.000000000  0.166666667

  Length of vectors
     0.041178056  0.041178056  0.041178056

  Shift w.r.t. Gamma in fractional coordinates (k-lattice)
     0.500000000  0.500000000  0.500000000

 TETIRR: Found    403 inequivalent tetrahedra from     5184

 Subroutine IBZKPT returns following result:

 Found     28 irreducible k-points:

 Following reciprocal coordinates:
            Coordinates               Weight
  0.083333  0.083333  0.083333      8.000000
  0.250000  0.083333  0.083333     24.000000
  0.416667  0.083333  0.083333     24.000000
 -0.416667  0.083333  0.083333     24.000000
 -0.250000  0.083333  0.083333     24.000000
 -0.083333  0.083333  0.083333     24.000000
  0.250000  0.250000  0.083333     24.000000
  0.416667  0.250000  0.083333     48.000000
 -0.416667  0.250000  0.083333     48.000000
 -0.250000  0.250000  0.083333     48.000000
 -0.083333  0.250000  0.083333     48.000000
  0.416667  0.416667  0.083333     24.000000
 -0.416667  0.416667  0.083333     48.000000
 -0.250000  0.416667  0.083333     48.000000
 -0.083333  0.416667  0.083333     48.000000
 -0.416667 -0.416667  0.083333     24.000000
 -0.250000 -0.416667  0.083333     48.000000
 -0.250000 -0.250000  0.083333     24.000000
  0.250000  0.250000  0.250000      8.000000
  0.416667  0.250000  0.250000     24.000000
 -0.416667  0.250000  0.250000     24.000000
 -0.250000  0.250000  0.250000     24.000000
  0.416667  0.416667  0.250000     24.000000
 -0.416667  0.416667  0.250000     48.000000
 -0.250000  0.416667  0.250000     48.000000
 -0.416667 -0.416667  0.250000     24.000000
  0.416667  0.416667  0.416667      8.000000
 -0.416667  0.416667  0.416667     24.000000

 Following cartesian coordinates:
            Coordinates               Weight
  0.011887  0.011887  0.011887      8.000000
 -0.011887  0.035661  0.035661     24.000000
 -0.035661  0.059435  0.059435     24.000000
  0.083210 -0.059435 -0.059435     24.000000
  0.059435 -0.035661 -0.035661     24.000000
  0.035661 -0.011887 -0.011887     24.000000
  0.011887  0.011887  0.059435     24.000000
 -0.011887  0.035661  0.083210     48.000000
  0.106984 -0.083210 -0.035661     48.000000
  0.083210 -0.059435 -0.011887     48.000000
  0.059435 -0.035661  0.011887     48.000000
  0.011887  0.011887  0.106984     24.000000
  0.130758 -0.106984 -0.011887     48.000000
  0.106984 -0.083210  0.011887     48.000000
  0.083210 -0.059435  0.035661     48.000000
  0.011887  0.011887 -0.130758     24.000000
 -0.011887  0.035661 -0.106984     48.000000
  0.011887  0.011887 -0.083210     24.000000
  0.035661  0.035661  0.035661      8.000000
  0.011887  0.059435  0.059435     24.000000
  0.130758 -0.059435 -0.059435     24.000000
  0.106984 -0.035661 -0.035661     24.000000
  0.035661  0.035661  0.083210     24.000000
  0.154532 -0.083210 -0.035661     48.000000
  0.130758 -0.059435 -0.011887     48.000000
  0.035661  0.035661 -0.154532     24.000000
  0.059435  0.059435  0.059435      8.000000
  0.178306 -0.059435 -0.059435     24.000000

 SYSTEM =  unknown system
 POSCAR =  Gd1 Mg1 Ni4

 Startparameter for this run:
   NWRITE =      2    write-flag & timer
   PREC   = accura    normal or accurate (medium, high low for compatibility)
   ISTART =      0    job   : 0-new  1-cont  2-samecut
   ICHARG =      2    charge: 1-file 2-atom 10-const
   ISPIN  =      2    spin polarized calculation?
   LNONCOLLINEAR =      F non collinear calculations
   LSORBIT =      F    spin-orbit coupling
   INIWAV =      1    electr: 0-lowe 1-rand  2-diag
   LASPH  =      T    aspherical Exc in radial PAW
 Electronic Relaxation 1
   ENCUT  =  520.0 eV  38.22 Ry    6.18 a.u.   9.22  9.22  9.22*2*pi/ulx,y,z
[...]
  382            brsav                                 0.000091                       34   5
  383        m_bcast_d                             0.000018                            2   3
  384      potlok                                0.018536                              2   2
  385        fft3d_mpi                             0.012118                           36   3
  386          fftbrc_mpi                            0.010345                         36   4
  387            fftbas_plan_mpi                       0.010329                       36   5
  388              map_forward                           0.003093                     40   6
  389                map_gather                            0.001055                   24   7
  390                m_alltoallv_z                         0.000911                   24   7
  391                map_scatter                           0.000942                   24   7
  392              map_backward                          0.002445                     32   6
  393                map_gather                            0.000858                   16   7
  394                m_alltoallv_z                         0.000631                   16   7
  395                map_scatter                           0.000782                   16   7
  396              dfftw_execute                         0.003168                     30   6
  397        m_sumb_d                              0.000026                            5   3
  398        pothar                                0.000712                            2   3
  399          m_sumb_d                              0.000065                          2   4
  400        m_bcast_d                             0.001100                            4   3
  401      potlok_metagga                        0.000000                              1   2
  402      set_dd_magatom                        0.000004                              1   2
  403      set_dd_paw                            1.400778                              1   2
  404        m_sumb_d                              0.927945                            7   3
  405      augmentation_charge                   0.069380                              1   2
  406        fft3d_mpi                             0.016804                            2   3
  407          fftbrc_mpi                            0.014602                          2   4
  408            fftbas_plan_mpi                       0.014599                        2   5
  409              dfftw_execute                         0.009069                      6   6
  410              map_backward                          0.005386                      4   6
  411                map_gather                            0.001274                    2   7
  412                m_alltoallv_z                         0.002868                    2   7
  413                map_scatter                           0.001236                    2   7
  414      densta                                6.348654                              1   2

 Flat profile

 m_sumb_d                               33.466154       33443
 set_dd_paw                             15.098820          32
 raccmu_                                13.617081       31149
 densta                                 13.185370          35
 eccp                                   10.442675      137464
 init_acc                                9.649866           1
 total_time                              7.165952           1
 w1_gemv                                 6.428188      268260
 i2                                      5.988024       22082
 eccp_nl                                 5.714313      105096
 phaser                                  4.156087        2268
 eddav                                   4.118096           5
 lapack                                  3.829598        9067
 redis_pw                                3.724207       61576
 eddiag                                  3.363589          29
 setdij_                                 2.842766          58
 cnorma                                  2.745781      105096
 m_alltoall_d                            2.723665      432320
 eddrmm                                  2.647704          29
 acc_init_cublas                         2.454563           1
 fft3d                                   2.249696      316645
 overl1                                  2.239339      134130
 fftwav                                  1.943335      194413
 augmentation_charge                     1.643003          31
 rpromu_acc                              1.531333       32269
 w1_copy                                 1.482562      283872
 soft_charge                             1.367567          30
 w1_dscal                                1.354296      227548
 dfftw_execute                           1.180918        1140
 setup_precond                           1.139319       32368
 hamilt_local                            1.108427       27608
 apply_precond                           1.080726      235986
 racc0mu_acc                             1.016676       31149
 w1_gaxpy                                1.002066      196182
 newband                                 0.901368       33053
 w1_daxpy                                0.836364      155096
 redis_proj                              0.820247       69016
 acc_init_cusolver                       0.819122           1
 w1_dot                                  0.761381       27548
 hamiltmu                                0.712277       31149
 rpro_isp                                0.665895         364
 kinhamil                                0.528805      122232
 vhamil                                  0.524516      122232
 pw_charge                               0.518154       20001
 fftext_mpi                              0.489925      122232
 overl_mu                                0.471572       31149
 depsum                                  0.453390          30
 m_alltoallv_z                           0.434746        1335
 zhegv                                   0.411483       50000
 orth1                                   0.405918       37113
 choleski                                0.290721        1680
 overl                                   0.278271       32576
 m_bcast_z                               0.268923       12875
 fftwav_mpi                              0.262342      194413
 orthch                                  0.253616          30
 fft3d_mpi                               0.247926      123443
 i3                                      0.200357       22082
 map_gather                              0.166870        1335
 set_charge                              0.157151          30
 map_scatter                             0.156186        1335
 m_bcast_d                               0.145577       18203
 rspher_all                              0.127259          14
 acc_cufft_makeplan                      0.127106          19
 ggemm                                   0.118670       11587
 potlok                                  0.091500          32
 lincom                                  0.082387        3584
 fftbas_plan_mpi                         0.078683        1211
 sphpro_fast                             0.071932           2
 elmin                                   0.064341           1
 proall                                  0.046143           1
 w1_projall                              0.025608       28629
 i1                                      0.023498       22082
 broyd                                   0.018188          30
 brmix                                   0.017134          30
 setg0                                   0.013984          32
 truncate_high_frequency_w1              0.009329      126992
 force_and_stress                        0.008843           1
 strnlr                                  0.007343           1
 brget                                   0.006214        2439
 map_backward                            0.006098        1266
 map_forward                             0.005903        1156
 inisym                                  0.004893           1
 pothar                                  0.002903          33
 fornlr                                  0.002521           1
 stufak                                  0.001802           1
 brsav                                   0.001509         590
 forhar                                  0.001288           2
 strelo                                  0.001075           1
 fft_gq                                  0.000871          30
 strehar                                 0.000868           1
 fftbrc_mpi                              0.000706        1211
 forloc                                  0.000696           1
 brpre                                   0.000521          60
 strkin                                  0.000350           1
 fewald                                  0.000331           1
 chggra                                  0.000228           1
 shift_bands_between_low_high            0.000214        1624
 set_dd_magatom                          0.000147          32
 vectorpot                               0.000133          31
 brgrid                                  0.000113           1
 rsp                                     0.000096           1
 fordep                                  0.000057           1
 posmap                                  0.000038           2
 crpa_reader                             0.000026           1
 rcp                                     0.000017           1
 acc_cufft_makeplans                     0.000008           3
 potlok_metagga                          0.000003          31
 rotate_active_occupied_orbital          0.000000           1
 redis_pw_over_bands                     0.000000           1
  summed up times     186.8564469814301

 Accumulative profile

 total_time                            186.856447           1
 elmin                                 152.098901           1
 eddrmm                                 64.291549          29
 set_dd_paw                             44.671480          32
 m_sumb_d                               33.466154       33443
 eddav                                  20.279173           5
 i2                                     20.028380       22082
 i3                                     18.490698       22082
 hamiltmu                               17.701919       31149
 raccmu_                                15.105329       31149
 densta                                 13.185370          35
 eccp                                   10.442675      137464
 init_acc                                9.649866           1
 w1_gemv                                 8.667527      268260
 cnorma                                  8.460095      105096
 eddiag                                  8.086214          29
 force_and_stress                        5.833390           1
 eccp_nl                                 5.714313      105096
 newband                                 5.642483       33053
 set_charge                              5.312402          30
 redis_pw                                4.946401       61576
 setdij_                                 4.217565          58
 phaser                                  4.156087        2268
 lapack                                  3.829598        9067
 fftwav_mpi                              3.639937      194413
 fftwav                                  3.377595      194413
 orthch                                  3.249609          30
 fft3d_mpi                               3.093471      123443
 m_alltoall_d                            2.723665      432320
 soft_charge                             2.575001          30
 acc_init_cublas                         2.454563           1
 redis_proj                              2.321718       69016
 fft3d                                   2.249696      316645
 overl1                                  2.239339      134130
 augmentation_charge                     2.172546          31
 fftbrc_mpi                              2.030109        1211
 fftbas_plan_mpi                         2.029403        1211
 kinhamil                                1.869193      122232
 strnlr                                  1.757332           1
 rpro_isp                                1.638866         364
 hamilt_local                            1.617822       27608
 rpromu_acc                              1.531333       32269
 w1_copy                                 1.482562      283872
 w1_dscal                                1.354296      227548
 fftext_mpi                              1.340389      122232
 dfftw_execute                           1.180918        1140
 setup_precond                           1.139319       32368
 apply_precond                           1.080726      235986
 racc0mu_acc                             1.016676       31149
 w1_gaxpy                                1.002066      196182
 w1_projall                              0.952137       28629
 w1_daxpy                                0.836364      155096
 acc_init_cusolver                       0.819122           1
 w1_dot                                  0.761381       27548
 fornlr                                  0.584874           1
 vhamil                                  0.524516      122232
 pw_charge                               0.518154       20001
 map_forward                             0.475916        1156
 overl_mu                                0.471572       31149
 depsum                                  0.455942          30
 fordep                                  0.436345           1
 m_alltoallv_z                           0.434746        1335
 zhegv                                   0.411483       50000
 orth1                                   0.405918       37113
 i1                                      0.371084       22082
 potlok                                  0.342657          32
 map_backward                            0.293886        1266
 choleski                                0.290721        1680
 overl                                   0.278271       32576
 m_bcast_z                               0.268923       12875
 map_gather                              0.166870        1335
 map_scatter                             0.156186        1335
 proall                                  0.147430           1
 m_bcast_d                               0.145577       18203
 rspher_all                              0.127259          14
 acc_cufft_makeplans                     0.127114           3
 acc_cufft_makeplan                      0.127106          19
 ggemm                                   0.118670       11587
 lincom                                  0.082387        3584
 sphpro_fast                             0.074006           2
 brmix                                   0.061867          30
 fft_gq                                  0.032083          30
 broyd                                   0.029142          30
 setg0                                   0.013984          32
 truncate_high_frequency_w1              0.009329      126992
 brget                                   0.006214        2439
 inisym                                  0.004931           1
 pothar                                  0.003206          33
 stufak                                  0.001802           1
 brsav                                   0.001509         590
 forhar                                  0.001309           2
 strelo                                  0.001218           1
 strehar                                 0.000873           1
 chggra                                  0.000745           1
 forloc                                  0.000713           1
 brpre                                   0.000521          60
 fewald                                  0.000496           1
 strkin                                  0.000355           1
 shift_bands_between_low_high            0.000214        1624
 set_dd_magatom                          0.000147          32
 vectorpot                               0.000133          31
 brgrid                                  0.000113           1
 rsp                                     0.000096           1
 posmap                                  0.000038           2
 crpa_reader                             0.000026           1
 rcp                                     0.000017           1
 potlok_metagga                          0.000003          31
 rotate_active_occupied_orbital          0.000000           1
 redis_pw_over_bands                     0.000000           1

Profiling took   0.465551  0.318668  0.003410  0.003318 seconds
Profiling took   0.355794 seconds