 vasp.6.3.2 27Jun22 (build Jul  3 2023 11:46:21) complex
 executed on    LinuxNV_CrayMPICH date 2024.04.21  22:17:09

 INCAR:
   ADDGRID = True
   ALGO = Normal
   EDIFF = 0.001
   ENCUT = 520.0
   IBRION = -1
   ICHARG = 0
   ISIF = 3
   ISMEAR = -5
   ISPIN = 2
   KPOINT_BSE = -1 0 0 0
   LAECHG = True
   LASPH = True
   LCHARG = True
   LELF = True
   LORBIT = 11
   LREAL = Auto
   LVHAR = True
   LWAVE = False
   MAGMOM = 4*7.0 16*0.6
   NELM = 1000
   NSW = 0
   PREC = accurate
   SIGMA = 0.05

 POTCAR:    PAW_PBE Eu 23Dec2003
 POTCAR:    PAW_PBE Sc_sv 07Sep2000
 POTCAR:    PAW_PBE O 08Apr2002
 POTCAR:    PAW_PBE Eu 23Dec2003
   VRHFIN =Eu : [core=Kr4d]

   TITEL  = PAW_PBE Eu 23Dec2003
   POMASS =  151.965; ZVAL   =   17.000    mass and valenz
   ENMAX  =  249.668; ENMIN  =  187.251 eV

   TITEL  = PAW_PBE Sc_sv 07Sep2000
   POMASS =   44.956; ZVAL   =   11.000    mass and valenz
   ENMAX  =  222.660; ENMIN  =  166.995 eV

   TITEL  = PAW_PBE O 08Apr2002
   POMASS =   16.000; ZVAL   =    6.000    mass and valenz
   ENMAX  =  400.000; ENMIN  =  300.000 eV

 Optimization of the real space projectors (new method)

 maximal supplied QI-value         = 13.42
 optimisation between [QCUT,QGAM] = [ 11.67, 23.35] = [ 38.16,152.62] Ry
 Optimized for a Real-space Cutoff    1.63 Angstroem

   l    n(q)    QCUT    max X(q) W(low)/X(q) W(high)/X(q)  e(spline)
   0     11    11.673    10.400    0.14E-04    0.18E-05    0.24E-07
   0     11    11.673    10.768    0.21E-04    0.32E-05    0.49E-07
   1     11    11.673     4.094    0.40E-05    0.13E-04    0.93E-07
   1     11    11.673     4.009    0.11E-04    0.46E-04    0.33E-06
   2     10    11.673    29.030    0.79E-04    0.60E-04    0.70E-06
   2     10    11.673    19.941    0.80E-04    0.60E-04    0.71E-06
   3     10    11.673    88.889    0.23E-03    0.29E-03    0.30E-06
   3     10    11.673    76.102    0.23E-03    0.30E-03    0.30E-06
 Optimization of the real space projectors (new method)

[...]

   l    n(q)    QCUT    max X(q) W(low)/X(q) W(high)/X(q)  e(spline)
   0     10    11.641     2.962    0.13E-04    0.68E-05    0.23E-07
   0     10    11.641    26.414    0.38E-04    0.17E-04    0.18E-07
   1     10    11.641     3.969    0.15E-04    0.39E-04    0.35E-07
   1     10    11.641     5.137    0.96E-04    0.17E-03    0.10E-06
   2      9    11.641   143.970    0.24E-03    0.57E-03    0.92E-06
   2      9    11.641   121.201    0.24E-03    0.57E-03    0.92E-06
 Optimization of the real space projectors (new method)

 maximal supplied QI-value         = 24.76
 optimisation between [QCUT,QGAM] = [ 11.64, 23.27] = [ 37.91,151.63] Ry
 Optimized for a Real-space Cutoff    1.14 Angstroem

   l    n(q)    QCUT    max X(q) W(low)/X(q) W(high)/X(q)  e(spline)
   0      8    11.635    20.381    0.10E-03    0.33E-03    0.24E-06
   0      8    11.635    15.268    0.11E-03    0.35E-03    0.26E-06
   1      7    11.635     5.964    0.24E-03    0.31E-03    0.30E-06
   1      7    11.635     5.382    0.22E-03    0.25E-03    0.26E-06
  PAW_PBE Eu 23Dec2003                  :
  PAW_PBE Sc_sv 07Sep2000               :
  PAW_PBE O 08Apr2002                   :

 POSCAR: Eu4 Sc4 O12
  positions in direct lattice
 exchange correlation table for  LEXCH =        8
   RHO(1)=    0.500       N(1)  =     2000
   RHO(2)=  100.500       N(2)  =     4000

 VTST: version 4.2, (08/11/21)

 CHAIN: initializing optimizer

 OPT: Using VASP Dynamics algorithm
 CHAIN: Read ICHAIN             0

 POSCAR: Eu4 Sc4 O12
  positions in direct lattice

 ion  position               nearest neighbor table
   1  0.986  0.056  0.750-  18 2.32  14 2.35  11 2.35  20 2.42   9 2.65  16 2.65   5 3.27   8 3.27
                             7 3.39   6 3.39
   2  0.486  0.444  0.250-  17 2.32  13 2.35  12 2.35  19 2.42  10 2.65  15 2.65   6 3.27   7 3.27
                             5 3.39   8 3.39
   3  0.514  0.556  0.750-  20 2.32  16 2.35   9 2.35  18 2.42  14 2.65  11 2.65   6 3.27   7 3.27
                             5 3.39   8 3.39
   4  0.014  0.944  0.250-  19 2.32  15 2.35  10 2.35  17 2.42  13 2.65  12 2.65   5 3.27   8 3.27
                             7 3.39   6 3.39
   5  0.000  0.500  0.500-   9 2.11  13 2.11  17 2.12  20 2.12  10 2.13  14 2.13   1 3.27   4 3.27
                             3 3.39   2 3.39
   6  0.500  0.000  0.500-  10 2.11  14 2.11  18 2.12  19 2.12  13 2.13   9 2.13   2 3.27   3 3.27
                             1 3.39   4 3.39
   7  0.500  0.000  0.000-  11 2.11  15 2.11  18 2.12  19 2.12  12 2.13  16 2.13   2 3.27   3 3.27
                             1 3.39   4 3.39
   8  0.000  0.500  0.000-  12 2.11  16 2.11  17 2.12  20 2.12  15 2.13  11 2.13   1 3.27   4 3.27
                             3 3.39   2 3.39
   9  0.696  0.302  0.560-   5 2.11   6 2.13   3 2.35   1 2.65
  10  0.196  0.198  0.440-   6 2.11   5 2.13   4 2.35   2 2.65
  11  0.804  0.802  0.940-   7 2.11   8 2.13   1 2.35   3 2.65
  12  0.304  0.698  0.060-   8 2.11   7 2.13   2 2.35   4 2.65
  13  0.304  0.698  0.440-   5 2.11   6 2.13   2 2.35   4 2.65
  14  0.804  0.802  0.560-   6 2.11   5 2.13   1 2.35   3 2.65
  15  0.196  0.198  0.060-   7 2.11   8 2.13   4 2.35   2 2.65
  16  0.696  0.302  0.940-   8 2.11   7 2.13   3 2.35   1 2.65
  17  0.887  0.546  0.250-   5 2.12   8 2.12   2 2.32   4 2.42
  18  0.387  0.954  0.750-   6 2.12   7 2.12   1 2.32   3 2.42
  19  0.613  0.046  0.250-   6 2.12   7 2.12   4 2.32   2 2.42
  20  0.113  0.454  0.750-   5 2.12   8 2.12   3 2.32   1 2.42

  LATTYP: Found a simple orthorhombic cell.
 ALAT       =     5.6006680000
 B/A-ratio  =     1.0384163103
 C/A-ratio  =     1.4325246560

  Lattice vectors:

 A1 = (   5.6006680000,   0.0000000000,   0.0000000000)
 A2 = (   0.0000000000,   5.8158250000,   0.0000000000)
 A3 = (   0.0000000000,   0.0000000000,   8.0230950000)

Analysis of symmetry for initial positions (statically):
 Subroutine PRICEL returns:
 Original cell was already a primitive cell.

 Routine SETGRP: Setting up the symmetry group for a
 simple orthorhombic supercell.

 Subroutine GETGRP returns: Found  8 space group operations
 (whereof  2 operations were pure point group operations)
 out of a pool of  8 trial point group operations.

The static configuration has the point symmetry S_2 .
 The point group associated with its full space group is D_2h.

Analysis of symmetry for dynamics (positions and initial velocities):
 Subroutine PRICEL returns:
 Original cell was already a primitive cell.

[...]

The dynamic configuration has the point symmetry S_2 .
 The point group associated with its full space group is D_2h.

Analysis of structural, dynamic, and magnetic symmetry:
 Subroutine PRICEL returns:
 Original cell was already a primitive cell.

 Routine SETGRP: Setting up the symmetry group for a
 simple orthorhombic supercell.

 Subroutine GETGRP returns: Found  8 space group operations
 (whereof  2 operations were pure point group operations)
 out of a pool of  8 trial point group operations.

The overall configuration has the point symmetry S_2 .
 The point group associated with its full space group is D_2h.

 Subroutine INISYM returns: Found  8 space group operations
 (whereof  2 operations are pure point group operations),
 and found     1 'primitive' translations

                                     Primitive cell

  volume of cell :     261.3323

  direct lattice vectors                    reciprocal lattice vectors
     5.600668000  0.000000000  0.000000000     0.178550130  0.000000000  0.000000000
     0.000000000  5.815825000  0.000000000     0.000000000  0.171944651  0.000000000
     0.000000000  0.000000000  8.023095000     0.000000000  0.000000000  0.124640179

  length of vectors
     5.600668000  5.815825000  8.023095000     0.178550130  0.171944651  0.124640179

  position of ions in fractional coordinates (direct lattice)
     0.985515000  0.055523000  0.750000000
     0.485515000  0.444477000  0.250000000
     0.514485000  0.555523000  0.750000000
     0.014485000  0.944477000  0.250000000
     0.000000000  0.500000000  0.500000000
     0.500000000  0.000000000  0.500000000
     0.500000000  0.000000000  0.000000000
     0.000000000  0.500000000  0.000000000
     0.696355000  0.302053000  0.559640000
     0.196355000  0.197947000  0.440360000
     0.803645000  0.802053000  0.940360000
     0.303645000  0.697947000  0.059640000
     0.303645000  0.697947000  0.440360000
     0.803645000  0.802053000  0.559640000
     0.196355000  0.197947000  0.059640000
     0.696355000  0.302053000  0.940360000
     0.886501000  0.546309000  0.250000000
     0.386501000  0.953691000  0.750000000
     0.613499000  0.046309000  0.250000000
     0.113499000  0.453691000  0.750000000

  ion indices of the primitive-cell ions
   primitive index   ion index
                 1           1
                 2           2
                 3           3
                 4           4
                 5           5
                 6           6
                 7           7
                 8           8
                 9           9
                10          10
                11          11
                12          12
                13          13
                14          14
                15          15
                16          16
                17          17
                18          18
                19          19
                20          20

 KPOINTS: Kpoints from vasprun.xml

Automatic generation of k-mesh.
 Grid dimensions read from file:
 generate k-points for:    5    5    3

 Generating k-lattice:

  Cartesian coordinates                     Fractional coordinates (reciprocal lattice)
     0.035710026  0.000000000  0.000000000     0.200000000  0.000000000  0.000000000
     0.000000000  0.034388930  0.000000000     0.000000000  0.200000000  0.000000000
     0.000000000  0.000000000  0.041546726     0.000000000  0.000000000  0.333333333

  Length of vectors
     0.035710026  0.034388930  0.041546726

  Shift w.r.t. Gamma in fractional coordinates (k-lattice)
     0.000000000  0.000000000  0.000000000

 TETIRR: Found    208 inequivalent tetrahedra from      450

 Subroutine IBZKPT returns following result:

 Found     18 irreducible k-points:

 Following reciprocal coordinates:
            Coordinates               Weight
  0.000000  0.000000  0.000000      1.000000
  0.200000  0.000000  0.000000      2.000000
  0.400000  0.000000  0.000000      2.000000
  0.000000  0.200000  0.000000      2.000000
  0.200000  0.200000  0.000000      4.000000
  0.400000  0.200000  0.000000      4.000000
  0.000000  0.400000  0.000000      2.000000
  0.200000  0.400000  0.000000      4.000000
  0.400000  0.400000  0.000000      4.000000
  0.000000  0.000000  0.333333      2.000000
  0.200000  0.000000  0.333333      4.000000
  0.400000  0.000000  0.333333      4.000000
  0.000000  0.200000  0.333333      4.000000
  0.200000  0.200000  0.333333      8.000000
  0.400000  0.200000  0.333333      8.000000
  0.000000  0.400000  0.333333      4.000000
  0.200000  0.400000  0.333333      8.000000
  0.400000  0.400000  0.333333      8.000000

 Following cartesian coordinates:
            Coordinates               Weight
[...]
  318                map_forward                           0.000175                    4   7
  319                  map_gather                            0.000042                  2   8
  320                  m_alltoallv_z                         0.000029                  2   8
  321                  map_scatter                           0.000075                  2   8
  322                map_backward                          0.000094                    2   7
  323                  map_gather                            0.000021                  1   8
  324                  m_alltoallv_z                         0.000013                  1   8
  325                  map_scatter                           0.000046                  1   8
  326          m_sumb_d                              0.000009                          2   4
  327          pothar                                0.000076                          1   4
  328            m_sumb_d                              0.000007                        1   5
  329        brmix                                 0.007358                            1   3
  330          m_sumb_d                              0.000075                          6   4
  331          brpre                                 0.000023                          2   4
  332          setg0                                 0.000882                          1   4
  333          broyd                                 0.005422                          1   4
  334            m_sumb_d                              0.000465                       51   5
  335            brget                                 0.001045                      229   5
  336            brsav                                 0.000220                       49   5
  337        m_bcast_d                             0.000023                            2   3
  338      potlok                                0.031099                              2   2
  339        fft3d_mpi                             0.020119                           36   3
  340          fftbrc_mpi                            0.016731                         36   4
  341            fftbas_plan_mpi                       0.016711                       36   5
  342              map_forward                           0.004941                     40   6
  343                map_gather                            0.001617                   24   7
  344                m_alltoallv_z                         0.001752                   24   7
  345                map_scatter                           0.001382                   24   7
  346              map_backward                          0.003977                     32   6
  347                map_gather                            0.001315                   16   7
  348                m_alltoallv_z                         0.001291                   16   7
  349                map_scatter                           0.001179                   16   7
  350              dfftw_execute                         0.006075                     30   6
  351        m_sumb_d                              0.000024                            5   3
  352        pothar                                0.001196                            2   3
  353          m_sumb_d                              0.000074                          2   4
  354        m_bcast_d                             0.001961                            4   3
  355      potlok_metagga                        0.000000                              1   2
  356      set_dd_magatom                        0.000004                              1   2
  357      set_dd_paw                            2.092534                              1   2
  358        m_sumb_d                              0.008535                            7   3
  359      augmentation_charge                   0.115040                              1   2
  360        fft3d_mpi                             0.035420                            2   3
  361          fftbrc_mpi                            0.031834                          2   4
  362            fftbas_plan_mpi                       0.031832                        2   5
  363              dfftw_execute                         0.021325                      6   6
  364              map_backward                          0.010241                      4   6
  365                map_gather                            0.002568                    2   7
  366                m_alltoallv_z                         0.004613                    2   7
  367                map_scatter                           0.003051                    2   7
  368      fftwav_mpi                            2.769657                           3564   2
  369        fftwav                                2.765277                         3564   3
  370          fft3d                                 2.633543                       3564   4
  371      densta                               11.119766                              1   2

 Flat profile

 set_dd_paw                            442.746665         217
 eddav                                 256.580736         219
 lapack                                251.332345      524438
 raccmu_                               217.430288      524438
 m_sumb_d                              207.238678     1599186
 redis_pw                              110.903279     2787753
 m_alltoall_d                           51.286875     7340977
 densta                                 48.842415         220
 fft3d                                  25.360707     2973137
 eccp                                   24.917054      260172
 phaser                                 24.439811        8118
 redis_proj                             23.500841     3538312
 fftwav                                 18.347463     1962442
 setdij_                                17.772840         243
 augmentation_charge                    16.969672         217
 orth1                                  16.775719     1573494
 racc0mu_acc                            15.259931      524438
 w1_copy                                14.684922     3032085
 overl                                  14.561544     1761254
 hamiltmu                               14.360216      524438
 rpromu_acc                             12.000260      394622
 dfftw_execute                          11.986498        5652
 total_time                             11.816476           1
 init_acc                               11.708892           1
 m_bcast_z                              11.438337      529190
 soft_charge                            10.966722         216
 setup_precond                           9.411124      260172
 m_bcast_d                               8.772497     1049315
 overl_mu                                8.053504      524438
 ggemm                                   7.041658      658466
 pw_charge                               5.373338      182216
 kinhamil                                4.657635     1010695
 vhamil                                  4.608213     1010695
 fftext_mpi                              4.337920     1010695
 depsum                                  4.196786         216
 apply_precond                           4.084928      750523
 newband                                 4.048404      532322
 m_alltoallv_z                           2.960615        8411
 fftwav_mpi                              2.662620     1962442
 acc_init_cublas                         2.431287           1
 fft3d_mpi                               2.307124     1018220
 map_scatter                             1.754673        8411
 set_charge                              1.576429         216
 map_gather                              1.505371        8411
 acc_init_cusolver                       0.805919           1
 potlok                                  0.792285         217
 rpro_isp                                0.784377         234
 broyd                                   0.677444         215
 elmin                                   0.414481           1
 fftbas_plan_mpi                         0.402319        7525
 w1_projall                              0.390169      390410
 lincom                                  0.291663        7920
 brmix                                   0.237105         215
 brget                                   0.209672       46557
 rspher_all                              0.206515          14
 sphpro_fast                             0.202102           2
 setg0                                   0.185264         217
 acc_cufft_makeplan                      0.121743          19
 truncate_high_frequency_w1              0.099137     1270867
 proall                                  0.069963           1
 brsav                                   0.056772       13225
 map_backward                            0.044141        7946
 map_forward                             0.041478        7104
 orthch                                  0.027706           1
 force_and_stress                        0.017583           1
 pothar                                  0.017423         218
 choleski                                0.014049          36
 fft_gq                                  0.010959         216
 stufak                                  0.008249           1
 strnlr                                  0.006322           1
 brpre                                   0.005274         430
 inisym                                  0.004495           1
 fftbrc_mpi                              0.004422        7525
 fornlr                                  0.003708           1
 strelo                                  0.001754           1
 forhar                                  0.001508           2
 strehar                                 0.001293           1
 strkin                                  0.001196           1
 set_dd_magatom                          0.000991         217
 vectorpot                               0.000906         216
 forloc                                  0.000813           1
 rsp                                     0.000468           1
 fewald                                  0.000345           1
 chggra                                  0.000229           1
 brgrid                                  0.000184           1
 fordep                                  0.000096           1
 posmap                                  0.000042           2
 crpa_reader                             0.000026           1
 rcp                                     0.000026           1
 acc_cufft_makeplans                     0.000016           3
 potlok_metagga                          0.000015         216
 rotate_active_occupied_orbital          0.000000           1
 redis_pw_over_bands                     0.000000           1
  summed up times     1969.175958871841

 Accumulative profile

 total_time                           1969.175959           1
 elmin                                1915.113799           1
 eddav                                1351.727563         219
 set_dd_paw                            445.105454         217
 hamiltmu                              276.224953      524438
 lapack                                251.332345      524438
 raccmu_                               240.743722      524438
 m_sumb_d                              207.238678     1599186
 redis_pw                              136.372475     2787753
 newband                                58.750066      532322
 set_charge                             56.526995         216
 m_alltoall_d                           51.286875     7340977
 redis_proj                             49.318521     3538312
 densta                                 48.842415         220
 fftwav_mpi                             39.158542     1962442
 fftwav                                 36.495922     1962442
 setdij_                                28.851662         243
 fft3d_mpi                              28.218889     1018220
 soft_charge                            25.405551         216
 fft3d                                  25.360707     2973137
 augmentation_charge                    25.147464         217
 eccp                                   24.917054      260172
 phaser                                 24.439811        8118
 fftbrc_mpi                             18.699517        7525
 fftbas_plan_mpi                        18.695095        7525
 orth1                                  16.775719     1573494
 kinhamil                               16.512802     1010695
 racc0mu_acc                            15.259931      524438
 w1_copy                                14.684922     3032085
 overl                                  14.561544     1761254
 rpromu_acc                             12.000260      394622
 dfftw_execute                          11.986498        5652
 fftext_mpi                             11.855167     1010695
 init_acc                               11.708892           1
 w1_projall                             11.567150      390410
 m_bcast_z                              11.438337      529190
 setup_precond                           9.411124      260172
 m_bcast_d                               8.772497     1049315
 force_and_stress                        8.337366           1
 overl_mu                                8.053504      524438
 ggemm                                   7.041658      658466
 pw_charge                               5.373338      182216
 vhamil                                  4.608213     1010695
 depsum                                  4.245852         216
 apply_precond                           4.084928      750523
 map_backward                            3.373973        7946
 m_alltoallv_z                           2.960615        8411
 map_forward                             2.932305        7104
 acc_init_cublas                         2.431287           1
 strnlr                                  2.153591           1
 rpro_isp                                2.070392         234
 potlok                                  1.892269         217
 map_scatter                             1.754673        8411
 brmix                                   1.505662         215
 map_gather                              1.505371        8411
 broyd                                   1.060110         215
 acc_init_cusolver                       0.805919           1
 fornlr                                  0.718041           1
 fordep                                  0.715152           1
 orthch                                  0.378257           1
 fft_gq                                  0.362947         216
 lincom                                  0.291663        7920
 sphpro_fast                             0.210078           2
 brget                                   0.209672       46557
 rspher_all                              0.206515          14
 proall                                  0.185683           1
 setg0                                   0.185264         217
 acc_cufft_makeplans                     0.121759           3
 acc_cufft_makeplan                      0.121743          19
 truncate_high_frequency_w1              0.099137     1270867
 brsav                                   0.056772       13225
 pothar                                  0.019372         218
 choleski                                0.014049          36
 stufak                                  0.008249           1
 brpre                                   0.005274         430
 inisym                                  0.004537           1
 strelo                                  0.001828           1
 forhar                                  0.001552           2
 strehar                                 0.001296           1
 strkin                                  0.001202           1
 set_dd_magatom                          0.000991         217
 fewald                                  0.000919           1
 vectorpot                               0.000906         216
 forloc                                  0.000851           1
 chggra                                  0.000771           1
 rsp                                     0.000468           1
 brgrid                                  0.000184           1
 posmap                                  0.000042           2
 crpa_reader                             0.000026           1
 rcp                                     0.000026           1
 potlok_metagga                          0.000015         216
 rotate_active_occupied_orbital          0.000000           1
 redis_pw_over_bands                     0.000000           1

Profiling took   6.428386  3.078193  0.003207  0.003117 seconds
Profiling took   4.075884 seconds