 vasp.6.3.2 27Jun22 (build Jul  3 2023 11:46:21) complex
 executed on    LinuxNV_CrayMPICH date 2024.04.20  23:53:30

 INCAR:
   ADDGRID = True
   ALGO = Fast
   EDIFF = 5e-05
   ENCUT = 520.0
   IBRION = -1
   ISIF = 3
   ISMEAR = -5
   ISPIN = 2
   LAECHG = True
   LASPH = True
   LCHARG = True
   LORBIT = 11
   LREAL = Auto
   LVHAR = True
   LWAVE = False
   MAGMOM = 1*7.0 3*0.6
   NELM = 1000
   NSW = 0
   PREC = Accurate
   SIGMA = 0.05

 POTCAR:    PAW_PBE Gd 23Dec2003
 POTCAR:    PAW_PBE Lu_3 06Sep2000
 POTCAR:    PAW_PBE Cd 06Sep2000
 POTCAR:    PAW_PBE Gd 23Dec2003
   VRHFIN =Gd : [core=Xe4]

   TITEL  = PAW_PBE Gd 23Dec2003
   POMASS =  157.250; ZVAL   =   18.000    mass and valenz
   ENMAX  =  256.472; ENMIN  =  192.354 eV

   TITEL  = PAW_PBE Lu_3 06Sep2000
   POMASS =  174.967; ZVAL   =    9.000    mass and valenz
   ENMAX  =  154.992; ENMIN  =  116.244 eV

   TITEL  = PAW_PBE Cd 06Sep2000
   POMASS =  112.411; ZVAL   =   12.000    mass and valenz
   ENMAX  =  274.336; ENMIN  =  205.752 eV

 Optimization of the real space projectors (new method)

 maximal supplied QI-value         = 13.42
 optimisation between [QCUT,QGAM] = [ 11.67, 23.35] = [ 38.16,152.62] Ry
 Optimized for a Real-space Cutoff    1.63 Angstroem

   l    n(q)    QCUT    max X(q) W(low)/X(q) W(high)/X(q)  e(spline)
   0     11    11.673    10.501    0.14E-04    0.17E-05    0.21E-07
   0     11    11.673     9.148    0.21E-04    0.32E-05    0.45E-07
   1     11    11.673     4.035    0.33E-05    0.11E-04    0.84E-07
   1     11    11.673     4.388    0.11E-04    0.47E-04    0.34E-06
   2     10    11.673    20.656    0.12E-04    0.28E-04    0.54E-06
   2     10    11.673    12.651    0.11E-04    0.26E-04    0.51E-06
   3     10    11.673    61.921    0.19E-03    0.22E-03    0.23E-06
   3     10    11.673    48.328    0.20E-03    0.23E-03    0.23E-06
 Optimization of the real space projectors (new method)

[...]

   l    n(q)    QCUT    max X(q) W(low)/X(q) W(high)/X(q)  e(spline)
   0     13    11.599    39.231    0.34E-04    0.22E-04    0.85E-06
   0     13    11.599    20.134    0.22E-04    0.18E-04    0.72E-06
   1     12    11.599    35.092    0.60E-05    0.20E-04    0.84E-06
   1     12    11.599    35.544    0.64E-05    0.21E-04    0.89E-06
   2     12    11.599   467.541    0.24E-03    0.14E-04    0.16E-05
   2     12    11.599   368.025    0.24E-03    0.14E-04    0.16E-05
 Optimization of the real space projectors (new method)

 maximal supplied QI-value         = 16.25
 optimisation between [QCUT,QGAM] = [ 11.54, 23.24] = [ 37.28,151.24] Ry
 Optimized for a Real-space Cutoff    1.49 Angstroem

   l    n(q)    QCUT    max X(q) W(low)/X(q) W(high)/X(q)  e(spline)
   2      9    11.539    73.106    0.18E-03    0.88E-04    0.18E-06
   2      9    11.539    71.731    0.19E-03    0.89E-04    0.19E-06
   0     10    11.539   146.509    0.42E-04    0.28E-04    0.31E-06
   0     10    11.539    95.017    0.39E-04    0.27E-04    0.30E-06
   1     10    11.539    36.165    0.52E-04    0.99E-04    0.10E-06
   1     10    11.539    31.530    0.47E-04    0.91E-04    0.92E-07
  PAW_PBE Gd 23Dec2003                  :
  PAW_PBE Lu_3 06Sep2000                :
  PAW_PBE Cd 06Sep2000                  :

 POSCAR: Gd1 Lu1 Cd2
  positions in direct lattice
 exchange correlation table for  LEXCH =        8
   RHO(1)=    0.500       N(1)  =     2000
   RHO(2)=  100.500       N(2)  =     4000

 VTST: version 4.2, (08/11/21)

 CHAIN: initializing optimizer

 OPT: Using VASP Dynamics algorithm
 CHAIN: Read ICHAIN             0

 POSCAR: Gd1 Lu1 Cd2
  positions in direct lattice

 ion  position               nearest neighbor table
   1  0.250  0.250  0.250-   3 3.22   3 3.22   3 3.22   3 3.22   4 3.22   4 3.22   4 3.22   4 3.22

   2  0.750  0.750  0.750-   4 3.22   4 3.22   4 3.22   3 3.22   4 3.22   3 3.22   3 3.22   3 3.22

   3  0.000  0.000  0.000-   2 3.22   2 3.22   2 3.22   1 3.22   2 3.22   1 3.22   1 3.22   1 3.22
                             4 3.72   4 3.72   4 3.72   4 3.72   4 3.72   4 3.72
   4  0.500  0.500  0.500-   1 3.22   1 3.22   1 3.22   1 3.22   2 3.22   2 3.22   2 3.22   2 3.22
                             3 3.72   3 3.72   3 3.72   3 3.72   3 3.72   3 3.72

  LATTYP: Found a face centered cubic cell.
 ALAT       =     7.4323540000

  Lattice vectors:

 A1 = (   0.0000000000,   3.7161770000,   3.7161770000)
 A2 = (   3.7161770000,   0.0000000000,   3.7161770000)
 A3 = (   3.7161770000,   3.7161770000,   0.0000000000)

Analysis of symmetry for initial positions (statically):
 Subroutine PRICEL returns:
 Original cell was already a primitive cell.

 Routine SETGRP: Setting up the symmetry group for a
 face centered cubic supercell.

 Subroutine GETGRP returns: Found 48 space group operations
 (whereof 24 operations were pure point group operations)
 out of a pool of 48 trial point group operations.

The static configuration has the point symmetry T_d .
 The point group associated with its full space group is O_h .

Analysis of symmetry for dynamics (positions and initial velocities):
 Subroutine PRICEL returns:
 Original cell was already a primitive cell.

[...]

The dynamic configuration has the point symmetry T_d .
 The point group associated with its full space group is O_h .

Analysis of structural, dynamic, and magnetic symmetry:
 Subroutine PRICEL returns:
 Original cell was already a primitive cell.

 Routine SETGRP: Setting up the symmetry group for a
 face centered cubic supercell.

 Subroutine GETGRP returns: Found 48 space group operations
 (whereof 24 operations were pure point group operations)
 out of a pool of 48 trial point group operations.

The overall configuration has the point symmetry T_d .
 The point group associated with its full space group is O_h .

 Subroutine INISYM returns: Found 48 space group operations
 (whereof 24 operations are pure point group operations),
 and found     1 'primitive' translations

                                     Primitive cell

  volume of cell :     102.6406

  direct lattice vectors                    reciprocal lattice vectors
     0.000000000  3.716177000  3.716177000    -0.134546874  0.134546874  0.134546874
     3.716177000  0.000000000  3.716177000     0.134546874 -0.134546874  0.134546874
     3.716177000  3.716177000  0.000000000     0.134546874  0.134546874 -0.134546874

  length of vectors
     5.255467914  5.255467914  5.255467914     0.233042022  0.233042022  0.233042022

  position of ions in fractional coordinates (direct lattice)
     0.250000000  0.250000000  0.250000000
     0.750000000  0.750000000  0.750000000
     0.000000000  0.000000000  0.000000000
     0.500000000  0.500000000  0.500000000

  ion indices of the primitive-cell ions
   primitive index   ion index
                 1           1
                 2           2
                 3           3
                 4           4

 KPOINTS: Kpoints from vasprun.xml

Automatic generation of k-mesh.
 Grid dimensions read from file:
 generate k-points for:    6    6    6

 Generating k-lattice:

  Cartesian coordinates                     Fractional coordinates (reciprocal lattice)
    -0.022424479  0.022424479  0.022424479     0.166666667 -0.000000000 -0.000000000
     0.022424479 -0.022424479  0.022424479    -0.000000000  0.166666667  0.000000000
     0.022424479  0.022424479 -0.022424479     0.000000000  0.000000000  0.166666667

  Length of vectors
     0.038840337  0.038840337  0.038840337

  Shift w.r.t. Gamma in fractional coordinates (k-lattice)
     0.500000000  0.500000000  0.500000000

 TETIRR: Found    403 inequivalent tetrahedra from     5184

 Subroutine IBZKPT returns following result:

 Found     28 irreducible k-points:

 Following reciprocal coordinates:
            Coordinates               Weight
  0.083333  0.083333  0.083333      8.000000
  0.250000  0.083333  0.083333     24.000000
  0.416667  0.083333  0.083333     24.000000
 -0.416667  0.083333  0.083333     24.000000
 -0.250000  0.083333  0.083333     24.000000
 -0.083333  0.083333  0.083333     24.000000
  0.250000  0.250000  0.083333     24.000000
  0.416667  0.250000  0.083333     48.000000
 -0.416667  0.250000  0.083333     48.000000
 -0.250000  0.250000  0.083333     48.000000
 -0.083333  0.250000  0.083333     48.000000
  0.416667  0.416667  0.083333     24.000000
 -0.416667  0.416667  0.083333     48.000000
 -0.250000  0.416667  0.083333     48.000000
 -0.083333  0.416667  0.083333     48.000000
 -0.416667 -0.416667  0.083333     24.000000
 -0.250000 -0.416667  0.083333     48.000000
 -0.250000 -0.250000  0.083333     24.000000
  0.250000  0.250000  0.250000      8.000000
  0.416667  0.250000  0.250000     24.000000
 -0.416667  0.250000  0.250000     24.000000
 -0.250000  0.250000  0.250000     24.000000
  0.416667  0.416667  0.250000     24.000000
 -0.416667  0.416667  0.250000     48.000000
 -0.250000  0.416667  0.250000     48.000000
 -0.416667 -0.416667  0.250000     24.000000
  0.416667  0.416667  0.416667      8.000000
 -0.416667  0.416667  0.416667     24.000000

 Following cartesian coordinates:
            Coordinates               Weight
  0.011212  0.011212  0.011212      8.000000
 -0.011212  0.033637  0.033637     24.000000
 -0.033637  0.056061  0.056061     24.000000
  0.078486 -0.056061 -0.056061     24.000000
  0.056061 -0.033637 -0.033637     24.000000
  0.033637 -0.011212 -0.011212     24.000000
  0.011212  0.011212  0.056061     24.000000
 -0.011212  0.033637  0.078486     48.000000
  0.100910 -0.078486 -0.033637     48.000000
  0.078486 -0.056061 -0.011212     48.000000
  0.056061 -0.033637  0.011212     48.000000
  0.011212  0.011212  0.100910     24.000000
  0.123335 -0.100910 -0.011212     48.000000
  0.100910 -0.078486  0.011212     48.000000
  0.078486 -0.056061  0.033637     48.000000
  0.011212  0.011212 -0.123335     24.000000
 -0.011212  0.033637 -0.100910     48.000000
  0.011212  0.011212 -0.078486     24.000000
  0.033637  0.033637  0.033637      8.000000
  0.011212  0.056061  0.056061     24.000000
  0.123335 -0.056061 -0.056061     24.000000
  0.100910 -0.033637 -0.033637     24.000000
  0.033637  0.033637  0.078486     24.000000
  0.145759 -0.078486 -0.033637     48.000000
  0.123335 -0.056061 -0.011212     48.000000
  0.033637  0.033637 -0.145759     24.000000
  0.056061  0.056061  0.056061      8.000000
  0.168184 -0.056061 -0.056061     24.000000

 SYSTEM =  unknown system
 POSCAR =  Gd1 Lu1 Cd2

 Startparameter for this run:
   NWRITE =      2    write-flag & timer
   PREC   = accura    normal or accurate (medium, high low for compatibility)
   ISTART =      0    job   : 0-new  1-cont  2-samecut
   ICHARG =      2    charge: 1-file 2-atom 10-const
   ISPIN  =      2    spin polarized calculation?
   LNONCOLLINEAR =      F non collinear calculations
   LSORBIT =      F    spin-orbit coupling
   INIWAV =      1    electr: 0-lowe 1-rand  2-diag
   LASPH  =      T    aspherical Exc in radial PAW
 Electronic Relaxation 1
   ENCUT  =  520.0 eV  38.22 Ry    6.18 a.u.   9.77  9.77  9.77*2*pi/ulx,y,z
   ENINI  =  520.0     initial cutoff
   ENAUG  =  537.2 eV  augmentation charge cutoff
   NELM   =   1000;   NELMIN=  2; NELMDL= -5     # of ELM steps
[...]
  382            brsav                                 0.000135                       49   5
  383        m_bcast_d                             0.000016                            2   3
  384      potlok                                0.018600                              2   2
  385        fft3d_mpi                             0.012307                           36   3
  386          fftbrc_mpi                            0.010383                         36   4
  387            fftbas_plan_mpi                       0.010367                       36   5
  388              map_forward                           0.003063                     40   6
  389                map_gather                            0.001049                   24   7
  390                m_alltoallv_z                         0.000921                   24   7
  391                map_scatter                           0.000917                   24   7
  392              map_backward                          0.002508                     32   6
  393                map_gather                            0.000790                   16   7
  394                m_alltoallv_z                         0.000762                   16   7
  395                map_scatter                           0.000788                   16   7
  396              dfftw_execute                         0.003208                     30   6
  397        m_sumb_d                              0.000024                            5   3
  398        pothar                                0.000684                            2   3
  399          m_sumb_d                              0.000047                          2   4
  400        m_bcast_d                             0.001122                            4   3
  401      potlok_metagga                        0.000000                              1   2
  402      set_dd_magatom                        0.000004                              1   2
  403      set_dd_paw                            0.924927                              1   2
  404        m_sumb_d                              0.463927                            7   3
  405      augmentation_charge                   0.070601                              1   2
  406        fft3d_mpi                             0.016438                            2   3
  407          fftbrc_mpi                            0.014619                          2   4
  408            fftbas_plan_mpi                       0.014617                        2   5
  409              dfftw_execute                         0.008964                      6   6
  410              map_backward                          0.005512                      4   6
  411                map_gather                            0.001406                    2   7
  412                m_alltoallv_z                         0.002880                    2   7
  413                map_scatter                           0.001218                    2   7
  414      densta                                2.965142                              1   2

 Flat profile

 m_sumb_d                               38.396855       30802
 set_dd_paw                             31.035332          67
 raccmu_                                14.254037       38487
 eccp                                   13.533709      177909
 init_acc                               11.340669           1
 w1_gemv                                10.885738      459270
 densta                                 10.506706          70
 i2                                      9.259272       32536
 eccp_nl                                 7.750813      143133
 total_time                              7.038358           1
 phaser                                  6.386510        4228
 setdij_                                 4.675445          93
 eddiag                                  4.088832          64
 redis_pw                                3.882464       55295
 overl1                                  3.831711      229635
 cnorma                                  3.805813      143133
 eddrmm                                  3.700043          64
 augmentation_charge                     3.579500          66
 m_alltoall_d                            2.782356      434651
 fft3d                                   2.724092      380059
 eddav                                   2.686112           5
 lapack                                  2.664778        5951
 acc_init_cublas                         2.461008           1
 fftwav                                  2.191478      226241
 w1_dscal                                2.113920      346740
 dfftw_execute                           1.996609        1980
 w1_copy                                 1.959269      364686
 soft_charge                             1.951715          65
 w1_gaxpy                                1.894256      355016
 apply_precond                           1.812669      395437
 rpromu_acc                              1.552549       39271
 hamilt_local                            1.431127       32256
 racc0mu_acc                             1.292291       38487
 setup_precond                           1.229550       34776
 w1_daxpy                                1.179570      221754
 newband                                 1.003300       42351
 hamiltmu                                0.893073       38487
 w1_dot                                  0.881587       32256
 redis_proj                              0.820933       59932
 acc_init_cusolver                       0.801105           1
 m_alltoallv_z                           0.720676        2665
 zhegv                                   0.670990       78621
 vhamil                                  0.660623      153818
 pw_charge                               0.658966       25450
 kinhamil                                0.655204      153818
 fftext_mpi                              0.621794      153818
 overl_mu                                0.586309       38487
 orthch                                  0.536815          65
 depsum                                  0.532953          65
 fft3d_mpi                               0.465701      156219
 rpro_isp                                0.421003         364
 choleski                                0.399904        3640
 orth1                                   0.386974       32301
 set_charge                              0.331391          65
 fftwav_mpi                              0.309414      226241
 map_gather                              0.301283        2665
 i3                                      0.292546       32536
 map_scatter                             0.289871        2665
 overl                                   0.227696       26074
 potlok                                  0.183051          67
 m_bcast_z                               0.173161        7967
 lincom                                  0.136570        7504
 fftbas_plan_mpi                         0.128100        2401
 acc_cufft_makeplan                      0.126335          19
 elmin                                   0.119484           1
 rspher_all                              0.106564          14
 m_bcast_d                               0.099138       12041
 broyd                                   0.093236          65
 ggemm                                   0.076682        7351
 proall                                  0.043142           1
 brmix                                   0.036950          65
 w1_projall                              0.036478       37087
 sphpro_fast                             0.035781           2
 i1                                      0.034426       32536
 setg0                                   0.030372          67
 brget                                   0.026959       10197
 map_backward                            0.012676        2526
 truncate_high_frequency_w1              0.012181      156338
 map_forward                             0.012169        2276
 force_and_stress                        0.007699           1
 strnlr                                  0.007050           1
 brsav                                   0.006819        2635
 pothar                                  0.005434          68
 inisym                                  0.004784           1
 fornlr                                  0.002424           1
 stufak                                  0.001922           1
 fft_gq                                  0.001644          65
 fftbrc_mpi                              0.001420        2401
 forhar                                  0.001288           2
 brpre                                   0.001113         130
 strelo                                  0.001091           1
 strehar                                 0.000763           1
 forloc                                  0.000690           1
 shift_bands_between_low_high            0.000427        3584
 fewald                                  0.000331           1
 set_dd_magatom                          0.000286          67
 vectorpot                               0.000278          66
 strkin                                  0.000245           1
 chggra                                  0.000215           1
 brgrid                                  0.000112           1
 rsp                                     0.000048           1
 fordep                                  0.000042           1
 posmap                                  0.000035           2
 crpa_reader                             0.000026           1
 rcp                                     0.000012           1
 acc_cufft_makeplans                     0.000011           3
 potlok_metagga                          0.000003          66
 redis_pw_over_bands                     0.000001           1
 rotate_active_occupied_orbital          0.000000           1
  summed up times     236.9149329662323

 Accumulative profile

 total_time                            236.914933           1
 elmin                                 204.262242           1
 eddrmm                                 93.831517          64
 set_dd_paw                             62.580398          67
 m_sumb_d                               38.396855       30802
 i2                                     32.812906       32536
 i3                                     25.198309       32536
 hamiltmu                               19.440278       38487
 raccmu_                                16.132637       38487
 w1_gemv                                14.717449      459270
 eccp                                   13.533709      177909
 eddav                                  13.288737           5
 cnorma                                 11.556625      143133
 init_acc                               11.340669           1
 densta                                 10.506706          70
 eddiag                                 10.083187          64
 set_charge                              9.126911          65
 eccp_nl                                 7.750813      143133
 setdij_                                 6.879157          93
 phaser                                  6.386510        4228
 newband                                 5.983788       42351
 redis_pw                                5.082142       55295
 fft3d_mpi                               4.958368      156219
 augmentation_charge                     4.746858          66
 force_and_stress                        4.547896           1
 orthch                                  4.407139          65
 fftwav_mpi                              4.195121      226241
 fftwav                                  3.885707      226241
 overl1                                  3.831711      229635
 soft_charge                             3.529555          65
 fftbrc_mpi                              3.462805        2401
 fftbas_plan_mpi                         3.461384        2401
 m_alltoall_d                            2.782356      434651
 fft3d                                   2.724092      380059
 lapack                                  2.664778        5951
 acc_init_cublas                         2.461008           1
 redis_proj                              2.403610       59932
 kinhamil                                2.353496      153818
 w1_dscal                                2.113920      346740
 hamilt_local                            2.030678       32256
 dfftw_execute                           1.996609        1980
 w1_copy                                 1.959269      364686
 w1_gaxpy                                1.894256      355016
 apply_precond                           1.812669      395437
 fftext_mpi                              1.698292      153818
 rpromu_acc                              1.552549       39271
 racc0mu_acc                             1.292291       38487
 w1_projall                              1.259587       37087
 setup_precond                           1.229550       34776
 w1_daxpy                                1.179570      221754
 strnlr                                  1.156151           1
 rpro_isp                                0.946798         364
 w1_dot                                  0.881587       32256
 acc_init_cusolver                       0.801105           1
 map_forward                             0.725569        2276
 m_alltoallv_z                           0.720676        2665
 zhegv                                   0.670990       78621
 vhamil                                  0.660623      153818
 pw_charge                               0.658966       25450
 map_backward                            0.611106        2526
 overl_mu                                0.586309       38487
 potlok                                  0.575362          67
 depsum                                  0.536736          65
 i1                                      0.534636       32536
 fordep                                  0.443874           1
 choleski                                0.399904        3640
 orth1                                   0.386974       32301
 fornlr                                  0.385038           1
 map_gather                              0.301283        2665
 map_scatter                             0.289871        2665
 overl                                   0.227696       26074
 brmix                                   0.209948          65
 m_bcast_z                               0.173161        7967
 broyd                                   0.139194          65
 lincom                                  0.136570        7504
 acc_cufft_makeplans                     0.126346           3
 acc_cufft_makeplan                      0.126335          19
 proall                                  0.115912           1
 rspher_all                              0.106564          14
 m_bcast_d                               0.099138       12041
 ggemm                                   0.076682        7351
 fft_gq                                  0.066327          65
 sphpro_fast                             0.036752           2
 setg0                                   0.030372          67
 brget                                   0.026959       10197
 truncate_high_frequency_w1              0.012181      156338
 brsav                                   0.006819        2635
 pothar                                  0.005985          68
 inisym                                  0.004819           1
 stufak                                  0.001922           1
 forhar                                  0.001302           2
 strelo                                  0.001179           1
 brpre                                   0.001113         130
 strehar                                 0.000836           1
 chggra                                  0.000740           1
 forloc                                  0.000703           1
 fewald                                  0.000447           1
 shift_bands_between_low_high            0.000427        3584
 set_dd_magatom                          0.000286          67
 vectorpot                               0.000278          66
 strkin                                  0.000256           1
 brgrid                                  0.000112           1
 rsp                                     0.000048           1
 posmap                                  0.000035           2
 crpa_reader                             0.000026           1
 rcp                                     0.000012           1
 potlok_metagga                          0.000003          66
 redis_pw_over_bands                     0.000001           1
 rotate_active_occupied_orbital          0.000000           1

Profiling took   0.638221  0.439494  0.003219  0.003123 seconds
Profiling took   0.535067 seconds