 vasp.6.3.2 27Jun22 (build Jul  3 2023 11:46:21) complex
 executed on    LinuxNV_CrayMPICH date 2024.04.19  05:33:45

 INCAR:
   ADDGRID = True
   ALGO = Normal
   EDIFF = 0.0062
   ENCUT = 520.0
   IBRION = -1
   ICHARG = 0
   ISIF = 3
   ISMEAR = -5
   ISPIN = 2
   KPOINT_BSE = -1 0 0 0
   LAECHG = True
   LASPH = True
   LCHARG = True
   LELF = True
   LORBIT = 11
   LREAL = Auto
   LVHAR = True
   LWAVE = False
   MAGMOM = 4*7.0 120*0.6
   NELM = 1000
   NSW = 0
   PREC = accurate
   SIGMA = 0.05

 POTCAR:    PAW_PBE Gd 23Dec2003
 POTCAR:    PAW_PBE H 15Jun2001
 POTCAR:    PAW_PBE C 08Apr2002
 POTCAR:    PAW_PBE Cl 06Sep2000
 POTCAR:    PAW_PBE O 08Apr2002
 POTCAR:    PAW_PBE F 08Apr2002
 POTCAR:    PAW_PBE Gd 23Dec2003
   VRHFIN =Gd : [core=Xe4]

   TITEL  = PAW_PBE Gd 23Dec2003
   POMASS =  157.250; ZVAL   =   18.000    mass and valenz
   ENMAX  =  256.472; ENMIN  =  192.354 eV

   TITEL  = PAW_PBE H 15Jun2001
   POMASS =    1.000; ZVAL   =    1.000    mass and valenz
   ENMAX  =  250.000; ENMIN  =  200.000 eV

   TITEL  = PAW_PBE C 08Apr2002
   POMASS =   12.011; ZVAL   =    4.000    mass and valenz
   ENMAX  =  400.000; ENMIN  =  300.000 eV

   TITEL  = PAW_PBE Cl 06Sep2000
   POMASS =   35.453; ZVAL   =    7.000    mass and valenz
   ENMAX  =  262.472; ENMIN  =  196.854 eV

[...]

   TITEL  = PAW_PBE F 08Apr2002
   POMASS =   18.998; ZVAL   =    7.000    mass and valenz
   ENMAX  =  400.000; ENMIN  =  300.000 eV

 Optimization of the real space projectors (new method)

 maximal supplied QI-value         = 13.42
 optimisation between [QCUT,QGAM] = [ 11.67, 23.35] = [ 38.16,152.62] Ry
 Optimized for a Real-space Cutoff    1.63 Angstroem

   l    n(q)    QCUT    max X(q) W(low)/X(q) W(high)/X(q)  e(spline)
   0     11    11.673    10.501    0.14E-04    0.17E-05    0.21E-07
   0     11    11.673     9.148    0.21E-04    0.32E-05    0.45E-07
   1     11    11.673     4.035    0.33E-05    0.11E-04    0.84E-07
   1     11    11.673     4.388    0.11E-04    0.47E-04    0.34E-06
   2     10    11.673    20.656    0.12E-04    0.28E-04    0.54E-06
   2     10    11.673    12.651    0.11E-04    0.26E-04    0.51E-06
   3     10    11.673    61.921    0.19E-03    0.22E-03    0.23E-06
   3     10    11.673    48.328    0.20E-03    0.23E-03    0.23E-06
 Optimization of the real space projectors (new method)

[...]

   l    n(q)    QCUT    max X(q) W(low)/X(q) W(high)/X(q)  e(spline)
   0      8    11.635    20.381    0.10E-03    0.33E-03    0.24E-06
   0      8    11.635    15.268    0.11E-03    0.35E-03    0.26E-06
   1      7    11.635     5.964    0.24E-03    0.31E-03    0.30E-06
   1      7    11.635     5.382    0.22E-03    0.25E-03    0.26E-06
 Optimization of the real space projectors (new method)

 maximal supplied QI-value         = 24.76
 optimisation between [QCUT,QGAM] = [ 11.64, 23.27] = [ 37.91,151.63] Ry
 Optimized for a Real-space Cutoff    1.04 Angstroem

   l    n(q)    QCUT    max X(q) W(low)/X(q) W(high)/X(q)  e(spline)
   0      7    11.635    14.049    0.77E-04    0.36E-03    0.13E-06
   0      7    11.635     8.945    0.12E-03    0.48E-03    0.17E-06
   1      7    11.635     7.086    0.24E-03    0.44E-03    0.21E-06
   1      7    11.635     6.747    0.23E-03    0.35E-03    0.19E-06
  PAW_PBE Gd 23Dec2003                  :
  PAW_PBE H 15Jun2001                   :
  PAW_PBE C 08Apr2002                   :
  PAW_PBE Cl 06Sep2000                  :
  PAW_PBE O 08Apr2002                   :
  PAW_PBE F 08Apr2002                   :

 POSCAR: Gd4 H24 C24 Cl12 O36 F24
  positions in direct lattice
 exchange correlation table for  LEXCH =        8
   RHO(1)=    0.500       N(1)  =     2000
   RHO(2)=  100.500       N(2)  =     4000

 VTST: version 4.2, (08/11/21)

 CHAIN: initializing optimizer

 OPT: Using VASP Dynamics algorithm
 CHAIN: Read ICHAIN             0

 POSCAR: Gd4 H24 C24 Cl12 O36 F24
  positions in direct lattice

 ion  position               nearest neighbor table
   1  0.428  0.701  0.474-  71 2.34  85 2.37  73 2.39  99 2.40  87 2.41  92 2.41  98 2.46  76 2.49

   2  0.072  0.701  0.974-  67 2.34  80 2.37  66 2.39  88 2.40  65 2.41  70 2.41  90 2.46  96 2.49

[...]

   5  0.513  0.001  0.364-  98 0.97
   6  0.215  0.559  0.006-  88 0.97
   7  0.943  0.958  0.218-  68 0.97
   8  0.285  0.682  0.576-  99 1.00
   9  0.113  0.872  0.663-  96 0.97
  10  0.887  0.128  0.337-  94 0.97
  11  0.285  0.559  0.506-  99 0.97
  12  0.316  0.828  0.236-  76 0.99
  13  0.785  0.441  0.994-  77 0.97
  14  0.816  0.172  0.264-  94 0.99
  15  0.215  0.682  0.076-  88 1.00
  16  0.785  0.318  0.924-  77 1.00
  17  0.057  0.042  0.782-  90 0.97
  18  0.487  0.999  0.636-  75 0.97
  19  0.715  0.441  0.494-  69 0.97
  20  0.987  0.001  0.864-  90 0.97
  21  0.443  0.042  0.282-  98 0.97
  22  0.684  0.172  0.764-  83 0.99
  23  0.184  0.828  0.736-  96 0.99
  24  0.013  0.999  0.136-  68 0.97
  25  0.715  0.318  0.424-  69 1.00
  26  0.557  0.958  0.718-  75 0.97
  27  0.613  0.128  0.837-  83 0.97
  28  0.387  0.872  0.163-  76 0.97
  29  0.461  0.358  0.757-  91 1.26  85 1.26  51 1.56
  30  0.670  0.160  0.330-  84 1.26  97 1.26  38 1.56
  31  0.349  0.332  0.346- 110 1.36 108 1.37  35 1.56  53 1.78
  32  0.061  0.275  0.415- 122 1.37 101 1.37  40 1.56  60 1.77
  33  0.561  0.725  0.085- 103 1.37 123 1.37  42 1.56  58 1.77
  34  0.939  0.725  0.585- 109 1.37 116 1.37  48 1.56  57 1.77
  35  0.415  0.365  0.411- 100 1.25  71 1.26  31 1.56
  36  0.585  0.635  0.589-  87 1.25  95 1.26  39 1.56
  37  0.915  0.635  0.089-  65 1.25  89 1.26  41 1.56
  38  0.664  0.061  0.245- 115 1.36 124 1.37  30 1.56  62 1.78
  39  0.651  0.668  0.654- 114 1.36 102 1.37  36 1.56  61 1.78
  40  0.039  0.358  0.257-  78 1.26  80 1.26  32 1.56
  41  0.849  0.668  0.154- 121 1.36 105 1.37  37 1.56  59 1.78
  42  0.539  0.642  0.243-  73 1.26  81 1.26  33 1.56
  43  0.336  0.939  0.755- 120 1.36 111 1.37  47 1.56  63 1.78
  44  0.170  0.840  0.170-  82 1.26  70 1.26  52 1.56
  45  0.836  0.061  0.745- 112 1.36 113 1.37  50 1.56  54 1.78
  46  0.085  0.365  0.911-  93 1.25  67 1.26  49 1.56
  47  0.330  0.840  0.670-  79 1.26  92 1.26  43 1.56
  48  0.961  0.642  0.743-  66 1.26  72 1.26  34 1.56
  49  0.151  0.332  0.846- 117 1.36 119 1.37  46 1.56  56 1.78
  50  0.830  0.160  0.830-  86 1.26  74 1.26  45 1.56
  51  0.439  0.275  0.915- 107 1.37 118 1.37  29 1.56  55 1.77
  52  0.164  0.939  0.255- 106 1.36 104 1.37  44 1.56  64 1.78
  53  0.345  0.458  0.165-  31 1.78
  54  0.858  0.183  0.568-  45 1.78
  55  0.350  0.260  0.931-  51 1.77
  56  0.155  0.458  0.665-  49 1.78
  57  0.850  0.740  0.569-  34 1.77
  58  0.650  0.740  0.069-  33 1.77
  59  0.845  0.542  0.335-  41 1.78
  60  0.150  0.260  0.431-  32 1.77
  61  0.655  0.542  0.835-  39 1.78
  62  0.642  0.183  0.068-  38 1.78
  63  0.358  0.817  0.932-  43 1.78
  64  0.142  0.817  0.432-  52 1.78
[...]
 110  0.346  0.186  0.359-  31 1.36
 111  0.385  0.048  0.702-  43 1.37
 112  0.777  0.987  0.746-  45 1.36
 113  0.885  0.952  0.798-  45 1.37
 114  0.654  0.814  0.641-  39 1.36
 115  0.723  0.987  0.246-  38 1.36
 116  0.964  0.646  0.513-  34 1.37
 117  0.154  0.186  0.859-  49 1.36
 118  0.464  0.354  0.987-  51 1.37
 119  0.207  0.354  0.913-  49 1.37
 120  0.277  0.013  0.754-  43 1.36
 121  0.846  0.814  0.141-  41 1.36
 122  0.034  0.132  0.477-  32 1.37
 123  0.536  0.646  0.013-  33 1.37
 124  0.615  0.952  0.298-  38 1.37

  LATTYP: Found a simple monoclinic cell.
 ALAT       =     9.6657170000
 B/A-ratio  =     2.0359181838
 C/A-ratio  =     1.0856092350
 COS(beta)  =    -0.4163604507

  Lattice vectors:

 A1 = (   0.0000000000,   9.6657170000,   0.0000000000)
 A2 = (  19.6786090000,   0.0000000000,   0.0000000000)
 A3 = (   0.0000000000,  -4.3689500000,  -9.5404060000)

Analysis of symmetry for initial positions (statically):
 Subroutine PRICEL returns:
 Original cell was already a primitive cell.

 Routine SETGRP: Setting up the symmetry group for a
 simple monoclinic supercell.

 Subroutine GETGRP returns: Found  4 space group operations
 (whereof  2 operations were pure point group operations)
 out of a pool of  4 trial point group operations.

The static configuration has the point symmetry S_2 .
 The point group associated with its full space group is C_2h.

Analysis of symmetry for dynamics (positions and initial velocities):
 Subroutine PRICEL returns:
 Original cell was already a primitive cell.

[...]

The dynamic configuration has the point symmetry S_2 .
 The point group associated with its full space group is C_2h.

Analysis of structural, dynamic, and magnetic symmetry:
 Subroutine PRICEL returns:
 Original cell was already a primitive cell.

 Routine SETGRP: Setting up the symmetry group for a
 simple monoclinic supercell.

 Subroutine GETGRP returns: Found  4 space group operations
 (whereof  2 operations were pure point group operations)
 out of a pool of  4 trial point group operations.

The overall configuration has the point symmetry S_2 .
 The point group associated with its full space group is C_2h.

 Subroutine INISYM returns: Found  4 space group operations
 (whereof  2 operations are pure point group operations),
 and found     1 'primitive' translations

                                     Primitive cell

  volume of cell :    1814.6603

  direct lattice vectors                    reciprocal lattice vectors
    19.678609000  0.000000000  0.000000000     0.050816600  0.000000000  0.000000000
     0.000000000  9.665717000  0.000000000     0.000000000  0.103458440 -0.047377937
     0.000000000  4.368950000  9.540406000     0.000000000  0.000000000  0.104817342

  length of vectors
    19.678609000  9.665717000 10.493191638     0.050816600  0.113790675  0.104817342

  position of ions in fractional coordinates (direct lattice)
     0.428066000  0.700513000  0.474149000
     0.071934000  0.700513000  0.974149000
     0.571934000  0.299487000  0.525851000
     0.928066000  0.299487000  0.025851000
     0.512647000  0.000873000  0.364018000
     0.214917000  0.559083000  0.006457000
     0.943151000  0.957778000  0.217753000
     0.284840000  0.682209000  0.575639000
     0.112649000  0.871969000  0.663344000
     0.887351000  0.128031000  0.336656000
     0.285083000  0.559083000  0.506457000
     0.315784000  0.827557000  0.236247000
     0.785083000  0.440917000  0.993543000
     0.815784000  0.172443000  0.263753000
     0.215160000  0.682209000  0.075639000
     0.784840000  0.317791000  0.924361000
     0.056849000  0.042222000  0.782247000
     0.487353000  0.999127000  0.635982000
     0.714917000  0.440917000  0.493543000
     0.987353000  0.000873000  0.864018000
     0.443151000  0.042222000  0.282247000
     0.684216000  0.172443000  0.763753000
     0.184216000  0.827557000  0.736247000
     0.012647000  0.999127000  0.135982000
     0.715160000  0.317791000  0.424361000
     0.556849000  0.957778000  0.717753000
     0.612649000  0.128031000  0.836656000
     0.387351000  0.871969000  0.163344000
     0.460882000  0.358043000  0.757299000
     0.670376000  0.159730000  0.329922000
     0.349272000  0.331594000  0.345733000
     0.060651000  0.275209000  0.414636000
[...]
  318                map_forward                           0.000568                    4   7
  319                  map_gather                            0.000091                  2   8
  320                  m_alltoallv_z                         0.000030                  2   8
  321                  map_scatter                           0.000397                  2   8
  322                map_backward                          0.000236                    2   7
  323                  map_gather                            0.000048                  1   8
  324                  m_alltoallv_z                         0.000013                  1   8
  325                  map_scatter                           0.000149                  1   8
  326          m_sumb_d                              0.000009                          2   4
  327          pothar                                0.000117                          1   4
  328            m_sumb_d                              0.000007                        1   5
  329        brmix                                 0.047190                            1   3
  330          m_sumb_d                              0.000099                          6   4
  331          brpre                                 0.000141                          2   4
  332          setg0                                 0.006174                          1   4
  333          broyd                                 0.033447                          1   4
  334            m_sumb_d                              0.000809                       50   5
  335            brget                                 0.006814                      224   5
  336            brsav                                 0.001429                       48   5
  337        m_bcast_d                             0.000086                            2   3
  338      potlok                                0.229411                              2   2
  339        fft3d_mpi                             0.124289                           36   3
  340          fftbrc_mpi                            0.104134                         36   4
  341            fftbas_plan_mpi                       0.104106                       36   5
  342              map_forward                           0.029133                     40   6
  343                map_gather                            0.007375                   24   7
  344                m_alltoallv_z                         0.012070                   24   7
  345                map_scatter                           0.009363                   24   7
  346              map_backward                          0.022884                     32   6
  347                map_gather                            0.005183                   16   7
  348                m_alltoallv_z                         0.009912                   16   7
  349                map_scatter                           0.007453                   16   7
  350              dfftw_execute                         0.049903                     30   6
  351        m_sumb_d                              0.000031                            5   3
  352        pothar                                0.008878                            2   3
  353          m_sumb_d                              0.000130                          2   4
  354        m_bcast_d                             0.012882                            4   3
  355      potlok_metagga                        0.000000                              1   2
  356      set_dd_magatom                        0.000005                              1   2
  357      set_dd_paw                            7.459287                              1   2
  358        m_sumb_d                              0.011970                            7   3
  359      augmentation_charge                   0.572362                              1   2
  360        fft3d_mpi                             0.386826                            2   3
  361          fftbrc_mpi                            0.336615                          2   4
  362            fftbas_plan_mpi                       0.336612                        2   5
  363              dfftw_execute                         0.218181                      6   6
  364              map_backward                          0.118122                      4   6
  365                map_gather                            0.042899                    2   7
  366                m_alltoallv_z                         0.022951                    2   7
  367                map_scatter                           0.052258                    2   7
  368      fftwav_mpi                           15.748657                           2688   2
  369        fftwav                               15.741429                         2688   3
  370          fft3d                                14.567579                       2688   4
  371      densta                               10.174172                              1   2

 Flat profile

 set_dd_paw                           1085.583660         146
 eddav                                 179.905221         148
 raccmu_                               136.823654      254608
 lapack                                119.505828      254608
 m_sumb_d                               82.265696      778182
 dfftw_execute                          75.408284        3948
 redis_pw                               71.581497     1397424
 total_time                             51.134120           1
 setdij_                                29.362869         172
 fft3d                                  29.258149     1505220
 m_alltoall_d                           28.364448     3701600
 augmentation_charge                    26.755362         146
 eccp                                   21.715332      132608
 hamiltmu                               18.957704      254608
 fft3d_mpi                              16.607588      514327
 phaser                                 16.076419        1236
 orth1                                  15.974734      763936
 map_scatter                            15.708827        5713
 densta                                 14.428120         149
 map_gather                             13.526369        5713
 redis_proj                             11.901586     1774040
 init_acc                               11.623370           1
 fftwav                                 11.578319      996004
 m_alltoallv_z                           9.852073        5713
 set_charge                              7.933847         145
 racc0mu_acc                             7.571213      254608
 overl                                   7.432898      885832
 w1_copy                                 7.387990     1527648
 m_bcast_z                               7.086051      258192
 rpromu_acc                              6.629956      191216
 pw_charge                               6.060901       95844
 soft_charge                             5.486916         145
 ggemm                                   4.903388      320912
 setup_precond                           4.874187      132608
 m_bcast_d                               4.299707      509513
 overl_mu                                4.067140      254608
 acc_init_cublas                         3.438158           1
 broyd                                   2.888170         144
 potlok                                  2.472941         146
 vhamil                                  2.387347      509216
 kinhamil                                2.299343      509216
 depsum                                  2.216238         145
 fftext_mpi                              2.167296      509216
 newband                                 2.066789      255792
 apply_precond                           2.053619      376608
 fftwav_mpi                              1.349676      996004
 brmix                                   1.159707         144
 acc_init_cusolver                       1.076701           1
 brget                                   0.895571       29360
 setg0                                   0.886886         146
 rpro_isp                                0.783929          52
 sphpro_fast                             0.728179           2
 elmin                                   0.632644           1
 rspher_all                              0.617264          14
 fftbas_plan_mpi                         0.317884        5111
 stufak                                  0.309437           1
 acc_cufft_makeplan                      0.258299          19
 brsav                                   0.245480        8234
 w1_projall                              0.187324      188304
 proall                                  0.171671           1
 orthch                                  0.113081           1
 lincom                                  0.086510        1192
 force_and_stress                        0.077562           1
 fft_gq                                  0.070808         145
 map_backward                            0.052170        5390
 truncate_high_frequency_w1              0.048847      641824
 map_forward                             0.046893        4832
 pothar                                  0.028124         147
 choleski                                0.026532           8
 brpre                                   0.021824         288
 rsp                                     0.018295           1
 forhar                                  0.017590           2
 forloc                                  0.009676           1
 strelo                                  0.009174           1
 strehar                                 0.008069           1
 strnlr                                  0.007311           1
 strkin                                  0.005506           1
 inisym                                  0.004898           1
 fftbrc_mpi                              0.003664        5111
 fornlr                                  0.002449           1
 brgrid                                  0.000947           1
 set_dd_magatom                          0.000707         146
 vectorpot                               0.000620         145
 chggra                                  0.000430           1
 fewald                                  0.000415           1
 rcp                                     0.000318           1
 fordep                                  0.000300           1
 posmap                                  0.000149           2
 crpa_reader                             0.000031           1
 acc_cufft_makeplans                     0.000013           3
 potlok_metagga                          0.000008         145
 rotate_active_occupied_orbital          0.000000           1
 redis_pw_over_bands                     0.000000           1
  summed up times     2199.906891822815

 Accumulative profile

 total_time                           2199.906892           1
 elmin                                2059.757799           1
 set_dd_paw                           1086.081264         146
 eddav                                 778.233443         148
 hamiltmu                              178.080330      254608
 raccmu_                               148.462007      254608
 fft3d_mpi                             135.180101      514327
 lapack                                119.505828      254608
 set_charge                            117.699090         145
 fftbrc_mpi                            114.916164        5111
 fftbas_plan_mpi                       114.912500        5111
 setdij_                                99.434455         172
 redis_pw                               86.747244     1397424
 augmentation_charge                    83.639806         146
 m_sumb_d                               82.265696      778182
 dfftw_execute                          75.408284        3948
 newband                                39.847884      255792
 fftwav_mpi                             38.529795      996004
 fftwav                                 37.180119      996004
 fft3d                                  29.258149     1505220
 m_alltoall_d                           28.364448     3701600
 force_and_stress                       26.827303           1
 redis_proj                             25.100287     1774040
 soft_charge                            22.923676         145
 eccp                                   21.715332      132608
 map_backward                           20.909063        5390
 map_forward                            18.277268        4832
 phaser                                 16.076419        1236
 orth1                                  15.974734      763936
 map_scatter                            15.708827        5713
 densta                                 14.428120         149
 map_gather                             13.526369        5713
 init_acc                               11.623370           1
 m_alltoallv_z                           9.852073        5713
 kinhamil                                8.273273      509216
 racc0mu_acc                             7.571213      254608
 overl                                   7.432898      885832
 w1_copy                                 7.387990     1527648
 m_bcast_z                               7.086051      258192
 rpromu_acc                              6.629956      191216
 brmix                                   6.172466         144
 pw_charge                               6.060901       95844
 fftext_mpi                              5.973930      509216
 w1_projall                              5.710304      188304
 ggemm                                   4.903388      320912
 setup_precond                           4.874187      132608
 m_bcast_d                               4.299707      509513
 potlok                                  4.115497         146
 broyd                                   4.091453         144
 overl_mu                                4.067140      254608
 fordep                                  3.444273           1
 acc_init_cublas                         3.438158           1
 strnlr                                  2.590653           1
 depsum                                  2.428829         145
 vhamil                                  2.387347      509216
 rpro_isp                                2.340799          52
 apply_precond                           2.053619      376608
 fft_gq                                  1.749953         145
 acc_init_cusolver                       1.076701           1
 brget                                   0.895571       29360
 setg0                                   0.886886         146
 fornlr                                  0.864792           1
 sphpro_fast                             0.764923           2
 rspher_all                              0.617264          14
 orthch                                  0.499965           1
 proall                                  0.330505           1
 stufak                                  0.309437           1
 acc_cufft_makeplans                     0.258312           3
 acc_cufft_makeplan                      0.258299          19
 brsav                                   0.245480        8234
 lincom                                  0.086510        1192
 truncate_high_frequency_w1              0.048847      641824
 pothar                                  0.030887         147
 choleski                                0.026532           8
 brpre                                   0.021824         288
 fewald                                  0.019579           1
 rsp                                     0.018295           1
 forhar                                  0.017697           2
 forloc                                  0.009745           1
 strelo                                  0.009392           1
 strehar                                 0.008076           1
 strkin                                  0.005567           1
 inisym                                  0.005047           1
 chggra                                  0.001638           1
 brgrid                                  0.000947           1
 set_dd_magatom                          0.000707         146
 vectorpot                               0.000620         145
 rcp                                     0.000318           1
 posmap                                  0.000149           2
 crpa_reader                             0.000031           1
 potlok_metagga                          0.000008         145
 rotate_active_occupied_orbital          0.000000           1
 redis_pw_over_bands                     0.000000           1

Profiling took   3.154462  1.556942  0.003469  0.003345 seconds
Profiling took   2.028858 seconds