 vasp.6.3.2 27Jun22 (build Jul  3 2023 11:46:21) complex
 executed on    LinuxNV_CrayMPICH date 2024.04.22  03:28:49

 INCAR:
   ADDGRID = True
   ALGO = Fast
   EDIFF = 0.0001
   ENCUT = 520.0
   IBRION = -1
   ISIF = 3
   ISMEAR = -5
   ISPIN = 2
   LAECHG = True
   LASPH = True
   LCHARG = True
   LORBIT = 11
   LREAL = Auto
   LVHAR = True
   LWAVE = False
   MAGMOM = 4*0.6 1*7.0 5*0.6
   NELM = 1000
   NSW = 0
   PREC = Accurate
   SIGMA = 0.05

 POTCAR:    PAW_PBE Sm_3 07Sep2000
 POTCAR:    PAW_PBE Gd 23Dec2003
 POTCAR:    PAW_PBE S 06Sep2000
 POTCAR:    PAW_PBE Sm_3 07Sep2000
   VRHFIN =Sm : [core=Xe4]

   TITEL  = PAW_PBE Sm_3 07Sep2000
   POMASS =  150.360; ZVAL   =   11.000    mass and valenz
   ENMAX  =  177.087; ENMIN  =  132.815 eV

   TITEL  = PAW_PBE Gd 23Dec2003
   POMASS =  157.250; ZVAL   =   18.000    mass and valenz
   ENMAX  =  256.472; ENMIN  =  192.354 eV

   TITEL  = PAW_PBE S 06Sep2000
   POMASS =   32.066; ZVAL   =    6.000    mass and valenz
   ENMAX  =  258.689; ENMIN  =  194.016 eV

 Optimization of the real space projectors (new method)

 maximal supplied QI-value         = 13.23
 optimisation between [QCUT,QGAM] = [ 11.64, 23.28] = [ 37.95,151.78] Ry
 Optimized for a Real-space Cutoff    1.73 Angstroem

   l    n(q)    QCUT    max X(q) W(low)/X(q) W(high)/X(q)  e(spline)
   0     12    11.641     6.970    0.78E-05    0.65E-05    0.89E-07
   0     12    11.641    24.042    0.34E-04    0.17E-04    0.22E-06
   1     12    11.641     4.424    0.60E-05    0.14E-05    0.11E-06
   1     12    11.641     4.788    0.21E-04    0.27E-04    0.77E-06
   2     11    11.641    33.680    0.13E-03    0.27E-03    0.15E-05
   2     11    11.641    27.971    0.12E-03    0.25E-03    0.14E-05
 Optimization of the real space projectors (new method)

[...]

   l    n(q)    QCUT    max X(q) W(low)/X(q) W(high)/X(q)  e(spline)
   0     11    11.673    10.501    0.14E-04    0.17E-05    0.21E-07
   0     11    11.673     9.148    0.21E-04    0.32E-05    0.45E-07
   1     11    11.673     4.035    0.33E-05    0.11E-04    0.84E-07
   1     11    11.673     4.388    0.11E-04    0.47E-04    0.34E-06
   2     10    11.673    20.656    0.12E-04    0.28E-04    0.54E-06
   2     10    11.673    12.651    0.11E-04    0.26E-04    0.51E-06
   3     10    11.673    61.921    0.19E-03    0.22E-03    0.23E-06
   3     10    11.673    48.328    0.20E-03    0.23E-03    0.23E-06
 Optimization of the real space projectors (new method)

 maximal supplied QI-value         = 19.84
 optimisation between [QCUT,QGAM] = [ 11.51, 23.22] = [ 37.09,150.92] Ry
 Optimized for a Real-space Cutoff    1.21 Angstroem

   l    n(q)    QCUT    max X(q) W(low)/X(q) W(high)/X(q)  e(spline)
   0      8    11.508   187.594    0.96E-04    0.18E-03    0.54E-07
   0      8    11.508   164.243    0.96E-04    0.18E-03    0.54E-07
   1      8    11.508    67.533    0.18E-03    0.65E-04    0.94E-07
   1      8    11.508    50.729    0.18E-03    0.63E-04    0.92E-07
  PAW_PBE Sm_3 07Sep2000                :
  PAW_PBE Gd 23Dec2003                  :
  PAW_PBE S 06Sep2000                   :

 POSCAR: Sm4 Gd1 S5
  positions in direct lattice
 exchange correlation table for  LEXCH =        8
   RHO(1)=    0.500       N(1)  =     2000
   RHO(2)=  100.500       N(2)  =     4000

 VTST: version 4.2, (08/11/21)

 CHAIN: initializing optimizer

 OPT: Using VASP Dynamics algorithm
 CHAIN: Read ICHAIN             0

 POSCAR: Sm4 Gd1 S5
  positions in direct lattice

 ion  position               nearest neighbor table
   1  0.601  0.601  0.000-  10 2.87  10 2.87   7 2.91   7 2.91   9 2.93   9 2.93
   2  0.200  0.200  0.000-   7 2.87   7 2.87   8 2.92   8 2.92  10 2.96  10 2.96
   3  0.800  0.800  0.000-   8 2.87   8 2.87   7 2.92   7 2.92   6 2.96   6 2.96
   4  0.399  0.399  0.000-   6 2.87   6 2.87   8 2.91   8 2.91   9 2.93   9 2.93
   5  0.000  0.000  0.000-   9 2.87   9 2.87  10 2.88  10 2.88   6 2.88   6 2.88
   6  0.903  0.403  0.500-   4 2.87   4 2.87   5 2.88   5 2.88   3 2.96   3 2.96
   7  0.700  0.200  0.500-   2 2.87   2 2.87   1 2.91   1 2.91   3 2.92   3 2.92
   8  0.300  0.800  0.500-   3 2.87   3 2.87   4 2.91   4 2.91   2 2.92   2 2.92
   9  0.500  0.000  0.500-   5 2.87   5 2.87   1 2.93   1 2.93   4 2.93   4 2.93
  10  0.097  0.597  0.500-   1 2.87   1 2.87   5 2.88   5 2.88   2 2.96   2 2.96

  LATTYP: Found a body centered orthorhombic cell.
 ALAT       =     4.1612740000
 B/A-ratio  =     1.3806877413
 C/A-ratio  =     4.9251532103

  Lattice vectors:

 A1 = (  -2.0806370000,   2.8727100000,  10.2474560000)
 A2 = (   2.0806370000,  -2.8727100000,  10.2474560000)
 A3 = (   2.0806370000,   2.8727100000, -10.2474560000)

Analysis of symmetry for initial positions (statically):
 Subroutine PRICEL returns:
 Original cell was already a primitive cell.

 Routine SETGRP: Setting up the symmetry group for a
 body centered orthorhombic supercell.

 Subroutine GETGRP returns: Found  8 space group operations
 (whereof  8 operations were pure point group operations)
 out of a pool of  8 trial point group operations.

The static configuration has the point symmetry D_2h.

Analysis of symmetry for dynamics (positions and initial velocities):
 Subroutine PRICEL returns:
 Original cell was already a primitive cell.

[...]

The dynamic configuration has the point symmetry D_2h.

Analysis of structural, dynamic, and magnetic symmetry:
 Subroutine PRICEL returns:
 Original cell was already a primitive cell.

 Routine SETGRP: Setting up the symmetry group for a
 body centered orthorhombic supercell.

 Subroutine GETGRP returns: Found  8 space group operations
 (whereof  8 operations were pure point group operations)
 out of a pool of  8 trial point group operations.

The overall configuration has the point symmetry D_2h.

 Subroutine INISYM returns: Found  8 space group operations
 (whereof  8 operations are pure point group operations),
 and found     1 'primitive' translations

                                     Primitive cell

  volume of cell :     244.9989

  direct lattice vectors                    reciprocal lattice vectors
    -2.080637000  2.872710000 10.247456000    -0.000000000  0.174051679  0.048792598
     2.080637000 -2.872710000 10.247456000     0.240311020  0.000000000  0.048792598
     2.080637000  2.872710000-10.247456000     0.240311020  0.174051679  0.000000000

  length of vectors
    10.843978400 10.843978400 10.843978400     0.180761458  0.245214404  0.296721037

  position of ions in fractional coordinates (direct lattice)
     0.600585000  0.600585000  0.000000000
     0.199707000  0.199707000  0.000000000
     0.800293000  0.800293000  0.000000000
     0.399415000  0.399415000  0.000000000
     0.000000000  0.000000000  0.000000000
     0.902836000  0.402836000  0.500000000
     0.700050000  0.200050000  0.500000000
     0.299950000  0.799950000  0.500000000
     0.500000000  0.000000000  0.500000000
     0.097164000  0.597164000  0.500000000

  ion indices of the primitive-cell ions
   primitive index   ion index
                 1           1
                 2           2
                 3           3
                 4           4
                 5           5
                 6           6
                 7           7
                 8           8
                 9           9
                10          10

 KPOINTS: Kpoints from vasprun.xml

Automatic generation of k-mesh.
 Grid dimensions read from file:
 generate k-points for:    4    4    4

 Generating k-lattice:

  Cartesian coordinates                     Fractional coordinates (reciprocal lattice)
    -0.000000000  0.043512920  0.012198149     0.250000000  0.000000000 -0.000000000
     0.060077755  0.000000000  0.012198149     0.000000000  0.250000000 -0.000000000
     0.060077755  0.043512920  0.000000000     0.000000000 -0.000000000  0.250000000

  Length of vectors
     0.045190365  0.061303601  0.074180259

  Shift w.r.t. Gamma in fractional coordinates (k-lattice)
     0.500000000  0.500000000  0.500000000

 TETIRR: Found    155 inequivalent tetrahedra from      384

 Subroutine IBZKPT returns following result:

 Found     17 irreducible k-points:

 Following reciprocal coordinates:
            Coordinates               Weight
  0.125000  0.125000  0.125000      8.000000
  0.375000  0.125000  0.125000      4.000000
 -0.125000  0.125000  0.125000      2.000000
  0.125000  0.375000  0.125000      4.000000
  0.375000  0.375000  0.125000      4.000000
 -0.375000  0.375000  0.125000      4.000000
 -0.125000  0.375000  0.125000      4.000000
  0.375000 -0.375000  0.125000      4.000000
 -0.375000 -0.375000  0.125000      8.000000
 -0.125000 -0.375000  0.125000      4.000000
  0.125000 -0.125000  0.125000      2.000000
  0.375000 -0.125000  0.125000      4.000000
 -0.375000 -0.125000  0.125000      4.000000
 -0.125000 -0.125000  0.125000      2.000000
 -0.375000  0.375000  0.375000      2.000000
  0.375000 -0.375000  0.375000      2.000000
 -0.375000 -0.375000  0.375000      2.000000

 Following cartesian coordinates:
            Coordinates               Weight
  0.060078  0.043513  0.012198      8.000000
  0.060078  0.087026  0.024396      4.000000
  0.060078  0.000000  0.000000      2.000000
  0.120156  0.043513  0.024396      4.000000
  0.120156  0.087026  0.036594      4.000000
  0.120156 -0.043513  0.000000      4.000000
  0.120156  0.000000  0.012198      4.000000
 -0.060078  0.087026  0.000000      4.000000
 -0.060078 -0.043513 -0.036594      8.000000
 -0.060078  0.000000 -0.024396      4.000000
  0.000000  0.043513  0.000000      2.000000
  0.000000  0.087026  0.012198      4.000000
  0.000000 -0.043513 -0.024396      4.000000
  0.000000  0.000000 -0.012198      2.000000
  0.180233  0.000000  0.000000      2.000000
  0.000000  0.130539  0.000000      2.000000
  0.000000  0.000000 -0.036594      2.000000

 SYSTEM =  unknown system
 POSCAR =  Sm4 Gd1 S5

 Startparameter for this run:
   NWRITE =      2    write-flag & timer
   PREC   = accura    normal or accurate (medium, high low for compatibility)
   ISTART =      0    job   : 0-new  1-cont  2-samecut
   ICHARG =      2    charge: 1-file 2-atom 10-const
   ISPIN  =      2    spin polarized calculation?
   LNONCOLLINEAR =      F non collinear calculations
   LSORBIT =      F    spin-orbit coupling
   INIWAV =      1    electr: 0-lowe 1-rand  2-diag
   LASPH  =      T    aspherical Exc in radial PAW
 Electronic Relaxation 1
   ENCUT  =  520.0 eV  38.22 Ry    6.18 a.u.  20.16 20.16 20.16*2*pi/ulx,y,z
   ENINI  =  520.0     initial cutoff
   ENAUG  =  537.2 eV  augmentation charge cutoff
   NELM   =   1000;   NELMIN=  2; NELMDL= -5     # of ELM steps
   EDIFF  = 0.1E-03   stopping-criterion for ELM
   LREAL  =      T    real-space projection
   NLSPLINE    = F    spline interpolate recip. space projectors
   LCOMPAT=      F    compatible to vasp.4.4
   GGA_COMPAT  = T    GGA compatible to vasp.4.4-vasp.4.6
   LMAXPAW     = -100 max onsite density
   LMAXMIX     =    2 max onsite mixed and CHGCAR
   VOSKOWN=      0    Vosko Wilk Nusair interpolation
   ROPT   =   -0.00025  -0.00025  -0.00025
 Ionic relaxation
   EDIFFG = 0.1E-02   stopping-criterion for IOM
[...]
  382            brsav                                 0.001015                       49   5
  383        m_bcast_d                             0.000030                            2   3
  384      potlok                                0.124726                              2   2
  385        fft3d_mpi                             0.085767                           36   3
  386          fftbrc_mpi                            0.072550                         36   4
  387            fftbas_plan_mpi                       0.072526                       36   5
  388              map_forward                           0.019695                     40   6
  389                map_gather                            0.004982                   24   7
  390                m_alltoallv_z                         0.008508                   24   7
  391                map_scatter                           0.005876                   24   7
  392              map_backward                          0.016645                     32   6
  393                map_gather                            0.003803                   16   7
  394                m_alltoallv_z                         0.007505                   16   7
  395                map_scatter                           0.004947                   16   7
  396              dfftw_execute                         0.034315                     30   6
  397        m_sumb_d                              0.000028                            5   3
  398        pothar                                0.006441                            2   3
  399          m_sumb_d                              0.000102                          2   4
  400        m_bcast_d                             0.009707                            4   3
  401      potlok_metagga                        0.000000                              1   2
  402      set_dd_magatom                        0.000004                              1   2
  403      set_dd_paw                            1.630723                              1   2
  404        m_sumb_d                              0.928774                            7   3
  405      augmentation_charge                   0.721518                              1   2
  406        fft3d_mpi                             0.275692                            2   3
  407          fftbrc_mpi                            0.242001                          2   4
  408            fftbas_plan_mpi                       0.241999                        2   5
  409              dfftw_execute                         0.157790                      6   6
  410              map_backward                          0.083916                      4   6
  411                map_gather                            0.029340                    2   7
  412                m_alltoallv_z                         0.020061                    2   7
  413                map_scatter                           0.034502                    2   7
  414      densta                                1.303164                              1   2

 Flat profile

 raccmu_                               332.353155      154896
 m_sumb_d                              307.696344       62257
 set_dd_paw                            217.159063         307
 phaser                                166.085542       10727
 setdij_                               144.885788         333
 augmentation_charge                   136.361939         306
 dfftw_execute                         107.663194        7740
 eccp                                   91.630930      883857
 i2                                     57.058326      149808
 w1_gemv                                55.636404     2269774
 eddrmm                                 51.983223         304
 eccp_nl                                43.161926      715761
 total_time                             36.166375           1
 densta                                 28.090778         310
 fft3d_mpi                              22.564291      736552
 cnorma                                 21.694259      715761
 map_scatter                            20.685366       11785
 overl1                                 18.997291     1134887
 map_gather                             18.048328       11785
 eddiag                                 17.742933         304
 redis_pw                               17.721494      100568
 m_alltoallv_z                          15.938969       11785
 hamilt_local                           15.132131      165376
 set_charge                             14.807419         305
 hamiltmu                               13.312496      154896
 fft3d                                  12.770554     1759656
 init_acc                               11.841984           1
 m_alltoall_d                           11.089783     1895808
 fftwav                                 10.501714     1033665
 w1_dscal                               10.317694     1705601
 soft_charge                             9.434078         305
 w1_copy                                 9.341260     1681845
 w1_gaxpy                                9.264305     1776499
 apply_precond                           9.177300     1949304
 pw_charge                               6.170719      127797
 rpromu_acc                              6.070305      155304
 setup_precond                           6.022023      168096
 w1_daxpy                                5.857388     1100824
 racc0mu_acc                             5.533519      154896
 broyd                                   4.831278         305
 w1_dot                                  4.719783      165349
 newband                                 4.628526      165402
 potlok                                  3.811534         307
 zhegv                                   3.440414      385063
 vhamil                                  3.185463      725991
 kinhamil                                3.121951      725991
 eddav                                   3.101232           5
 fftext_mpi                              3.001475      725991
 redis_proj                              2.876216       97722
 depsum                                  2.707797         305
 overl_mu                                2.479721      154896
 acc_init_cublas                         2.440336           1
 lapack                                  2.295903        5088
 brmix                                   2.021089         305
 fftwav_mpi                              1.699421     1033665
 orthch                                  1.558931         305
 i3                                      1.457758      149808
 brget                                   1.449544       68373
 choleski                                1.446421       10370
 setg0                                   1.338677         307
 orth1                                   0.919953       56676
 rspher_all                              0.881389          14
 acc_init_cusolver                       0.815340           1
 elmin                                   0.813676           1
 fftbas_plan_mpi                         0.594614       10561
 rpro_isp                                0.481661         221
 lincom                                  0.427157       20876
 brsav                                   0.404120       19579
 overl                                   0.352705       38338
 m_bcast_z                               0.241639        7264
 i1                                      0.165385      149808
 w1_projall                              0.145531      153536
 acc_cufft_makeplan                      0.129584          19
 map_backward                            0.123402       11166
 fft_gq                                  0.106152         305
 map_forward                             0.101839        9956
 m_bcast_d                               0.099379       10795
 ggemm                                   0.068424        6448
 sphpro_fast                             0.057691           2
 proall                                  0.055136           1
 truncate_high_frequency_w1              0.054497      728711
 pothar                                  0.041648         308
 brpre                                   0.031942         610
 force_and_stress                        0.024864           1
 stufak                                  0.019871           1
 forhar                                  0.007342           2
 fftbrc_mpi                              0.006918       10561
 strelo                                  0.006298           1
 strehar                                 0.005438           1
 strnlr                                  0.005217           1
 inisym                                  0.004300           1
 forloc                                  0.003750           1
 fornlr                                  0.001793           1
 set_dd_magatom                          0.001437         307
 vectorpot                               0.001311         306
 shift_bands_between_low_high            0.001274       10336
 strkin                                  0.000743           1
 brgrid                                  0.000672           1
 fewald                                  0.000390           1
 rsp                                     0.000366           1
 chggra                                  0.000357           1
 fordep                                  0.000071           1
 crpa_reader                             0.000026           1
 posmap                                  0.000025           2
 potlok_metagga                          0.000020         306
 rcp                                     0.000019           1
 acc_cufft_makeplans                     0.000014           3
 rotate_active_occupied_orbital          0.000001           1
 redis_pw_over_bands                     0.000000           1
  summed up times     2160.789443969727

 Accumulative profile

 total_time                           2160.789444           1
 elmin                                2072.148580           1
 eddrmm                                941.823184         304
 set_dd_paw                            503.376993         307
 hamiltmu                              365.079843      154896
 raccmu_                               340.366396      154896
 m_sumb_d                              307.696344       62257
 set_charge                            266.014145         305
 setdij_                               239.821053         333
 augmentation_charge                   221.176504         306
 fft3d_mpi                             190.667674      736552
 i2                                    176.302904      149808
 phaser                                166.085542       10727
 fftbrc_mpi                            163.162631       10561
 fftbas_plan_mpi                       163.155712       10561
 i3                                    151.585194      149808
 dfftw_execute                         107.663194        7740
 eccp                                   91.630930      883857
 w1_gemv                                74.633695     2269774
 cnorma                                 64.856185      715761
 eddiag                                 56.598106         304
 eccp_nl                                43.161926      715761
 newband                                34.582170      165402
 map_backward                           30.872432       11166
 densta                                 28.090778         310
 force_and_stress                       26.705604           1
 soft_charge                            25.963456         305
 eddav                                  25.357577           5
 map_forward                            24.025473        9956
 redis_pw                               22.708124      100568
 map_scatter                            20.685366       11785
 fftwav_mpi                             20.030937     1033665
 orthch                                 19.547986         305
 overl1                                 18.997291     1134887
 fftwav                                 18.331516     1033665
 hamilt_local                           18.192886      165376
 map_gather                             18.048328       11785
 m_alltoallv_z                          15.938969       11785
 fft3d                                  12.770554     1759656
 init_acc                               11.841984           1
 kinhamil                               11.276244      725991
 m_alltoall_d                           11.089783     1895808
 w1_dscal                               10.317694     1705601
 brmix                                  10.188591         305
 w1_copy                                 9.341260     1681845
 w1_gaxpy                                9.264305     1776499
 apply_precond                           9.177300     1949304
 redis_proj                              8.979370       97722
 fftext_mpi                              8.154293      725991
 broyd                                   6.758177         305
 potlok                                  6.509543         307
 pw_charge                               6.170719      127797
 rpromu_acc                              6.070305      155304
 setup_precond                           6.022023      168096
 w1_daxpy                                5.857388     1100824
 w1_projall                              5.543027      153536
 racc0mu_acc                             5.533519      154896
 w1_dot                                  4.719783      165349
 fordep                                  4.321720           1
 strnlr                                  4.047010           1
 zhegv                                   3.440414      385063
 vhamil                                  3.185463      725991
 depsum                                  2.787476         305
 fft_gq                                  2.725225         305
 i1                                      2.648962      149808
 overl_mu                                2.479721      154896
 acc_init_cublas                         2.440336           1
 lapack                                  2.295903        5088
 brget                                   1.449544       68373
 choleski                                1.446421       10370
 rpro_isp                                1.398278         221
 fornlr                                  1.343229           1
 setg0                                   1.338677         307
 orth1                                   0.919953       56676
 rspher_all                              0.881389          14
 acc_init_cusolver                       0.815340           1
 lincom                                  0.427157       20876
 brsav                                   0.404120       19579
 overl                                   0.352705       38338
 proall                                  0.351142           1
 m_bcast_z                               0.241639        7264
 acc_cufft_makeplans                     0.129598           3
 acc_cufft_makeplan                      0.129584          19
 m_bcast_d                               0.099379       10795
 ggemm                                   0.068424        6448
 sphpro_fast                             0.059842           2
 truncate_high_frequency_w1              0.054497      728711
 pothar                                  0.046397         308
 brpre                                   0.031942         610
 stufak                                  0.019871           1
 forhar                                  0.007383           2
 strelo                                  0.006717           1
 forloc                                  0.005777           1
 strehar                                 0.005449           1
 inisym                                  0.004325           1
 chggra                                  0.001496           1
 set_dd_magatom                          0.001437         307
 vectorpot                               0.001311         306
 shift_bands_between_low_high            0.001274       10336
 fewald                                  0.000824           1
 strkin                                  0.000747           1
 brgrid                                  0.000672           1
 rsp                                     0.000366           1
 crpa_reader                             0.000026           1
 posmap                                  0.000025           2
 potlok_metagga                          0.000020         306
 rcp                                     0.000019           1
 rotate_active_occupied_orbital          0.000001           1
 redis_pw_over_bands                     0.000000           1

Profiling took   2.888441  1.957212  0.003265  0.003153 seconds
Profiling took   2.450682 seconds