 vasp.6.3.2 27Jun22 (build Jul  3 2023 11:46:21) complex
 executed on    LinuxNV_CrayMPICH date 2024.04.22  00:44:35

 INCAR:
   ADDGRID = True
   ALGO = Normal
   EDIFF = 0.0002
   ENCUT = 520.0
   IBRION = -1
   ICHARG = 0
   ISIF = 3
   ISMEAR = -5
   ISPIN = 2
   ISTART = 1
   KPOINT_BSE = -1 0 0 0
   LAECHG = True
   LASPH = True
   LCHARG = True
   LELF = True
   LORBIT = 11
   LREAL = Auto
   LVHAR = True
   LWAVE = False
   MAGMOM = 1*7.0 3*0.6
   NELM = 1000
   NSW = 0
   PREC = accurate
   SIGMA = 0.05

 POTCAR:    PAW_PBE Gd 23Dec2003
 POTCAR:    PAW_PBE Y_sv 25May2007
 POTCAR:    PAW_PBE Ru_pv 28Jan2005
 POTCAR:    PAW_PBE Gd 23Dec2003
   VRHFIN =Gd : [core=Xe4]

   TITEL  = PAW_PBE Gd 23Dec2003
   POMASS =  157.250; ZVAL   =   18.000    mass and valenz
   ENMAX  =  256.472; ENMIN  =  192.354 eV

   TITEL  = PAW_PBE Y_sv 25May2007
   POMASS =   88.906; ZVAL   =   11.000    mass and valenz
   ENMAX  =  202.626; ENMIN  =  151.970 eV

   TITEL  = PAW_PBE Ru_pv 28Jan2005
   POMASS =  101.070; ZVAL   =   14.000    mass and valenz
   ENMAX  =  240.049; ENMIN  =  180.037 eV

 Optimization of the real space projectors (new method)

 maximal supplied QI-value         = 13.42
 optimisation between [QCUT,QGAM] = [ 11.67, 23.35] = [ 38.16,152.62] Ry
 Optimized for a Real-space Cutoff    1.63 Angstroem

   l    n(q)    QCUT    max X(q) W(low)/X(q) W(high)/X(q)  e(spline)
   0     11    11.673    10.501    0.14E-04    0.17E-05    0.21E-07
   0     11    11.673     9.148    0.21E-04    0.32E-05    0.45E-07
   1     11    11.673     4.035    0.33E-05    0.11E-04    0.84E-07
   1     11    11.673     4.388    0.11E-04    0.47E-04    0.34E-06
   2     10    11.673    20.656    0.12E-04    0.28E-04    0.54E-06
   2     10    11.673    12.651    0.11E-04    0.26E-04    0.51E-06
   3     10    11.673    61.921    0.19E-03    0.22E-03    0.23E-06
   3     10    11.673    48.328    0.20E-03    0.23E-03    0.23E-06
 Optimization of the real space projectors (new method)

[...]

   l    n(q)    QCUT    max X(q) W(low)/X(q) W(high)/X(q)  e(spline)
   0     12    11.673    14.902    0.22E-04    0.24E-05    0.52E-07
   0     12    11.673     9.294    0.34E-04    0.58E-05    0.89E-07
   1     11    11.673    69.520    0.10E-04    0.47E-04    0.49E-06
   1     11    11.673    72.085    0.10E-04    0.48E-04    0.50E-06
   2     11    11.673    62.934    0.94E-04    0.14E-04    0.82E-06
   2     11    11.673    49.749    0.91E-04    0.13E-04    0.79E-06
   3     10    11.673     8.311    0.92E-04    0.21E-04    0.59E-06
 Optimization of the real space projectors (new method)

 maximal supplied QI-value         = 15.12
 optimisation between [QCUT,QGAM] = [ 11.64, 23.28] = [ 37.95,151.78] Ry
 Optimized for a Real-space Cutoff    1.49 Angstroem

   l    n(q)    QCUT    max X(q) W(low)/X(q) W(high)/X(q)  e(spline)
   1     10    11.641     3.180    0.30E-04    0.36E-05    0.54E-07
   1     10    11.641     5.351    0.12E-03    0.51E-04    0.30E-06
   2      9    11.641    66.565    0.22E-03    0.78E-04    0.20E-06
   2      9    11.641    63.466    0.22E-03    0.79E-04    0.20E-06
   0     10    11.641    85.644    0.61E-04    0.23E-04    0.12E-06
   0     10    11.641    44.119    0.56E-04    0.21E-04    0.11E-06
  PAW_PBE Gd 23Dec2003                  :
  PAW_PBE Y_sv 25May2007                :
  PAW_PBE Ru_pv 28Jan2005               :

 POSCAR: Gd1 Y1 Ru2
  positions in direct lattice
 exchange correlation table for  LEXCH =        8
   RHO(1)=    0.500       N(1)  =     2000
   RHO(2)=  100.500       N(2)  =     4000

 VTST: version 4.2, (08/11/21)

 CHAIN: initializing optimizer

 OPT: Using VASP Dynamics algorithm
 CHAIN: Read ICHAIN             0

 POSCAR: Gd1 Y1 Ru2
  positions in direct lattice

 ion  position               nearest neighbor table
   1  0.500  0.500  0.500-   4 2.97   4 2.97   4 2.97   3 2.97   4 2.97   3 2.97   3 2.97   3 2.97
                             2 3.42   2 3.42   2 3.42   2 3.42   2 3.42   2 3.42
   2  0.000  0.000  0.000-   3 2.97   3 2.97   3 2.97   3 2.97   4 2.97   4 2.97   4 2.97   4 2.97
                             1 3.42   1 3.42   1 3.42   1 3.42   1 3.42   1 3.42
   3  0.750  0.750  0.750-   1 2.97   1 2.97   1 2.97   1 2.97   2 2.97   2 2.97   2 2.97   2 2.97

   4  0.250  0.250  0.250-   2 2.97   2 2.97   2 2.97   1 2.97   2 2.97   1 2.97   1 2.97   1 2.97

  LATTYP: Found a face centered cubic cell.
 ALAT       =     6.8476800000

  Lattice vectors:

 A1 = (   0.0000000000,   3.4238400000,   3.4238400000)
 A2 = (   3.4238400000,   0.0000000000,   3.4238400000)
 A3 = (   3.4238400000,   3.4238400000,   0.0000000000)

Analysis of symmetry for initial positions (statically):
 Subroutine PRICEL returns:
 Original cell was already a primitive cell.

 Routine SETGRP: Setting up the symmetry group for a
 face centered cubic supercell.

 Subroutine GETGRP returns: Found 48 space group operations
 (whereof 48 operations were pure point group operations)
 out of a pool of 48 trial point group operations.

The static configuration has the point symmetry O_h .

Analysis of symmetry for dynamics (positions and initial velocities):
 Subroutine PRICEL returns:
 Original cell was already a primitive cell.

[...]

The dynamic configuration has the point symmetry O_h .

Analysis of structural, dynamic, and magnetic symmetry:
 Subroutine PRICEL returns:
 Original cell was already a primitive cell.

 Routine SETGRP: Setting up the symmetry group for a
 face centered cubic supercell.

 Subroutine GETGRP returns: Found 48 space group operations
 (whereof 48 operations were pure point group operations)
 out of a pool of 48 trial point group operations.

The overall configuration has the point symmetry O_h .

 Subroutine INISYM returns: Found 48 space group operations
 (whereof 48 operations are pure point group operations),
 and found     1 'primitive' translations

                                     Primitive cell

  volume of cell :      80.2732

  direct lattice vectors                    reciprocal lattice vectors
     0.000000000  3.423840000  3.423840000    -0.146034861  0.146034861  0.146034861
     3.423840000  0.000000000  3.423840000     0.146034861 -0.146034861  0.146034861
     3.423840000  3.423840000  0.000000000     0.146034861  0.146034861 -0.146034861

  length of vectors
     4.842040963  4.842040963  4.842040963     0.252939800  0.252939800  0.252939800

  position of ions in fractional coordinates (direct lattice)
     0.500000000  0.500000000  0.500000000
     0.000000000  0.000000000  0.000000000
     0.750000000  0.750000000  0.750000000
     0.250000000  0.250000000  0.250000000

  ion indices of the primitive-cell ions
   primitive index   ion index
                 1           1
                 2           2
                 3           3
                 4           4

 KPOINTS: Kpoints from vasprun.xml

Automatic generation of k-mesh.
 Grid dimensions read from file:
 generate k-points for:    6    6    6

 Generating k-lattice:

  Cartesian coordinates                     Fractional coordinates (reciprocal lattice)
    -0.024339144  0.024339144  0.024339144     0.166666667 -0.000000000 -0.000000000
     0.024339144 -0.024339144  0.024339144    -0.000000000  0.166666667  0.000000000
     0.024339144  0.024339144 -0.024339144     0.000000000  0.000000000  0.166666667

  Length of vectors
     0.042156633  0.042156633  0.042156633

  Shift w.r.t. Gamma in fractional coordinates (k-lattice)
     0.000000000  0.000000000  0.000000000

 TETIRR: Found     35 inequivalent tetrahedra from     1296

 Subroutine IBZKPT returns following result:

 Found     16 irreducible k-points:

 Following reciprocal coordinates:
            Coordinates               Weight
  0.000000  0.000000  0.000000      1.000000
  0.166667  0.000000  0.000000      8.000000
  0.333333  0.000000  0.000000      8.000000
  0.500000  0.000000  0.000000      4.000000
  0.166667  0.166667  0.000000      6.000000
  0.333333  0.166667  0.000000     24.000000
  0.500000  0.166667  0.000000     24.000000
 -0.333333  0.166667  0.000000     24.000000
 -0.166667  0.166667  0.000000     12.000000
  0.333333  0.333333  0.000000      6.000000
  0.500000  0.333333  0.000000     24.000000
 -0.333333  0.333333  0.000000     12.000000
  0.500000  0.500000  0.000000      3.000000
  0.500000  0.333333  0.166667     24.000000
 -0.333333  0.333333  0.166667     24.000000
 -0.333333  0.500000  0.166667     12.000000

 Following cartesian coordinates:
            Coordinates               Weight
  0.000000  0.000000  0.000000      1.000000
 -0.024339  0.024339  0.024339      8.000000
 -0.048678  0.048678  0.048678      8.000000
 -0.073017  0.073017  0.073017      4.000000
  0.000000  0.000000  0.048678      6.000000
 -0.024339  0.024339  0.073017     24.000000
 -0.048678  0.048678  0.097357     24.000000
  0.073017 -0.073017 -0.024339     24.000000
  0.048678 -0.048678  0.000000     12.000000
  0.000000  0.000000  0.097357      6.000000
 -0.024339  0.024339  0.121696     24.000000
  0.097357 -0.097357  0.000000     12.000000
  0.000000  0.000000  0.146035      3.000000
  0.000000  0.048678  0.097357     24.000000
  0.121696 -0.073017 -0.024339     24.000000
  0.146035 -0.097357  0.000000     12.000000

 SYSTEM =  unknown system
 POSCAR =  Gd1 Y1 Ru2

 Startparameter for this run:
   NWRITE =      2    write-flag & timer
   PREC   = accura    normal or accurate (medium, high low for compatibility)
   ISTART =      0    job   : 0-new  1-cont  2-samecut
   ICHARG =      2    charge: 1-file 2-atom 10-const
   ISPIN  =      2    spin polarized calculation?
   LNONCOLLINEAR =      F non collinear calculations
   LSORBIT =      F    spin-orbit coupling
   INIWAV =      1    electr: 0-lowe 1-rand  2-diag
   LASPH  =      T    aspherical Exc in radial PAW
 Electronic Relaxation 1
   ENCUT  =  520.0 eV  38.22 Ry    6.18 a.u.   9.00  9.00  9.00*2*pi/ulx,y,z
   ENINI  =  520.0     initial cutoff
   ENAUG  =  537.2 eV  augmentation charge cutoff
   NELM   =   1000;   NELMIN=  2; NELMDL=  0     # of ELM steps
   EDIFF  = 0.2E-03   stopping-criterion for ELM
   LREAL  =      T    real-space projection
   NLSPLINE    = F    spline interpolate recip. space projectors
   LCOMPAT=      F    compatible to vasp.4.4
   GGA_COMPAT  = T    GGA compatible to vasp.4.4-vasp.4.6
   LMAXPAW     = -100 max onsite density
   LMAXMIX     =    2 max onsite mixed and CHGCAR
   VOSKOWN=      0    Vosko Wilk Nusair interpolation
   ROPT   =   -0.00025  -0.00025  -0.00025
 Ionic relaxation
   EDIFFG = 0.2E-02   stopping-criterion for IOM
   NSW    =      0    number of steps for IOM
   NBLOCK =      1;   KBLOCK =      1    inner block; outer block
   IBRION =     -1    ionic relax: 0-MD 1-quasi-New 2-CG
   NFREE  =      0    steps in history (QN), initial steepest desc. (CG)
   ISIF   =      3    stress and relaxation
   IWAVPR =     10    prediction:  0-non 1-charg 2-wave 3-comb
   ISYM   =      2    0-nonsym 1-usesym 2-fastsym
   LCORR  =      T    Harris-Foulkes like correction to forces

   POTIM  = 0.5000    time-step for ionic-motion
   TEIN   =    0.0    initial temperature
   TEBEG  =    0.0;   TEEND  =   0.0 temperature during run
[...]
  290                map_forward                           0.000164                    4   7
  291                  map_gather                            0.000039                  2   8
  292                  m_alltoallv_z                         0.000021                  2   8
  293                  map_scatter                           0.000076                  2   8
  294                map_backward                          0.000073                    2   7
  295                  map_gather                            0.000019                  1   8
  296                  m_alltoallv_z                         0.000011                  1   8
  297                  map_scatter                           0.000030                  1   8
  298          m_sumb_d                              0.000007                          2   4
  299          pothar                                0.000079                          1   4
  300            m_sumb_d                              0.000010                        1   5
  301        brmix                                 0.004403                            1   3
  302          m_sumb_d                              0.000024                          6   4
  303          brpre                                 0.000013                          2   4
  304          setg0                                 0.000378                          1   4
  305          broyd                                 0.003506                          1   4
  306            m_sumb_d                              0.000248                       51   5
  307            brget                                 0.000586                      229   5
  308            brsav                                 0.000124                       49   5
  309        m_bcast_d                             0.000019                            2   3
  310      potlok                                0.014996                              2   2
  311        fft3d_mpi                             0.009970                           36   3
  312          fftbrc_mpi                            0.008501                         36   4
  313            fftbas_plan_mpi                       0.008482                       36   5
  314              map_forward                           0.002460                     40   6
  315                map_gather                            0.000825                   24   7
  316                m_alltoallv_z                         0.000704                   24   7
  317                map_scatter                           0.000763                   24   7
  318              map_backward                          0.001999                     32   6
  319                map_gather                            0.000690                   16   7
  320                m_alltoallv_z                         0.000473                   16   7
  321                map_scatter                           0.000668                   16   7
  322              dfftw_execute                         0.002374                     30   6
  323        m_sumb_d                              0.000028                            5   3
  324        pothar                                0.000526                            2   3
  325          m_sumb_d                              0.000041                          2   4
  326        m_bcast_d                             0.000832                            4   3
  327      potlok_metagga                        0.000000                              1   2
  328      set_dd_magatom                        0.000004                              1   2
  329      set_dd_paw                            0.941907                              1   2
  330        m_sumb_d                              0.467773                            7   3
  331      augmentation_charge                   0.073391                              1   2
  332        fft3d_mpi                             0.014970                            2   3
  333          fftbrc_mpi                            0.012865                          2   4
  334            fftbas_plan_mpi                       0.012861                        2   5
  335              dfftw_execute                         0.008589                      6   6
  336              map_backward                          0.004054                      4   6
  337                map_gather                            0.001064                    2   7
  338                m_alltoallv_z                         0.002111                    2   7
  339                map_scatter                           0.000871                    2   7
  340      fftwav_mpi                            0.333346                            960   2
  341        fftwav                                0.332150                          960   3
  342          fft3d                                 0.317976                        960   4
  343      densta                                0.282977                              1   2

 Flat profile

 m_sumb_d                               43.693031      143334
 set_dd_paw                             34.097082          72
 eddav                                  20.809518          74
 lapack                                 20.674231       45075
 raccmu_                                13.035721       45075
 init_acc                               11.333358           1
 redis_pw                                7.745788      251570
 total_time                              6.469941           1
 setdij_                                 5.249501          98
 m_alltoall_d                            4.746180      656330
 augmentation_charge                     4.107932          71
 acc_init_cublas                         3.511961           1
 phaser                                  3.445497        2576
 fft3d                                   2.316567      269560
 redis_proj                              2.114749      318072
 eccp                                    2.006630       23680
 dfftw_execute                           1.893311        2160
 fftwav                                  1.710811      179410
 orth1                                   1.525991      135289
 w1_copy                                 1.314053      270450
 racc0mu_acc                             1.310811       45075
 overl                                   1.303649      156652
 soft_charge                             1.287821          70
 rpromu_acc                              1.147384       34483
 densta                                  1.130421          75
 acc_init_cusolver                       1.126680           1
 m_bcast_z                               0.914147       46355
 hamiltmu                                0.904830       45075
 setup_precond                           0.858289       23680
 m_bcast_d                               0.768506       90299
 overl_mu                                0.689477       45075
 m_alltoallv_z                           0.668822        2895
 ggemm                                   0.604956       56915
 pw_charge                               0.426807       17670
 vhamil                                  0.409477       90150
 kinhamil                                0.407419       90150
 newband                                 0.395252       47443
 fftext_mpi                              0.377838       90150
 depsum                                  0.365392          70
 apply_precond                           0.362035       66470
 fft3d_mpi                               0.337768       92741
 acc_cufft_makeplan                      0.294161          19
 set_charge                              0.274825          70
 rpro_isp                                0.257705         208
 map_gather                              0.253586        2895
 map_scatter                             0.246059        2895
 fftwav_mpi                              0.238370      179410
 potlok                                  0.175316          72
 fftbas_plan_mpi                         0.144973        2591
 elmin                                   0.118881           1
 rspher_all                              0.102908          14
 broyd                                   0.095925          70
 lincom                                  0.074661        2400
 proall                                  0.041253           1
 w1_projall                              0.032847       33235
 brmix                                   0.030930          70
 brget                                   0.025899       11409
 setg0                                   0.023998          72
 sphpro_fast                             0.023286           2
 choleski                                0.013687          32
 map_backward                            0.013200        2718
 map_forward                             0.012974        2464
 truncate_high_frequency_w1              0.009016      113830
 force_and_stress                        0.007638           1
 orthch                                  0.007339           1
 brsav                                   0.006552        2988
 pothar                                  0.005473          73
 inisym                                  0.004963           1
 strnlr                                  0.004161           1
 fftbrc_mpi                              0.001566        2591
 stufak                                  0.001447           1
 fornlr                                  0.001443           1
 fft_gq                                  0.001373          70
 brpre                                   0.001034         140
 forhar                                  0.000914           2
 strelo                                  0.000844           1
 strehar                                 0.000619           1
 forloc                                  0.000506           1
 fewald                                  0.000324           1
 set_dd_magatom                          0.000320          72
 vectorpot                               0.000304          71
 chggra                                  0.000218           1
 strkin                                  0.000193           1
 brgrid                                  0.000087           1
 fordep                                  0.000049           1
 rsp                                     0.000048           1
 posmap                                  0.000034           2
 crpa_reader                             0.000027           1
 rcp                                     0.000012           1
 acc_cufft_makeplans                     0.000010           3
 potlok_metagga                          0.000006          71
 rotate_active_occupied_orbital          0.000000           1
 redis_pw_over_bands                     0.000000           1
  summed up times     210.1516017913818

 Accumulative profile

 total_time                            210.151602           1
 elmin                                 181.125287           1
 eddav                                 100.264658          74
 set_dd_paw                             67.816223          72
 m_sumb_d                               43.693031      143334
 lapack                                 20.674231       45075
 hamiltmu                               17.805576       45075
 raccmu_                                15.036010       45075
 init_acc                               11.333358           1
 redis_pw                                9.996583      251570
 set_charge                              8.178860          70
 setdij_                                 7.199923          98
 augmentation_charge                     5.197980          71
 newband                                 4.976164       47443
 m_alltoall_d                            4.746180      656330
 redis_proj                              4.610135      318072
 fft3d_mpi                               4.215379       92741
 force_and_stress                        3.901388           1
 fftwav_mpi                              3.622627      179410
 acc_init_cublas                         3.511961           1
 phaser                                  3.445497        2576
 fftwav                                  3.384257      179410
 fftbrc_mpi                              3.234491        2591
 fftbas_plan_mpi                         3.232924        2591
 soft_charge                             2.371523          70
 fft3d                                   2.316567      269560
 eccp                                    2.006630       23680
 dfftw_execute                           1.893311        2160
 orth1                                   1.525991      135289
 kinhamil                                1.455260       90150
 w1_copy                                 1.314053      270450
 racc0mu_acc                             1.310811       45075
 overl                                   1.303649      156652
 rpromu_acc                              1.147384       34483
 densta                                  1.130421          75
 acc_init_cusolver                       1.126680           1
 fftext_mpi                              1.047841       90150
 w1_projall                              0.990429       33235
 m_bcast_z                               0.914147       46355
 setup_precond                           0.858289       23680
 m_bcast_d                               0.768506       90299
 overl_mu                                0.689477       45075
 strnlr                                  0.684846           1
 m_alltoallv_z                           0.668822        2895
 map_forward                             0.610964        2464
 ggemm                                   0.604956       56915
 map_backward                            0.583677        2718
 potlok                                  0.581948          72
 rpro_isp                                0.571781         208
 fordep                                  0.441228           1
 pw_charge                               0.426807       17670
 vhamil                                  0.409477       90150
 depsum                                  0.369480          70
 apply_precond                           0.362035       66470
 orthch                                  0.305853           1
 acc_cufft_makeplans                     0.294171           3
 acc_cufft_makeplan                      0.294161          19
 map_gather                              0.253586        2895
 map_scatter                             0.246059        2895
 fornlr                                  0.229493           1
 brmix                                   0.196878          70
 broyd                                   0.138830          70
 rspher_all                              0.102908          14
 proall                                  0.082256           1
 lincom                                  0.074661        2400
 fft_gq                                  0.055450          70
 brget                                   0.025899       11409
 setg0                                   0.023998          72
 sphpro_fast                             0.023954           2
 choleski                                0.013687          32
 truncate_high_frequency_w1              0.009016      113830
 brsav                                   0.006552        2988
 pothar                                  0.006082          73
 inisym                                  0.004997           1
 stufak                                  0.001447           1
 brpre                                   0.001034         140
 forhar                                  0.000932           2
 strelo                                  0.000853           1
 chggra                                  0.000720           1
 strehar                                 0.000621           1
 forloc                                  0.000589           1
 fewald                                  0.000431           1
 set_dd_magatom                          0.000320          72
 vectorpot                               0.000304          71
 strkin                                  0.000198           1
 brgrid                                  0.000087           1
 rsp                                     0.000048           1
 posmap                                  0.000034           2
 crpa_reader                             0.000027           1
 rcp                                     0.000012           1
 potlok_metagga                          0.000006          71
 rotate_active_occupied_orbital          0.000000           1
 redis_pw_over_bands                     0.000000           1

Profiling took   0.573619  0.281882  0.003183  0.003105 seconds
Profiling took   0.374930 seconds