 vasp.6.3.2 27Jun22 (build Jul  3 2023 11:46:21) complex
 executed on    LinuxNV_CrayMPICH date 2024.04.20  23:35:52

 INCAR:
   ADDGRID = True
   ALGO = Normal
   EDIFF = 0.0016
   ENCUT = 520.0
   IBRION = -1
   ICHARG = 0
   ISIF = 3
   ISMEAR = -5
   ISPIN = 2
   KPOINT_BSE = -1 0 0 0
   LAECHG = True
   LASPH = True
   LCHARG = True
   LELF = True
   LORBIT = 11
   LREAL = Auto
   LVHAR = True
   LWAVE = False
   MAGMOM = 16*0.6 2*7.0 14*0.6
   NELM = 1000
   NSW = 0
   PREC = accurate
   SIGMA = 0.05

 POTCAR:    PAW_PBE Li_sv 10Sep2004
 POTCAR:    PAW_PBE Eu 23Dec2003
 POTCAR:    PAW_PBE Sn_d 06Sep2000
 POTCAR:    PAW_PBE Li_sv 10Sep2004
   VRHFIN =Li: 1s2s2p

   TITEL  = PAW_PBE Li_sv 10Sep2004
   POMASS =    7.010; ZVAL   =    3.000    mass and valenz
   ENMAX  =  499.034; ENMIN  =  374.276 eV

   TITEL  = PAW_PBE Eu 23Dec2003
   POMASS =  151.965; ZVAL   =   17.000    mass and valenz
   ENMAX  =  249.668; ENMIN  =  187.251 eV

   TITEL  = PAW_PBE Sn_d 06Sep2000
   POMASS =  118.710; ZVAL   =   14.000    mass and valenz
   ENMAX  =  241.083; ENMIN  =  180.812 eV

 Optimization of the real space projectors (new method)

 maximal supplied QI-value         = 22.11
 optimisation between [QCUT,QGAM] = [ 11.50, 23.22] = [ 37.02,150.92] Ry
 Optimized for a Real-space Cutoff    1.08 Angstroem

   l    n(q)    QCUT    max X(q) W(low)/X(q) W(high)/X(q)  e(spline)
   0      7    11.497    10.506    0.36E-04    0.62E-04    0.14E-07
   0      7    11.497     8.367    0.65E-04    0.14E-03    0.28E-07
   1      7    11.497     8.983    0.21E-03    0.43E-03    0.90E-07
 Optimization of the real space projectors (new method)

[...]

   l    n(q)    QCUT    max X(q) W(low)/X(q) W(high)/X(q)  e(spline)
   0     11    11.673    10.400    0.14E-04    0.18E-05    0.24E-07
   0     11    11.673    10.768    0.21E-04    0.32E-05    0.49E-07
   1     11    11.673     4.094    0.40E-05    0.13E-04    0.93E-07
   1     11    11.673     4.009    0.11E-04    0.46E-04    0.33E-06
   2     10    11.673    29.030    0.79E-04    0.60E-04    0.70E-06
   2     10    11.673    19.941    0.80E-04    0.60E-04    0.71E-06
   3     10    11.673    88.889    0.23E-03    0.29E-03    0.30E-06
   3     10    11.673    76.102    0.23E-03    0.30E-03    0.30E-06
 Optimization of the real space projectors (new method)

 maximal supplied QI-value         = 15.12
 optimisation between [QCUT,QGAM] = [ 11.64, 23.28] = [ 37.95,151.78] Ry
 Optimized for a Real-space Cutoff    1.36 Angstroem

   l    n(q)    QCUT    max X(q) W(low)/X(q) W(high)/X(q)  e(spline)
   2      9    11.641     5.880    0.49E-04    0.15E-04    0.99E-07
   2      9    11.641     7.804    0.17E-03    0.18E-03    0.15E-06
   0      9    11.641    20.557    0.10E-03    0.34E-04    0.76E-07
   0      9    11.641     9.400    0.13E-03    0.43E-04    0.95E-07
   1      9    11.641    94.178    0.25E-03    0.19E-03    0.20E-06
   1      9    11.641    56.401    0.24E-03    0.18E-03    0.20E-06
  PAW_PBE Li_sv 10Sep2004               :
  PAW_PBE Eu 23Dec2003                  :
  PAW_PBE Sn_d 06Sep2000                :

 POSCAR: Li16 Eu2 Sn14
  positions in direct lattice
 exchange correlation table for  LEXCH =        8
   RHO(1)=    0.500       N(1)  =     2000
   RHO(2)=  100.500       N(2)  =     4000

 VTST: version 4.2, (08/11/21)

 CHAIN: initializing optimizer

 OPT: Using VASP Dynamics algorithm
 CHAIN: Read ICHAIN             0

 POSCAR: Li16 Eu2 Sn14
  positions in direct lattice

 ion  position               nearest neighbor table
   1  0.977  0.023  0.250-  25 2.78  22 2.97  19 2.97  19 2.97  22 2.97
   2  0.023  0.977  0.750-  26 2.78  21 2.97  20 2.97  20 2.97  21 2.97
   3  0.000  0.000  0.000-
   4  0.000  0.000  0.500-
   5  0.757  0.243  0.094-  32 2.86  23 2.93  23 2.93  31 3.08  31 3.08
   6  0.243  0.757  0.906-  31 2.86  24 2.93  24 2.93  32 3.08  32 3.08
   7  0.243  0.757  0.594-  30 2.86  24 2.93  24 2.93  29 3.08  29 3.08
   8  0.757  0.243  0.406-  29 2.86  23 2.93  23 2.93  30 3.08  30 3.08
   9  0.892  0.108  0.518-  26 2.79  30 2.94  30 2.94  22 3.04  22 3.04
  10  0.108  0.892  0.482-  25 2.79  29 2.94  29 2.94  21 3.04  21 3.04
  11  0.108  0.892  0.018-  25 2.79  32 2.94  32 2.94  20 3.04  20 3.04
  12  0.892  0.108  0.982-  26 2.79  31 2.94  31 2.94  19 3.04  19 3.04
  13  0.545  0.455  0.125-  25 2.88  25 2.88  20 2.89  19 2.97
  14  0.455  0.545  0.875-  26 2.88  26 2.88  19 2.89  20 2.97
  15  0.455  0.545  0.625-  26 2.88  26 2.88  22 2.89  21 2.97
  16  0.545  0.455  0.375-  25 2.88  25 2.88  21 2.89  22 2.97
  17  0.858  0.142  0.250-  30 3.39  31 3.39  30 3.39  31 3.39  19 3.44  22 3.44  19 3.44  22 3.44
                            23 3.44  23 3.44
  18  0.142  0.858  0.750-  29 3.39  32 3.39  29 3.39  32 3.39  20 3.44  21 3.44  20 3.44  21 3.44
                            24 3.44  24 3.44
  19  0.435  0.565  0.121-  14 2.89  31 2.96  13 2.97   1 2.97   1 2.97  22 2.99  12 3.04  12 3.04
                            17 3.44  17 3.44
  20  0.565  0.435  0.879-  13 2.89  32 2.96  14 2.97   2 2.97   2 2.97  21 2.99  11 3.04  11 3.04
                            18 3.44  18 3.44
  21  0.565  0.435  0.621-  16 2.89  29 2.96  15 2.97   2 2.97   2 2.97  20 2.99  10 3.04  10 3.04
                            18 3.44  18 3.44
  22  0.435  0.565  0.379-  15 2.89  30 2.96  16 2.97   1 2.97   1 2.97  19 2.99   9 3.04   9 3.04
                            17 3.44  17 3.44
  23  0.263  0.737  0.250-   5 2.93   8 2.93   5 2.93   8 2.93  30 2.98  31 2.98  17 3.44  17 3.44
                            27 3.73  27 3.73
  24  0.737  0.263  0.750-   6 2.93   7 2.93   6 2.93   7 2.93  29 2.98  32 2.98  18 3.44  18 3.44
                            28 3.73  28 3.73
  25  0.080  0.920  0.250-   1 2.78  10 2.79  11 2.79  16 2.88  13 2.88  13 2.88  16 2.88  27 3.07
                            27 3.07
  26  0.920  0.080  0.750-   2 2.78   9 2.79  12 2.79  15 2.88  14 2.88  14 2.88  15 2.88  28 3.07
                            28 3.07
  27  0.655  0.345  0.250-  25 3.07  25 3.07  32 3.44  29 3.44  23 3.73  23 3.73
  28  0.345  0.655  0.750-  26 3.07  26 3.07  31 3.44  30 3.44  24 3.73  24 3.73
  29  0.670  0.330  0.545-   8 2.86  10 2.94  10 2.94  21 2.96  24 2.98   7 3.08   7 3.08  18 3.39
                            18 3.39  27 3.44
  30  0.330  0.670  0.455-   7 2.86   9 2.94   9 2.94  22 2.96  23 2.98   8 3.08   8 3.08  17 3.39
                            17 3.39  28 3.44
  31  0.330  0.670  0.045-   6 2.86  12 2.94  12 2.94  19 2.96  23 2.98   5 3.08   5 3.08  17 3.39
                            17 3.39  28 3.44
  32  0.670  0.330  0.955-   5 2.86  11 2.94  11 2.94  20 2.96  24 2.98   6 3.08   6 3.08  18 3.39
                            18 3.39  27 3.44

  LATTYP: Found a base centered orthorhombic cell.
 ALAT       =     4.6075660000
 B/A-ratio  =     5.8656466343
 C/A-ratio  =     2.5099683868

  Lattice vectors:

 A1 = (   2.3037830000, -13.5131770000,   0.0000000000)
 A2 = (   2.3037830000,  13.5131770000,   0.0000000000)
 A3 = (   0.0000000000,   0.0000000000,  11.5648450000)

Analysis of symmetry for initial positions (statically):
 Subroutine PRICEL returns:
 Original cell was already a primitive cell.

 Routine SETGRP: Setting up the symmetry group for a
 base centered orthorhombic supercell.

 Subroutine GETGRP returns: Found  8 space group operations
 (whereof  4 operations were pure point group operations)
 out of a pool of  8 trial point group operations.

The static configuration has the point symmetry C_2h.
 The point group associated with its full space group is D_2h.

Analysis of symmetry for dynamics (positions and initial velocities):
 Subroutine PRICEL returns:
 Original cell was already a primitive cell.

[...]

The dynamic configuration has the point symmetry C_2h.
 The point group associated with its full space group is D_2h.

Analysis of structural, dynamic, and magnetic symmetry:
 Subroutine PRICEL returns:
 Original cell was already a primitive cell.

 Routine SETGRP: Setting up the symmetry group for a
 base centered orthorhombic supercell.

 Subroutine GETGRP returns: Found  8 space group operations
 (whereof  4 operations were pure point group operations)
 out of a pool of  8 trial point group operations.

The overall configuration has the point symmetry C_2h.
 The point group associated with its full space group is D_2h.

 Subroutine INISYM returns: Found  8 space group operations
 (whereof  4 operations are pure point group operations),
 and found     1 'primitive' translations

                                     Primitive cell

  volume of cell :     720.0603

  direct lattice vectors                    reciprocal lattice vectors
     2.303783000-13.513177000  0.000000000     0.217034330 -0.037000921  0.000000000
     2.303783000 13.513177000  0.000000000     0.217034330  0.037000921 -0.000000000
     0.000000000  0.000000000 11.564845000    -0.000000000  0.000000000  0.086468950

  length of vectors
    13.708149720 13.708149720 11.564845000     0.220165775  0.220165775  0.086468950

  position of ions in fractional coordinates (direct lattice)
     0.976805000  0.023195000  0.250000000
     0.023195000  0.976805000  0.750000000
     0.000000000  0.000000000  0.000000000
     0.000000000  0.000000000  0.500000000
     0.757126000  0.242874000  0.094380000
     0.242874000  0.757126000  0.905620000
     0.242874000  0.757126000  0.594380000
     0.757126000  0.242874000  0.405620000
     0.891731000  0.108269000  0.518149000
     0.108269000  0.891731000  0.481851000
     0.108269000  0.891731000  0.018149000
     0.891731000  0.108269000  0.981851000
     0.544703000  0.455297000  0.124927000
     0.455297000  0.544703000  0.875073000
     0.455297000  0.544703000  0.624927000
     0.544703000  0.455297000  0.375073000
     0.858173000  0.141827000  0.250000000
     0.141827000  0.858173000  0.750000000
     0.434813000  0.565187000  0.120643000
     0.565187000  0.434813000  0.879357000
     0.565187000  0.434813000  0.620643000
     0.434813000  0.565187000  0.379357000
     0.263459000  0.736541000  0.250000000
     0.736541000  0.263459000  0.750000000
     0.079801000  0.920199000  0.250000000
     0.920199000  0.079801000  0.750000000
     0.654986000  0.345014000  0.250000000
     0.345014000  0.654986000  0.750000000
     0.669939000  0.330061000  0.545182000
     0.330061000  0.669939000  0.454818000
     0.330061000  0.669939000  0.045182000
     0.669939000  0.330061000  0.954818000

  ion indices of the primitive-cell ions
   primitive index   ion index
                 1           1
                 2           2
                 3           3
                 4           4
                 5           5
                 6           6
                 7           7
                 8           8
                 9           9
                10          10
                11          11
                12          12
                13          13
                14          14
                15          15
                16          16
                17          17
                18          18
                19          19
                20          20
                21          21
[...]
  318                map_forward                           0.000629                    4   7
  319                  map_gather                            0.000105                  2   8
  320                  m_alltoallv_z                         0.000030                  2   8
  321                  map_scatter                           0.000429                  2   8
  322                map_backward                          0.000302                    2   7
  323                  map_gather                            0.000061                  1   8
  324                  m_alltoallv_z                         0.000015                  1   8
  325                  map_scatter                           0.000179                  1   8
  326          m_sumb_d                              0.000011                          2   4
  327          pothar                                0.000147                          1   4
  328            m_sumb_d                              0.000009                        1   5
  329        brmix                                 0.040642                            1   3
  330          m_sumb_d                              0.000131                          6   4
  331          brpre                                 0.000245                          2   4
  332          setg0                                 0.008530                          1   4
  333          broyd                                 0.022537                          1   4
  334            m_sumb_d                              0.000373                       39   5
  335            brget                                 0.005528                      169   5
  336            brsav                                 0.001149                       37   5
  337        m_bcast_d                             0.000053                            2   3
  338      potlok                                0.239991                              2   2
  339        fft3d_mpi                             0.165450                           36   3
  340          fftbrc_mpi                            0.138155                         36   4
  341            fftbas_plan_mpi                       0.138132                       36   5
  342              map_forward                           0.038036                     40   6
  343                map_gather                            0.010043                   24   7
  344                m_alltoallv_z                         0.014391                   24   7
  345                map_scatter                           0.013200                   24   7
  346              map_backward                          0.028528                     32   6
  347                map_gather                            0.006566                   16   7
  348                m_alltoallv_z                         0.010929                   16   7
  349                map_scatter                           0.010483                   16   7
  350              dfftw_execute                         0.069438                     30   6
  351        m_sumb_d                              0.000033                            5   3
  352        pothar                                0.011384                            2   3
  353          m_sumb_d                              0.000053                          2   4
  354        m_bcast_d                             0.016881                            4   3
  355      potlok_metagga                        0.000000                              1   2
  356      set_dd_magatom                        0.000005                              1   2
  357      set_dd_paw                            3.252043                              1   2
  358        m_sumb_d                              0.478537                            7   3
  359      augmentation_charge                   0.916863                              1   2
  360        fft3d_mpi                             0.483210                            2   3
  361          fftbrc_mpi                            0.421294                          2   4
  362            fftbas_plan_mpi                       0.421291                        2   5
  363              dfftw_execute                         0.274423                      6   6
  364              map_backward                          0.146529                      4   6
  365                map_gather                            0.052114                    2   7
  366                m_alltoallv_z                         0.031317                    2   7
  367                map_scatter                           0.063084                    2   7
  368      fftwav_mpi                           16.244107                           2208   2
  369        fftwav                               16.238635                         2208   3
  370          fft3d                                15.217820                       2208   4
  371      densta                                2.898445                              1   2

 Flat profile

 set_dd_paw                             95.849034          35
 raccmu_                                70.889186       51295
 total_time                             57.340280           1
 eddav                                  36.511693          37
 dfftw_execute                          30.053666        1284
 m_sumb_d                               29.266701      158695
 setdij_                                25.728924          61
 lapack                                 24.471753       51295
 fft3d                                  21.192913      311588
 augmentation_charge                    15.255090          35
 redis_pw                               12.867827      281754
 phaser                                 12.237144         696
 init_acc                               11.649018           1
 fft3d_mpi                               6.241808      103927
 map_scatter                             5.887717        1495
 hamiltmu                                5.886465       51295
 m_alltoall_d                            5.585143      749042
 map_gather                              4.973593        1495
 densta                                  4.827108          38
 eccp                                    4.681606       27232
 m_alltoallv_z                           3.987787        1495
 fftwav                                  3.548138      208998
 acc_init_cublas                         3.438150           1
 orth1                                   2.920662      153981
 set_charge                              2.547944          34
 redis_proj                              2.361442      357128
 rpromu_acc                              2.169217       40175
 pw_charge                               1.604283       19274
 m_bcast_z                               1.589864       54239
 overl                                   1.559815      177964
 w1_copy                                 1.516328      307770
 racc0mu_acc                             1.500127       51295
 soft_charge                             1.168614          34
 acc_init_cusolver                       1.024620           1
 setup_precond                           0.990023       27232
 rspher_all                              0.983372          14
 m_bcast_d                               0.877348      102665
 ggemm                                   0.868753       64911
 overl_mu                                0.824780       51295
 potlok                                  0.755645          35
 rpro_isp                                0.676856         104
 vhamil                                  0.508794      102590
 kinhamil                                0.463570      102590
 newband                                 0.454403       51887
 acc_cufft_makeplan                      0.441815          19
 fftext_mpi                              0.439989      102590
 depsum                                  0.411446          34
 apply_precond                           0.409767       75358
 brmix                                   0.319581          33
 broyd                                   0.289745          33
 fftwav_mpi                              0.279529      208998
 setg0                                   0.257137          35
 elmin                                   0.202615           1
 sphpro_fast                             0.182841           2
 fftbas_plan_mpi                         0.101765        1337
 stufak                                  0.099596           1
 proall                                  0.095868           1
 brget                                   0.091342        2931
 force_and_stress                        0.047161           1
 orthch                                  0.040009           1
 w1_projall                              0.039296       37679
 lincom                                  0.023868         608
 brsav                                   0.021546         699
 map_backward                            0.020352        1394
 fft_gq                                  0.019674          34
 pothar                                  0.016592          36
 choleski                                0.016162          16
 map_forward                             0.014226        1280
 strelo                                  0.011563           1
 forhar                                  0.011090           2
 truncate_high_frequency_w1              0.011069      129822
 strehar                                 0.009487           1
 forloc                                  0.006617           1
 brpre                                   0.005584          66
 inisym                                  0.004454           1
 strnlr                                  0.004431           1
 rsp                                     0.002471           1
 strkin                                  0.002073           1
 fornlr                                  0.001432           1
 brgrid                                  0.001150           1
 fftbrc_mpi                              0.001107        1337
 chggra                                  0.000577           1
 fewald                                  0.000384           1
 vectorpot                               0.000205          34
 set_dd_magatom                          0.000189          35
 fordep                                  0.000139           1
 posmap                                  0.000052           2
 rcp                                     0.000045           1
 crpa_reader                             0.000034           1
 acc_cufft_makeplans                     0.000007           3
 potlok_metagga                          0.000002          34
 rotate_active_occupied_orbital          0.000001           1
 redis_pw_over_bands                     0.000000           1
  summed up times     523.6932890415192

 Accumulative profile

 total_time                            523.693289           1
 elmin                                 381.108468           1
 eddav                                 203.401466          37
 set_dd_paw                            112.412472          35
 hamiltmu                               81.308031       51295
 raccmu_                                73.214093       51295
 setdij_                                56.842627          61
 fft3d_mpi                              52.045752      103927
 fftbrc_mpi                             45.040213        1337
 fftbas_plan_mpi                        45.039106        1337
 set_charge                             43.272336          34
 force_and_stress                       33.558079           1
 augmentation_charge                    32.255471          35
 dfftw_execute                          30.053666        1284
 m_sumb_d                               29.266701      158695
 lapack                                 24.471753       51295
 fftwav_mpi                             24.256850      208998
 fftwav                                 23.977321      208998
 fft3d                                  21.192913      311588
 redis_pw                               15.716698      281754
 phaser                                 12.237144         696
 init_acc                               11.649018           1
 soft_charge                             8.565217          34
 newband                                 8.280040       51887
 map_forward                             7.918098        1280
 map_backward                            6.965577        1394
 map_scatter                             5.887717        1495
 fordep                                  5.616339           1
 m_alltoall_d                            5.585143      749042
 redis_proj                              5.097714      357128
 map_gather                              4.973593        1495
 densta                                  4.827108          38
 eccp                                    4.681606       27232
 m_alltoallv_z                           3.987787        1495
 strnlr                                  3.532503           1
 acc_init_cublas                         3.438150           1
 orth1                                   2.920662      153981
 rpromu_acc                              2.169217       40175
 rpro_isp                                2.123308         104
 kinhamil                                1.698679      102590
 pw_charge                               1.604283       19274
 m_bcast_z                               1.589864       54239
 overl                                   1.559815      177964
 w1_copy                                 1.516328      307770
 racc0mu_acc                             1.500127       51295
 potlok                                  1.452614          35
 fftext_mpi                              1.235109      102590
 fornlr                                  1.185348           1
 w1_projall                              1.136754       37679
 acc_init_cusolver                       1.024620           1
 brmix                                   1.000132          33
 setup_precond                           0.990023       27232
 rspher_all                              0.983372          14
 m_bcast_d                               0.877348      102665
 ggemm                                   0.868753       64911
 overl_mu                                0.824780       51295
 fft_gq                                  0.521351          34
 vhamil                                  0.508794      102590
 acc_cufft_makeplans                     0.441822           3
 acc_cufft_makeplan                      0.441815          19
 depsum                                  0.428702          34
 orthch                                  0.415982           1
 broyd                                   0.411200          33
 apply_precond                           0.409767       75358
 proall                                  0.275582           1
 setg0                                   0.257137          35
 sphpro_fast                             0.190593           2
 stufak                                  0.099596           1
 brget                                   0.091342        2931
 lincom                                  0.023868         608
 brsav                                   0.021546         699
 pothar                                  0.017165          36
 choleski                                0.016162          16
 forhar                                  0.011768           2
 strelo                                  0.011572           1
 truncate_high_frequency_w1              0.011069      129822
 strehar                                 0.009619           1
 forloc                                  0.008783           1
 brpre                                   0.005584          66
 fewald                                  0.005368           1
 inisym                                  0.004506           1
 rsp                                     0.002471           1
 strkin                                  0.002078           1
 chggra                                  0.002002           1
 brgrid                                  0.001150           1
 vectorpot                               0.000205          34
 set_dd_magatom                          0.000189          35
 posmap                                  0.000052           2
 rcp                                     0.000045           1
 crpa_reader                             0.000034           1
 potlok_metagga                          0.000002          34
 rotate_active_occupied_orbital          0.000001           1
 redis_pw_over_bands                     0.000000           1

Profiling took   0.659820  0.316199  0.003199  0.003071 seconds
Profiling took   0.397470 seconds