 vasp.6.3.2 27Jun22 (build Jul  3 2023 11:46:21) complex
 executed on    LinuxNV_CrayMPICH date 2024.04.20  22:12:51

 INCAR:
   ADDGRID = True
   ALGO = Normal
   EDIFF = 0.004
   ENCUT = 520.0
   IBRION = -1
   ICHARG = 0
   ISIF = 3
   ISMEAR = -5
   ISPIN = 2
   KPOINT_BSE = -1 0 0 0
   LAECHG = True
   LASPH = True
   LCHARG = True
   LELF = True
   LORBIT = 11
   LREAL = Auto
   LVHAR = True
   LWAVE = False
   MAGMOM = 8*0.6 4*7.0 68*0.6
   NELM = 1000
   NSW = 0
   PREC = accurate
   SIGMA = 0.05

 POTCAR:    PAW_PBE Rb_sv 06Sep2000
 POTCAR:    PAW_PBE Eu 23Dec2003
 POTCAR:    PAW_PBE Ga_d 06Jul2010
 POTCAR:    PAW_PBE Si 05Jan2001
 POTCAR:    PAW_PBE O 08Apr2002
 POTCAR:    PAW_PBE Rb_sv 06Sep2000
   VRHFIN =Rb: 4s4p5s

   TITEL  = PAW_PBE Rb_sv 06Sep2000
   POMASS =   85.468; ZVAL   =    9.000    mass and valenz
   ENMAX  =  220.112; ENMIN  =  165.084 eV

   TITEL  = PAW_PBE Eu 23Dec2003
   POMASS =  151.965; ZVAL   =   17.000    mass and valenz
   ENMAX  =  249.668; ENMIN  =  187.251 eV

   TITEL  = PAW_PBE Ga_d 06Jul2010
   POMASS =   69.723; ZVAL   =   13.000    mass and valenz
   ENMAX  =  282.691; ENMIN  =  212.018 eV

   TITEL  = PAW_PBE Si 05Jan2001
   POMASS =   28.085; ZVAL   =    4.000    mass and valenz
   ENMAX  =  245.345; ENMIN  =  184.009 eV

   TITEL  = PAW_PBE O 08Apr2002
   POMASS =   16.000; ZVAL   =    6.000    mass and valenz
   ENMAX  =  400.000; ENMIN  =  300.000 eV

 Optimization of the real space projectors (new method)

 maximal supplied QI-value         = 15.12
 optimisation between [QCUT,QGAM] = [ 11.64, 23.28] = [ 37.95,151.78] Ry
 Optimized for a Real-space Cutoff    1.63 Angstroem

   l    n(q)    QCUT    max X(q) W(low)/X(q) W(high)/X(q)  e(spline)
   0     11    11.641    11.905    0.26E-04    0.31E-05    0.88E-07
   0     11    11.641    15.029    0.40E-04    0.49E-05    0.17E-06
   1     11    11.641   129.694    0.10E-03    0.47E-04    0.47E-06
   1     11    11.641   129.780    0.10E-03    0.47E-04    0.47E-06
   2     10    11.641    17.083    0.83E-05    0.11E-04    0.75E-07
 Optimization of the real space projectors (new method)

[...]

   l    n(q)    QCUT    max X(q) W(low)/X(q) W(high)/X(q)  e(spline)
   0      8    11.508   159.560    0.71E-04    0.15E-03    0.51E-07
   0      8    11.508   115.863    0.70E-04    0.15E-03    0.51E-07
   1      8    11.508    88.339    0.16E-03    0.38E-04    0.82E-07
   1      8    11.508    48.592    0.15E-03    0.36E-04    0.79E-07
 Optimization of the real space projectors (new method)

 maximal supplied QI-value         = 24.76
 optimisation between [QCUT,QGAM] = [ 11.64, 23.27] = [ 37.91,151.63] Ry
 Optimized for a Real-space Cutoff    1.14 Angstroem

   l    n(q)    QCUT    max X(q) W(low)/X(q) W(high)/X(q)  e(spline)
   0      8    11.635    20.381    0.10E-03    0.33E-03    0.24E-06
   0      8    11.635    15.268    0.11E-03    0.35E-03    0.26E-06
   1      7    11.635     5.964    0.24E-03    0.31E-03    0.30E-06
   1      7    11.635     5.382    0.22E-03    0.25E-03    0.26E-06
  PAW_PBE Rb_sv 06Sep2000               :
  PAW_PBE Eu 23Dec2003                  :
  PAW_PBE Ga_d 06Jul2010                :
  PAW_PBE Si 05Jan2001                  :
  PAW_PBE O 08Apr2002                   :

 POSCAR: Rb8 Eu4 Ga4 Si16 O48
  positions in direct lattice
 exchange correlation table for  LEXCH =        8
   RHO(1)=    0.500       N(1)  =     2000
   RHO(2)=  100.500       N(2)  =     4000

 VTST: version 4.2, (08/11/21)

 CHAIN: initializing optimizer

 OPT: Using VASP Dynamics algorithm
 CHAIN: Read ICHAIN             0

 POSCAR: Rb8 Eu4 Ga4 Si16 O48
  positions in direct lattice

 ion  position               nearest neighbor table
   1  0.191  0.533  0.584-  33 2.96  44 3.00  66 3.00  73 3.03  42 3.13  59 3.15  77 3.20  68 3.42
                            35 3.62  16 3.62  56 3.65  28 3.65  19 3.71  24 3.71  18 3.82  72 3.85
   2  0.194  0.033  0.082-  76 2.95  80 2.97  54 3.03  71 3.05  67 3.12  46 3.15  49 3.15  70 3.39
                            23 3.63  14 3.63  50 3.64  20 3.66  55 3.68  32 3.72  17 3.84  34 3.84
   3  0.274  0.548  0.885-  51 2.90  41 2.99  39 3.15  56 3.21  33 3.23  48 3.42  34 3.43  53 3.44
                            40 3.57  31 3.62  44 3.64  24 3.70  14 3.73  18 3.81  29 3.94  18 3.95
   4  0.806  0.967  0.918-  60 2.95  47 2.97  58 3.03  46 3.05  49 3.12  71 3.15  67 3.15  45 3.39
                            22 3.63  15 3.63  65 3.64  32 3.66  36 3.68  20 3.72  25 3.84  41 3.84
   5  0.809  0.467  0.416-  69 2.96  63 3.00  38 3.00  77 3.03  59 3.13  42 3.15  73 3.20  61 3.42
                            79 3.62  13 3.62  40 3.65  21 3.65  24 3.71  19 3.71  26 3.82  57 3.85
   6  0.802  0.044  0.383-  75 2.91  57 2.98  55 3.15  62 3.16  76 3.18  72 3.38  52 3.47  43 3.52
                            36 3.60  54 3.60  27 3.65  32 3.68  16 3.71  17 3.85  30 3.87  17 3.89
   7  0.726  0.452  0.115-  37 2.90  34 2.99  48 3.15  40 3.21  69 3.23  39 3.42  41 3.43  64 3.44
                            56 3.57  29 3.62  63 3.64  19 3.70  15 3.73  26 3.81  31 3.94  26 3.95
   8  0.198  0.956  0.617-  78 2.91  72 2.98  36 3.15  52 3.16  60 3.18  57 3.38  62 3.47  74 3.52
                            55 3.60  58 3.60  30 3.65  20 3.68  13 3.71  25 3.85  27 3.87  25 3.89
   9  0.449  0.250  0.786-  66 2.31  33 2.31  46 2.32  47 2.43  50 2.46  79 2.60  22 3.28   1 4.12
                             4 4.16   2 4.31
  10  0.014  0.751  0.288-  76 2.30  80 2.34  77 2.35  38 2.44  35 2.47  65 2.59  21 3.28   2 4.13
                             5 4.17   1 4.31
  11  0.551  0.750  0.214-  38 2.31  69 2.31  71 2.32  80 2.43  65 2.46  35 2.60  23 3.28   5 4.12
                             2 4.16   4 4.31
  12  0.986  0.249  0.712-  60 2.30  47 2.34  73 2.35  66 2.44  79 2.47  50 2.59  28 3.28   4 4.13
                             1 4.17   5 4.31
  13  0.126  0.227  0.412-  57 1.83  63 1.85  52 1.85  61 1.86   5 3.62   8 3.71   6 4.19
  14  0.267  0.272  0.087-  34 1.83  54 1.84  39 1.85  70 1.86   2 3.63   3 3.73   7 4.20
  15  0.733  0.728  0.913-  41 1.83  58 1.84  48 1.85  45 1.86   4 3.63   7 3.73   3 4.20
  16  0.874  0.773  0.588-  72 1.83  44 1.85  62 1.85  68 1.86   1 3.62   6 3.71   8 4.19
  17  0.330  0.078  0.300-  54 1.63  52 1.64  75 1.64  55 1.64  32 3.11   2 3.84   6 3.85   6 3.89
                             8 4.03
  18  0.792  0.578  0.799-  48 1.63  44 1.63  51 1.64  56 1.65  24 3.09   3 3.81   1 3.82   3 3.95
                             7 4.00
  19  0.360  0.508  0.326-  69 1.60  77 1.62  37 1.67  59 1.70  26 3.09   7 3.70   1 3.71   5 3.71
                             5 4.09
  20  0.306  0.006  0.827-  60 1.62  46 1.62  67 1.67  78 1.69  25 3.11  23 3.13   2 3.66   8 3.68
                             4 3.72   4 4.08
  21  0.640  0.706  0.472-  38 1.62  68 1.64  74 1.64  42 1.65  30 3.02  10 3.28   5 3.65   1 4.23

  22  0.683  0.206  0.971-  47 1.62  70 1.65  64 1.65  49 1.65  29 3.02  32 3.13   9 3.28   4 3.63
                             2 4.23
  23  0.317  0.794  0.029-  80 1.62  45 1.65  53 1.65  67 1.65  31 3.02  20 3.13  11 3.28   2 3.63
                             4 4.23
  24  0.640  0.492  0.674-  33 1.60  73 1.62  51 1.67  42 1.70  18 3.09   3 3.70   5 3.71   1 3.71
                             1 4.09
  25  0.670  0.922  0.700-  58 1.63  62 1.64  78 1.64  36 1.64  20 3.11   4 3.84   8 3.85   8 3.89
                             6 4.03
  26  0.208  0.422  0.201-  39 1.63  63 1.63  37 1.64  40 1.65  19 3.09   7 3.81   5 3.82   7 3.95
                             3 4.00
  27  0.740  0.161  0.575-  79 1.60  57 1.63  36 1.65  43 1.66  28 3.02   6 3.65   8 3.87   5 4.04

  28  0.360  0.294  0.528-  66 1.62  61 1.64  43 1.64  59 1.65  27 3.02  12 3.28   1 3.65   5 4.23

[...]

  31  0.024  0.661  0.076-  65 1.62  41 1.63  40 1.65  53 1.67  23 3.02   3 3.62   7 3.94   4 4.05

  32  0.694  0.994  0.173-  76 1.62  71 1.62  49 1.67  75 1.69  17 3.11  22 3.13   4 3.66   6 3.68
                             2 3.72   2 4.08
  33  0.471  0.426  0.728-  24 1.60   9 2.31   1 2.96   3 3.23
  34  0.059  0.330  0.023-  29 1.63  14 1.83   7 2.99   3 3.43   2 3.84
  35  0.264  0.775  0.355-  30 1.60  10 2.47  11 2.60   1 3.62
  36  0.758  0.032  0.645-  25 1.64  27 1.65   8 3.15   6 3.60   4 3.68
  37  0.359  0.446  0.250-  26 1.64  19 1.67   7 2.90
  38  0.702  0.702  0.355-  21 1.62  11 2.31  10 2.44   5 3.00
  39  0.328  0.376  0.112-  26 1.63  14 1.85   3 3.15   7 3.42
  40  0.063  0.532  0.146-  26 1.65  31 1.65   7 3.21   3 3.57   5 3.65
  41  0.941  0.670  0.977-  31 1.63  15 1.83   3 2.99   7 3.43   4 3.84
  42  0.583  0.591  0.560-  21 1.65  24 1.70   1 3.13   5 3.15
  43  0.543  0.202  0.523-  28 1.64  27 1.66   6 3.52
  44  0.931  0.656  0.707-  18 1.63  16 1.85   1 3.00   3 3.64
  45  0.550  0.771  0.009-  23 1.65  15 1.86   4 3.39
  46  0.421  0.073  0.852-  20 1.62   9 2.32   4 3.05   2 3.15
  47  0.740  0.200  0.855-  22 1.62  12 2.34   9 2.43   4 2.97
  48  0.672  0.624  0.888-  18 1.63  15 1.85   7 3.15   3 3.42
  49  0.765  0.091  0.060-  22 1.65  32 1.67   4 3.12   2 3.15
  50  0.107  0.276  0.852-  29 1.62   9 2.46  12 2.59   2 3.64
  51  0.641  0.554  0.750-  18 1.64  24 1.67   3 2.90
  52  0.318  0.124  0.389-  17 1.64  13 1.85   8 3.16   6 3.47
  53  0.236  0.699  0.026-  23 1.65  31 1.67   3 3.44
  54  0.206  0.157  0.207-  17 1.63  14 1.84   2 3.03   6 3.60
  55  0.242  0.968  0.355-  17 1.64  30 1.65   6 3.15   8 3.60   2 3.68
  56  0.937  0.468  0.854-  18 1.65  29 1.65   3 3.21   7 3.57   1 3.65
  57  0.912  0.169  0.475-  27 1.63  13 1.83   6 2.98   8 3.38   5 3.85
  58  0.794  0.843  0.793-  25 1.63  15 1.84   4 3.03   8 3.60
  59  0.417  0.409  0.440-  28 1.65  19 1.70   5 3.13   1 3.15
  60  0.122  0.073  0.773-  20 1.62  12 2.30   4 2.95   8 3.18
  61  0.173  0.269  0.510-  28 1.64  13 1.86   5 3.42
  62  0.682  0.876  0.611-  25 1.64  16 1.85   6 3.16   8 3.47
  63  0.069  0.344  0.293-  26 1.63  13 1.85   5 3.00   7 3.64
  64  0.764  0.301  0.974-  22 1.65  29 1.67   7 3.44
  65  0.893  0.724  0.148-  31 1.62  11 2.46  10 2.59   4 3.64
  66  0.298  0.298  0.645-  28 1.62   9 2.31  12 2.44   1 3.00
  67  0.235  0.909  0.940-  23 1.65  20 1.67   2 3.12   4 3.15
  68  0.827  0.731  0.490-  21 1.64  16 1.86   1 3.42
  69  0.529  0.574  0.272-  19 1.60  11 2.31   5 2.96   7 3.23
  70  0.450  0.229  0.991-  22 1.65  14 1.86   2 3.39
  71  0.579  0.927  0.148-  32 1.62  11 2.32   2 3.05   4 3.15
  72  0.088  0.831  0.525-  30 1.63  16 1.83   8 2.98   6 3.38   1 3.85
  73  0.848  0.429  0.649-  24 1.62  12 2.35   1 3.03   5 3.20
  74  0.457  0.798  0.477-  21 1.64  30 1.66   8 3.52
  75  0.553  0.057  0.249-  17 1.64  32 1.69   6 2.91
  76  0.878  0.927  0.227-  32 1.62  10 2.30   2 2.95   6 3.18
  77  0.152  0.571  0.351-  19 1.62  10 2.35   5 3.03   1 3.20
  78  0.447  0.943  0.751-  25 1.64  20 1.69   8 2.91
  79  0.736  0.225  0.645-  27 1.60  12 2.47   9 2.60   5 3.62
  80  0.260  0.800  0.145-  23 1.62  10 2.34  11 2.43   2 2.97

  LATTYP: Found a triclinic cell.
 ALAT       =    14.2321916667
 B/A-ratio  =     1.0650546225
 C/A-ratio  =     0.5235565382
 COS(alpha) =     0.0006863674
 COS(beta)  =     0.2606441852
 COS(gamma) =     0.5319352175

[...]
  318                map_forward                           0.000482                    4   7
  319                  map_gather                            0.000077                  2   8
  320                  m_alltoallv_z                         0.000031                  2   8
  321                  map_scatter                           0.000325                  2   8
  322                map_backward                          0.000185                    2   7
  323                  map_gather                            0.000042                  1   8
  324                  m_alltoallv_z                         0.000013                  1   8
  325                  map_scatter                           0.000105                  1   8
  326          m_sumb_d                              0.000012                          2   4
  327          pothar                                0.000109                          1   4
  328            m_sumb_d                              0.000008                        1   5
  329        brmix                                 0.029868                            1   3
  330          m_sumb_d                              0.000143                          6   4
  331          brpre                                 0.000108                          2   4
  332          setg0                                 0.004517                          1   4
  333          broyd                                 0.019326                          1   4
  334            m_sumb_d                              0.001540                       44   5
  335            brget                                 0.004190                      194   5
  336            brsav                                 0.000908                       42   5
  337        m_bcast_d                             0.000092                            2   3
  338      potlok                                0.164710                              2   2
  339        fft3d_mpi                             0.093228                           36   3
  340          fftbrc_mpi                            0.077716                         36   4
  341            fftbas_plan_mpi                       0.077690                       36   5
  342              map_forward                           0.021022                     40   6
  343                map_gather                            0.005353                   24   7
  344                m_alltoallv_z                         0.009379                   24   7
  345                map_scatter                           0.005978                   24   7
  346              map_backward                          0.017300                     32   6
  347                map_gather                            0.003859                   16   7
  348                m_alltoallv_z                         0.007520                   16   7
  349                map_scatter                           0.005625                   16   7
  350              dfftw_execute                         0.037184                     30   6
  351        m_sumb_d                              0.000034                            5   3
  352        pothar                                0.006588                            2   3
  353          m_sumb_d                              0.000452                          2   4
  354        m_bcast_d                             0.010876                            4   3
  355      potlok_metagga                        0.000000                              1   2
  356      set_dd_magatom                        0.000004                              1   2
  357      set_dd_paw                            5.907684                              1   2
  358        m_sumb_d                              0.002484                            7   3
  359      augmentation_charge                   0.485005                              1   2
  360        fft3d_mpi                             0.272901                            2   3
  361          fftbrc_mpi                            0.237409                          2   4
  362            fftbas_plan_mpi                       0.237405                        2   5
  363              dfftw_execute                         0.144864                      6   6
  364              map_backward                          0.092251                      4   6
  365                map_gather                            0.032491                    2   7
  366                m_alltoallv_z                         0.021668                    2   7
  367                map_scatter                           0.038078                    2   7
  368      fftwav_mpi                           29.971865                           6552   2
  369        fftwav                               29.961978                         6552   3
  370          fft3d                                27.797983                       6552   4
  371      densta                               16.654594                              1   2

 Flat profile

 set_dd_paw                            236.057774          40
 eddav                                 116.610641          42
 raccmu_                                99.182830      183912
 lapack                                 89.477660      183912
 m_sumb_d                               53.100444      557959
 redis_pw                               46.915675      999363
 total_time                             46.145878           1
 fft3d                                  42.824024     1096347
 densta                                 20.791869          43
 m_alltoall_d                           19.922348     2643711
 dfftw_execute                          18.753279        1404
 phaser                                 13.580920        1164
 eccp                                   13.109840       91728
 setdij_                                13.100724          66
 orth1                                  10.741038      552024
 fftwav                                 10.175473      733338
 init_acc                                9.729825           1
 hamiltmu                                9.655056      183912
 augmentation_charge                     8.488482          40
 redis_proj                              8.392225     1270668
 rpromu_acc                              6.535647      144720
 m_bcast_z                               6.454552      192648
 racc0mu_acc                             5.364624      183912
 overl                                   5.314256      634314
 w1_copy                                 5.266978     1089027
 fft3d_mpi                               4.209105      364516
 map_scatter                             3.788052        1685
 pw_charge                               3.774689       64104
 setup_precond                           3.370376       91728
 map_gather                              3.341610        1685
 soft_charge                             3.296720          39
 ggemm                                   3.161982      230280
 m_alltoallv_z                           3.020107        1685
 m_bcast_d                               3.007327      367909
 overl_mu                                2.903688      183912
 acc_init_cublas                         2.484782           1
 set_charge                              1.719751          39
 rpro_isp                                1.715192         156
 vhamil                                  1.659945      363009
 kinhamil                                1.648077      363009
 fftext_mpi                              1.542374      363009
 apply_precond                           1.492174      271281
 newband                                 1.474704      184920
 depsum                                  1.416735          39
 sphpro_fast                             1.244210           2
 fftwav_mpi                              0.965013      733338
 acc_init_cusolver                       0.790097           1
 rspher_all                              0.616053          14
 potlok                                  0.581203          40
 elmin                                   0.341496           1
 proall                                  0.253246           1
 brmix                                   0.241446          38
 broyd                                   0.212891          38
 orthch                                  0.196228           1
 setg0                                   0.175889          40
 stufak                                  0.156459           1
 w1_projall                              0.132052      137544
 acc_cufft_makeplan                      0.124665          19
 fftbas_plan_mpi                         0.107638        1507
 force_and_stress                        0.105790           1
 brget                                   0.083564        3851
 lincom                                  0.070796        1032
 truncate_high_frequency_w1              0.036067      454737
 choleski                                0.020867          24
 brsav                                   0.019480         900
 forhar                                  0.015468           2
 fft_gq                                  0.014592          39
 strnlr                                  0.013137           1
 map_forward                             0.012890        1440
 map_backward                            0.012561        1574
 pothar                                  0.010713          41
 strkin                                  0.009242           1
 forloc                                  0.007819           1
 strelo                                  0.007385           1
 strehar                                 0.006093           1
 rsp                                     0.005763           1
 fornlr                                  0.005262           1
 inisym                                  0.004610           1
 brpre                                   0.004306          76
 fftbrc_mpi                              0.001110        1507
 brgrid                                  0.000756           1
 chggra                                  0.000364           1
 fewald                                  0.000354           1
 fordep                                  0.000265           1
 set_dd_magatom                          0.000186          40
 vectorpot                               0.000174          39
 rcp                                     0.000167           1
 posmap                                  0.000056           2
 crpa_reader                             0.000027           1
 acc_cufft_makeplans                     0.000010           3
 potlok_metagga                          0.000002          39
 rotate_active_occupied_orbital          0.000000           1
 redis_pw_over_bands                     0.000000           1
  summed up times     971.3279130458832

 Accumulative profile

 total_time                            971.327913           1
 elmin                                 814.684033           1
 eddav                                 534.239851          42
 set_dd_paw                            236.375427          40
 hamiltmu                              124.640765      183912
 raccmu_                               107.451142      183912
 lapack                                 89.477660      183912
 redis_pw                               57.589798      999363
 m_sumb_d                               53.100444      557959
 fftwav_mpi                             51.386907      733338
 fftwav                                 50.421894      733338
 fft3d                                  42.824024     1096347
 set_charge                             40.040773          39
 fft3d_mpi                              35.823954      364516
 setdij_                                33.387737          66
 fftbrc_mpi                             29.037246        1507
 fftbas_plan_mpi                        29.036136        1507
 force_and_stress                       27.453802           1
 newband                                25.437442      184920
 densta                                 20.791869          43
 m_alltoall_d                           19.922348     2643711
 augmentation_charge                    19.406868          40
 dfftw_execute                          18.753279        1404
 soft_charge                            17.641760          39
 redis_proj                             17.640450     1270668
 phaser                                 13.580920        1164
 eccp                                   13.109840       91728
 orth1                                  10.741038      552024
 init_acc                                9.729825           1
 rpromu_acc                              6.535647      144720
 m_bcast_z                               6.454552      192648
 kinhamil                                5.874622      363009
 strnlr                                  5.543702           1
 racc0mu_acc                             5.364624      183912
 overl                                   5.314256      634314
 map_forward                             5.311650        1440
 rpro_isp                                5.277968         156
 w1_copy                                 5.266978     1089027
 map_backward                            4.863570        1574
 fftext_mpi                              4.226545      363009
 w1_projall                              4.131427      137544
 map_scatter                             3.788052        1685
 pw_charge                               3.774689       64104
 setup_precond                           3.370376       91728
 map_gather                              3.341610        1685
 ggemm                                   3.161982      230280
 m_alltoallv_z                           3.020107        1685
 fordep                                  3.014387           1
 m_bcast_d                               3.007327      367909
 overl_mu                                2.903688      183912
 acc_init_cublas                         2.484782           1
 fornlr                                  1.847507           1
 vhamil                                  1.659945      363009
 apply_precond                           1.492174      271281
 depsum                                  1.460097          39
 sphpro_fast                             1.316813           2
 potlok                                  1.129861          40
 acc_init_cusolver                       0.790097           1
 brmix                                   0.759838          38
 orthch                                  0.668783           1
 rspher_all                              0.616053          14
 proall                                  0.598868           1
 fft_gq                                  0.358761          39
 broyd                                   0.332984          38
 setg0                                   0.175889          40
 stufak                                  0.156459           1
 acc_cufft_makeplans                     0.124674           3
 acc_cufft_makeplan                      0.124665          19
 brget                                   0.083564        3851
 lincom                                  0.070796        1032
 truncate_high_frequency_w1              0.036067      454737
 choleski                                0.020867          24
 brsav                                   0.019480         900
 forhar                                  0.015514           2
 pothar                                  0.011762          41
 forloc                                  0.009372           1
 strkin                                  0.009247           1
 strelo                                  0.007675           1
 fewald                                  0.006601           1
 strehar                                 0.006098           1
 rsp                                     0.005763           1
 inisym                                  0.004666           1
 brpre                                   0.004306          76
 chggra                                  0.001411           1
 brgrid                                  0.000756           1
 set_dd_magatom                          0.000186          40
 vectorpot                               0.000174          39
 rcp                                     0.000167           1
 posmap                                  0.000056           2
 crpa_reader                             0.000027           1
 potlok_metagga                          0.000002          39
 rotate_active_occupied_orbital          0.000000           1
 redis_pw_over_bands                     0.000000           1

Profiling took   2.318823  1.097177  0.003260  0.003128 seconds
Profiling took   1.409120 seconds