 vasp.6.3.2 27Jun22 (build Jul  3 2023 11:46:21) complex
 executed on    LinuxNV_CrayMPICH date 2024.04.20  22:38:28

 INCAR:
   ADDGRID = True
   ALGO = Normal
   EDIFF = 0.0003
   ENCUT = 520.0
   IBRION = -1
   ICHARG = 0
   ISIF = 3
   ISMEAR = -5
   ISPIN = 2
   ISTART = 1
   KPOINT_BSE = -1 0 0 0
   LAECHG = True
   LASPH = True
   LCHARG = True
   LELF = True
   LORBIT = 11
   LREAL = Auto
   LVHAR = True
   LWAVE = False
   MAGMOM = 1*7.0 4*5.0 1*0.6
   NELM = 1000
   NSW = 0
   PREC = accurate
   SIGMA = 0.05

 POTCAR:    PAW_PBE Gd 23Dec2003
 POTCAR:    PAW_PBE Ni_pv 06Sep2000
 POTCAR:    PAW_PBE Au 04Oct2007
 POTCAR:    PAW_PBE Gd 23Dec2003
   VRHFIN =Gd : [core=Xe4]

   TITEL  = PAW_PBE Gd 23Dec2003
   POMASS =  157.250; ZVAL   =   18.000    mass and valenz
   ENMAX  =  256.472; ENMIN  =  192.354 eV

   TITEL  = PAW_PBE Ni_pv 06Sep2000
   POMASS =   58.690; ZVAL   =   16.000    mass and valenz
   ENMAX  =  367.986; ENMIN  =  275.989 eV

   TITEL  = PAW_PBE Au 04Oct2007
   POMASS =  196.966; ZVAL   =   11.000    mass and valenz
   ENMAX  =  229.943; ENMIN  =  172.457 eV

 Optimization of the real space projectors (new method)

 maximal supplied QI-value         = 13.42
 optimisation between [QCUT,QGAM] = [ 11.67, 23.35] = [ 38.16,152.62] Ry
 Optimized for a Real-space Cutoff    1.63 Angstroem

   l    n(q)    QCUT    max X(q) W(low)/X(q) W(high)/X(q)  e(spline)
   0     11    11.673    10.501    0.14E-04    0.17E-05    0.21E-07
   0     11    11.673     9.148    0.21E-04    0.32E-05    0.45E-07
   1     11    11.673     4.035    0.33E-05    0.11E-04    0.84E-07
   1     11    11.673     4.388    0.11E-04    0.47E-04    0.34E-06
   2     10    11.673    20.656    0.12E-04    0.28E-04    0.54E-06
   2     10    11.673    12.651    0.11E-04    0.26E-04    0.51E-06
   3     10    11.673    61.921    0.19E-03    0.22E-03    0.23E-06
   3     10    11.673    48.328    0.20E-03    0.23E-03    0.23E-06
 Optimization of the real space projectors (new method)

[...]

   l    n(q)    QCUT    max X(q) W(low)/X(q) W(high)/X(q)  e(spline)
   1      9    11.527     2.836    0.16E-04    0.30E-04    0.95E-07
   1      9    11.527     4.023    0.73E-04    0.81E-04    0.21E-06
   2      9    11.527    73.368    0.15E-03    0.29E-03    0.28E-06
   2      9    11.527    69.010    0.15E-03    0.29E-03    0.29E-06
   0      9    11.527    54.797    0.43E-04    0.28E-04    0.85E-07
   0      9    11.527    24.266    0.33E-04    0.24E-04    0.75E-07
 Optimization of the real space projectors (new method)

 maximal supplied QI-value         = 15.12
 optimisation between [QCUT,QGAM] = [ 11.64, 23.28] = [ 37.95,151.78] Ry
 Optimized for a Real-space Cutoff    1.49 Angstroem

   l    n(q)    QCUT    max X(q) W(low)/X(q) W(high)/X(q)  e(spline)
   2      9    11.641    60.898    0.24E-03    0.10E-03    0.19E-06
   2      9    11.641    58.894    0.25E-03    0.10E-03    0.19E-06
   0     10    11.641   109.617    0.73E-04    0.33E-04    0.11E-06
   0     10    11.641    75.026    0.71E-04    0.32E-04    0.11E-06
   1     10    11.641    16.344    0.27E-04    0.97E-04    0.16E-06
   1     10    11.641    10.160    0.23E-04    0.77E-04    0.13E-06
  PAW_PBE Gd 23Dec2003                  :
  PAW_PBE Ni_pv 06Sep2000               :
  PAW_PBE Au 04Oct2007                  :

 POSCAR: Gd1 Ni4 Au1
  positions in direct lattice
 exchange correlation table for  LEXCH =        8
   RHO(1)=    0.500       N(1)  =     2000
   RHO(2)=  100.500       N(2)  =     4000

 VTST: version 4.2, (08/11/21)

 CHAIN: initializing optimizer

 OPT: Using VASP Dynamics algorithm
 CHAIN: Read ICHAIN             0

 POSCAR: Gd1 Ni4 Au1
  positions in direct lattice

 ion  position               nearest neighbor table
   1  0.000  0.000  0.000-   2 2.91   3 2.91   2 2.91   5 2.91   4 2.91   5 2.91   3 2.91   4 2.91
                             5 2.91   2 2.91   3 2.91   4 2.91   6 3.04   6 3.04   6 3.04   6 3.04
   2  0.625  0.625  0.125-   3 2.48   4 2.48   5 2.48   3 2.48   4 2.48   5 2.48   6 2.91   6 2.91
                             6 2.91   1 2.91   1 2.91   1 2.91
   3  0.625  0.125  0.625-   2 2.48   4 2.48   5 2.48   4 2.48   2 2.48   5 2.48   6 2.91   6 2.91
                             6 2.91   1 2.91   1 2.91   1 2.91
   4  0.125  0.625  0.625-   2 2.48   3 2.48   5 2.48   3 2.48   2 2.48   5 2.48   6 2.91   6 2.91
                             6 2.91   1 2.91   1 2.91   1 2.91
   5  0.625  0.625  0.625-   2 2.48   3 2.48   4 2.48   4 2.48   3 2.48   2 2.48   6 2.91   6 2.91
                             6 2.91   1 2.91   1 2.91   1 2.91
   6  0.250  0.250  0.250-   2 2.91   3 2.91   4 2.91   3 2.91   4 2.91   5 2.91   2 2.91   4 2.91
                             5 2.91   2 2.91   3 2.91   5 2.91   1 3.04   1 3.04   1 3.04   1 3.04

  LATTYP: Found a face centered cubic cell.
 ALAT       =     7.0225940000

  Lattice vectors:

 A1 = (   0.0000000000,   3.5112970000,   3.5112970000)
 A2 = (   3.5112970000,   0.0000000000,   3.5112970000)
 A3 = (   3.5112970000,   3.5112970000,   0.0000000000)

Analysis of symmetry for initial positions (statically):
 Subroutine PRICEL returns:
 Original cell was already a primitive cell.

 Routine SETGRP: Setting up the symmetry group for a
 face centered cubic supercell.

 Subroutine GETGRP returns: Found 24 space group operations
 (whereof 24 operations were pure point group operations)
 out of a pool of 48 trial point group operations.

The static configuration has the point symmetry T_d .

Analysis of symmetry for dynamics (positions and initial velocities):
 Subroutine PRICEL returns:
 Original cell was already a primitive cell.

[...]

The dynamic configuration has the point symmetry T_d .

Analysis of structural, dynamic, and magnetic symmetry:
 Subroutine PRICEL returns:
 Original cell was already a primitive cell.

 Routine SETGRP: Setting up the symmetry group for a
 face centered cubic supercell.

 Subroutine GETGRP returns: Found 24 space group operations
 (whereof 24 operations were pure point group operations)
 out of a pool of 48 trial point group operations.

The overall configuration has the point symmetry T_d .

 Subroutine INISYM returns: Found 24 space group operations
 (whereof 24 operations are pure point group operations),
 and found     1 'primitive' translations

                                     Primitive cell

  volume of cell :      86.5830

  direct lattice vectors                    reciprocal lattice vectors
     0.000000000  3.511297000  3.511297000    -0.142397524  0.142397524  0.142397524
     3.511297000  0.000000000  3.511297000     0.142397524 -0.142397524  0.142397524
     3.511297000  3.511297000  0.000000000     0.142397524  0.142397524 -0.142397524

  length of vectors
     4.965723839  4.965723839  4.965723839     0.246639747  0.246639747  0.246639747

  position of ions in fractional coordinates (direct lattice)
     0.000000000  0.000000000  0.000000000
     0.624907000  0.624907000  0.125279000
     0.624907000  0.125279000  0.624907000
     0.125279000  0.624907000  0.624907000
     0.624907000  0.624907000  0.624907000
     0.250000000  0.250000000  0.250000000

  ion indices of the primitive-cell ions
   primitive index   ion index
                 1           1
                 2           2
                 3           3
                 4           4
                 5           5
                 6           6

 KPOINTS: Kpoints from vasprun.xml

Automatic generation of k-mesh.
 Grid dimensions read from file:
 generate k-points for:    6    6    6

 Generating k-lattice:

  Cartesian coordinates                     Fractional coordinates (reciprocal lattice)
    -0.023732921  0.023732921  0.023732921     0.166666667  0.000000000  0.000000000
     0.023732921 -0.023732921  0.023732921     0.000000000  0.166666667 -0.000000000
     0.023732921  0.023732921 -0.023732921    -0.000000000 -0.000000000  0.166666667

  Length of vectors
     0.041106625  0.041106625  0.041106625

  Shift w.r.t. Gamma in fractional coordinates (k-lattice)
     0.000000000  0.000000000  0.000000000

 TETIRR: Found     35 inequivalent tetrahedra from     1296

 Subroutine IBZKPT returns following result:

 Found     16 irreducible k-points:

 Following reciprocal coordinates:
            Coordinates               Weight
  0.000000  0.000000  0.000000      1.000000
  0.166667  0.000000  0.000000      8.000000
  0.333333  0.000000  0.000000      8.000000
  0.500000  0.000000  0.000000      4.000000
  0.166667  0.166667  0.000000      6.000000
  0.333333  0.166667  0.000000     24.000000
  0.500000  0.166667  0.000000     24.000000
 -0.333333  0.166667  0.000000     24.000000
 -0.166667  0.166667  0.000000     12.000000
  0.333333  0.333333  0.000000      6.000000
  0.500000  0.333333  0.000000     24.000000
 -0.333333  0.333333  0.000000     12.000000
  0.500000  0.500000  0.000000      3.000000
  0.500000  0.333333  0.166667     24.000000
 -0.333333  0.333333  0.166667     24.000000
 -0.333333  0.500000  0.166667     12.000000

 Following cartesian coordinates:
            Coordinates               Weight
  0.000000  0.000000  0.000000      1.000000
 -0.023733  0.023733  0.023733      8.000000
 -0.047466  0.047466  0.047466      8.000000
 -0.071199  0.071199  0.071199      4.000000
  0.000000  0.000000  0.047466      6.000000
 -0.023733  0.023733  0.071199     24.000000
 -0.047466  0.047466  0.094932     24.000000
  0.071199 -0.071199 -0.023733     24.000000
  0.047466 -0.047466  0.000000     12.000000
  0.000000  0.000000  0.094932      6.000000
 -0.023733  0.023733  0.118665     24.000000
  0.094932 -0.094932  0.000000     12.000000
  0.000000  0.000000  0.142398      3.000000
  0.000000  0.047466  0.094932     24.000000
  0.118665 -0.071199 -0.023733     24.000000
  0.142398 -0.094932  0.000000     12.000000

 SYSTEM =  unknown system
 POSCAR =  Gd1 Ni4 Au1

 Startparameter for this run:
   NWRITE =      2    write-flag & timer
   PREC   = accura    normal or accurate (medium, high low for compatibility)
   ISTART =      0    job   : 0-new  1-cont  2-samecut
   ICHARG =      2    charge: 1-file 2-atom 10-const
   ISPIN  =      2    spin polarized calculation?
   LNONCOLLINEAR =      F non collinear calculations
   LSORBIT =      F    spin-orbit coupling
   INIWAV =      1    electr: 0-lowe 1-rand  2-diag
   LASPH  =      T    aspherical Exc in radial PAW
 Electronic Relaxation 1
   ENCUT  =  520.0 eV  38.22 Ry    6.18 a.u.   9.23  9.23  9.23*2*pi/ulx,y,z
   ENINI  =  520.0     initial cutoff
   ENAUG  =  703.4 eV  augmentation charge cutoff
   NELM   =   1000;   NELMIN=  2; NELMDL=  0     # of ELM steps
   EDIFF  = 0.3E-03   stopping-criterion for ELM
   LREAL  =      T    real-space projection
   NLSPLINE    = F    spline interpolate recip. space projectors
   LCOMPAT=      F    compatible to vasp.4.4
   GGA_COMPAT  = T    GGA compatible to vasp.4.4-vasp.4.6
   LMAXPAW     = -100 max onsite density
   LMAXMIX     =    2 max onsite mixed and CHGCAR
   VOSKOWN=      0    Vosko Wilk Nusair interpolation
   ROPT   =   -0.00025  -0.00025  -0.00025
 Ionic relaxation
   EDIFFG = 0.3E-02   stopping-criterion for IOM
   NSW    =      0    number of steps for IOM
[...]
  290                map_forward                           0.000174                    4   7
  291                  map_gather                            0.000042                  2   8
  292                  m_alltoallv_z                         0.000027                  2   8
  293                  map_scatter                           0.000076                  2   8
  294                map_backward                          0.000076                    2   7
  295                  map_gather                            0.000019                  1   8
  296                  m_alltoallv_z                         0.000013                  1   8
  297                  map_scatter                           0.000030                  1   8
  298          m_sumb_d                              0.000011                          2   4
  299          pothar                                0.000079                          1   4
  300            m_sumb_d                              0.000010                        1   5
  301        brmix                                 0.004838                            1   3
  302          m_sumb_d                              0.000034                          6   4
  303          brpre                                 0.000015                          2   4
  304          setg0                                 0.000502                          1   4
  305          broyd                                 0.003695                          1   4
  306            m_sumb_d                              0.000346                       50   5
  307            brget                                 0.000668                      224   5
  308            brsav                                 0.000144                       48   5
  309        m_bcast_d                             0.000018                            2   3
  310      potlok                                0.018685                              2   2
  311        fft3d_mpi                             0.012321                           36   3
  312          fftbrc_mpi                            0.010386                         36   4
  313            fftbas_plan_mpi                       0.010364                       36   5
  314              map_forward                           0.003043                     40   6
  315                map_gather                            0.001050                   24   7
  316                m_alltoallv_z                         0.000903                   24   7
  317                map_scatter                           0.000908                   24   7
  318              map_backward                          0.002553                     32   6
  319                map_gather                            0.000866                   16   7
  320                m_alltoallv_z                         0.000729                   16   7
  321                map_scatter                           0.000779                   16   7
  322              dfftw_execute                         0.003133                     30   6
  323        m_sumb_d                              0.000027                            5   3
  324        pothar                                0.000699                            2   3
  325          m_sumb_d                              0.000064                          2   4
  326        m_bcast_d                             0.001097                            4   3
  327      potlok_metagga                        0.000000                              1   2
  328      set_dd_magatom                        0.000005                              1   2
  329      set_dd_paw                            1.441245                              1   2
  330        m_sumb_d                              0.941930                            7   3
  331      augmentation_charge                   0.075871                              1   2
  332        fft3d_mpi                             0.017525                            2   3
  333          fftbrc_mpi                            0.014788                          2   4
  334            fftbas_plan_mpi                       0.014785                        2   5
  335              dfftw_execute                         0.009041                      6   6
  336              map_backward                          0.005599                      4   6
  337                map_gather                            0.001357                    2   7
  338                m_alltoallv_z                         0.003032                    2   7
  339                map_scatter                           0.001204                    2   7
  340      fftwav_mpi                            0.765481                           1728   2
  341        fftwav                                0.763362                         1728   3
  342          fft3d                                 0.729424                       1728   4
  343      densta                                0.573042                              1   2

 Flat profile

 m_sumb_d                              164.815158      450543
 eddav                                  67.805368         143
 set_dd_paw                             66.359291         141
 lapack                                 63.314964      144868
 raccmu_                                60.016567      144868
 redis_pw                               25.082823      796056
 m_alltoall_d                           14.976401     2113400
 init_acc                               11.439104           1
 phaser                                  9.334344        4784
 setdij_                                 9.333771         167
 augmentation_charge                     8.461400         140
 total_time                              7.681530           1
 eccp                                    7.088523       82368
 fft3d                                   7.002910      849613
 redis_proj                              6.698004     1003456
 fftwav                                  5.276926      559877
 orth1                                   4.559115      434700
 w1_copy                                 4.231130      869208
 racc0mu_acc                             4.212648      144868
 overl                                   4.113932      497136
 soft_charge                             3.854861         139
 dfftw_execute                           3.799394        3816
 rpromu_acc                              3.366187      105764
 densta                                  3.297951         144
 hamiltmu                                3.121749      144868
 setup_precond                           2.986837       82368
 m_bcast_z                               2.977077      147172
 acc_init_cublas                         2.430388           1
 m_bcast_d                               2.415542      290023
 overl_mu                                2.254362      144868
 ggemm                                   1.936974      186052
 pw_charge                               1.386648       53557
 vhamil                                  1.322565      289736
 kinhamil                                1.320910      289736
 depsum                                  1.291693         139
 m_alltoallv_z                           1.287651        5517
 fftext_mpi                              1.239979      289736
 newband                                 1.232009      149444
 apply_precond                           1.122365      207368
 fft3d_mpi                               0.835116      294673
 acc_init_cusolver                       0.792101           1
 fftwav_mpi                              0.753263      559877
 set_charge                              0.686869         139
 map_scatter                             0.607374        5517
 map_gather                              0.575701        5517
 rpro_isp                                0.409902         208
 potlok                                  0.379917         141
 broyd                                   0.354048         139
 fftbas_plan_mpi                         0.242719        4937
 elmin                                   0.238697           1
 lincom                                  0.171402        4608
 rspher_all                              0.142383          14
 acc_cufft_makeplan                      0.123930          19
 w1_projall                              0.113998      103684
 brmix                                   0.078979         139
 brget                                   0.075863       28148
 setg0                                   0.065068         141
 sphpro_fast                             0.045202           2
 proall                                  0.044573           1
 truncate_high_frequency_w1              0.029986      372104
 map_backward                            0.026570        5202
 map_forward                             0.025384        4672
 brsav                                   0.020350        7881
 pothar                                  0.010682         142
 choleski                                0.009363          32
 orthch                                  0.008926           1
 force_and_stress                        0.008553           1
 inisym                                  0.004778           1
 strnlr                                  0.004596           1
 fft_gq                                  0.004271         139
 fftbrc_mpi                              0.002878        4937
 brpre                                   0.002333         278
 stufak                                  0.001804           1
 fornlr                                  0.001516           1
 forhar                                  0.001290           2
 strelo                                  0.001099           1
 strehar                                 0.000881           1
 forloc                                  0.000694           1
 set_dd_magatom                          0.000631         141
 vectorpot                               0.000594         140
 strkin                                  0.000332           1
 fewald                                  0.000325           1
 chggra                                  0.000224           1
 brgrid                                  0.000109           1
 rsp                                     0.000095           1
 fordep                                  0.000056           1
 posmap                                  0.000037           2
 crpa_reader                             0.000028           1
 potlok_metagga                          0.000020         140
 rcp                                     0.000014           1
 acc_cufft_makeplans                     0.000012           3
 rotate_active_occupied_orbital          0.000001           1
 redis_pw_over_bands                     0.000000           1
  summed up times     601.3545849323273

 Accumulative profile

 total_time                            601.354585           1
 elmin                                 569.941348           1
 eddav                                 339.080314         143
 set_dd_paw                            198.059379         141
 m_sumb_d                              164.815158      450543
 hamiltmu                               75.641587      144868
 raccmu_                                66.483576      144868
 lapack                                 63.314964      144868
 redis_pw                               32.399882      796056
 set_charge                             20.100139         139
 newband                                17.274431      149444
 m_alltoall_d                           14.976401     2113400
 redis_proj                             14.357345     1003456
 setdij_                                13.292958         167
 init_acc                               11.439104           1
 fftwav_mpi                             10.969561      559877
 augmentation_charge                    10.904102         140
 fftwav                                 10.216298      559877
 fft3d_mpi                               9.466324      294673
 phaser                                  9.334344        4784
 soft_charge                             7.178020         139
 eccp                                    7.088523       82368
 fft3d                                   7.002910      849613
 fftbrc_mpi                              6.567671        4937
 fftbas_plan_mpi                         6.564793        4937
 force_and_stress                        5.201010           1
 kinhamil                                4.713696      289736
 orth1                                   4.559115      434700
 w1_copy                                 4.231130      869208
 racc0mu_acc                             4.212648      144868
 overl                                   4.113932      497136
 dfftw_execute                           3.799394        3816
 fftext_mpi                              3.392787      289736
 rpromu_acc                              3.366187      105764
 densta                                  3.297951         144
 w1_projall                              3.124348      103684
 setup_precond                           2.986837       82368
 m_bcast_z                               2.977077      147172
 acc_init_cublas                         2.430388           1
 m_bcast_d                               2.415542      290023
 overl_mu                                2.254362      144868
 ggemm                                   1.936974      186052
 pw_charge                               1.386648       53557
 vhamil                                  1.322565      289736
 depsum                                  1.305180         139
 m_alltoallv_z                           1.287651        5517
 map_backward                            1.278504        5202
 map_forward                             1.244175        4672
 strnlr                                  1.140226           1
 apply_precond                           1.122365      207368
 potlok                                  1.103870         141
 rpro_isp                                0.995746         208
 acc_init_cusolver                       0.792101           1
 brmix                                   0.640751         139
 map_scatter                             0.607374        5517
 map_gather                              0.575701        5517
 broyd                                   0.488997         139
 fordep                                  0.473912           1
 fornlr                                  0.363922           1
 orthch                                  0.292358           1
 lincom                                  0.171402        4608
 fft_gq                                  0.143622         139
 rspher_all                              0.142383          14
 acc_cufft_makeplans                     0.123942           3
 acc_cufft_makeplan                      0.123930          19
 proall                                  0.109141           1
 brget                                   0.075863       28148
 setg0                                   0.065068         141
 sphpro_fast                             0.046831           2
 truncate_high_frequency_w1              0.029986      372104
 brsav                                   0.020350        7881
 pothar                                  0.011920         142
 choleski                                0.009363          32
 inisym                                  0.004815           1
 brpre                                   0.002333         278
 stufak                                  0.001804           1
 forhar                                  0.001324           2
 strelo                                  0.001136           1
 strehar                                 0.000884           1
 chggra                                  0.000756           1
 forloc                                  0.000724           1
 set_dd_magatom                          0.000631         141
 fewald                                  0.000599           1
 vectorpot                               0.000594         140
 strkin                                  0.000343           1
 brgrid                                  0.000109           1
 rsp                                     0.000095           1
 posmap                                  0.000037           2
 crpa_reader                             0.000028           1
 potlok_metagga                          0.000020         140
 rcp                                     0.000014           1
 rotate_active_occupied_orbital          0.000001           1
 redis_pw_over_bands                     0.000000           1

Profiling took   1.832437  0.891358  0.003159  0.003073 seconds
Profiling took   1.161233 seconds