 vasp.6.3.2 27Jun22 (build Jul  3 2023 11:46:21) complex
 executed on    LinuxNV_CrayMPICH date 2024.04.22  01:05:16

 INCAR:
   ADDGRID = True
   ALGO = Normal
   EDIFF = 0.001
   ENCUT = 520.0
   IBRION = -1
   ICHARG = 0
   ISIF = 3
   ISMEAR = -5
   ISPIN = 2
   ISTART = 1
   ISYM = 0
   LAECHG = True
   LASPH = True
   LCHARG = True
   LDAU = True
   LDAUJ = 0.0 0.0 0.0 0.0
   LDAUL = 0 0 2 0
   LDAUPRINT = 1
   LDAUTYPE = 2
   LDAUU = 0.0 0.0 6.2 0.0
   LMAXMIX = 6
   LORBIT = 11
   LREAL = Auto
   LVHAR = True
   LWAVE = False
   MAGMOM = 1*0.0 3*7.0 1*0.486 1*-0.719 1*-0.264 1*0.244 1*0.033 1*0.007 1*0.045 1*0.029 1*0.001 1*0.062 1*0.032 1*-0.034 1*0.021 1*0.067 1*0.021 1*-0.052
   NELM = 1000
   NSW = 0
   PREC = Accurate
   SIGMA = 0.05

 POTCAR:    PAW_PBE La 06Sep2000
 POTCAR:    PAW_PBE Eu 23Dec2003
 POTCAR:    PAW_PBE Ni_pv 06Sep2000
 POTCAR:    PAW_PBE O 08Apr2002
 POTCAR:    PAW_PBE La 06Sep2000
   VRHFIN =La : [core=Kr4d]

   TITEL  = PAW_PBE La 06Sep2000
   POMASS =  138.900; ZVAL   =   11.000    mass and valenz
   ENMAX  =  219.292; ENMIN  =  164.469 eV

   TITEL  = PAW_PBE Eu 23Dec2003
   POMASS =  151.965; ZVAL   =   17.000    mass and valenz
   ENMAX  =  249.668; ENMIN  =  187.251 eV

   TITEL  = PAW_PBE Ni_pv 06Sep2000
   POMASS =   58.690; ZVAL   =   16.000    mass and valenz
   ENMAX  =  367.986; ENMIN  =  275.989 eV

   TITEL  = PAW_PBE O 08Apr2002
   POMASS =   16.000; ZVAL   =    6.000    mass and valenz
   ENMAX  =  400.000; ENMIN  =  300.000 eV

 Optimization of the real space projectors (new method)

 maximal supplied QI-value         = 13.42
 optimisation between [QCUT,QGAM] = [ 11.67, 23.35] = [ 38.16,152.62] Ry
 Optimized for a Real-space Cutoff    1.63 Angstroem

   l    n(q)    QCUT    max X(q) W(low)/X(q) W(high)/X(q)  e(spline)
   0     11    11.673    13.882    0.27E-04    0.79E-05    0.11E-06
   0     11    11.673    12.184    0.39E-04    0.13E-04    0.19E-06
   1     11    11.673     4.523    0.73E-05    0.76E-05    0.12E-06
   1     11    11.673     4.424    0.87E-05    0.13E-04    0.19E-06
   2     10    11.673    52.481    0.65E-04    0.36E-04    0.18E-06
   2     10    11.673    38.501    0.61E-04    0.33E-04    0.17E-06
   3     10    11.673    65.631    0.17E-03    0.14E-03    0.37E-06
   3     10    11.673    56.854    0.17E-03    0.14E-03    0.37E-06
 Optimization of the real space projectors (new method)

[...]

   l    n(q)    QCUT    max X(q) W(low)/X(q) W(high)/X(q)  e(spline)
   1      9    11.527     2.836    0.16E-04    0.30E-04    0.95E-07
   1      9    11.527     4.023    0.73E-04    0.81E-04    0.21E-06
   2      9    11.527    73.368    0.15E-03    0.29E-03    0.28E-06
   2      9    11.527    69.010    0.15E-03    0.29E-03    0.29E-06
   0      9    11.527    54.797    0.43E-04    0.28E-04    0.85E-07
   0      9    11.527    24.266    0.33E-04    0.24E-04    0.75E-07
 Optimization of the real space projectors (new method)

 maximal supplied QI-value         = 24.76
 optimisation between [QCUT,QGAM] = [ 11.64, 23.27] = [ 37.91,151.63] Ry
 Optimized for a Real-space Cutoff    1.14 Angstroem

   l    n(q)    QCUT    max X(q) W(low)/X(q) W(high)/X(q)  e(spline)
   0      8    11.635    20.381    0.10E-03    0.33E-03    0.24E-06
   0      8    11.635    15.268    0.11E-03    0.35E-03    0.26E-06
   1      7    11.635     5.964    0.24E-03    0.31E-03    0.30E-06
   1      7    11.635     5.382    0.22E-03    0.25E-03    0.26E-06
  PAW_PBE La 06Sep2000                  :
  PAW_PBE Eu 23Dec2003                  :
  PAW_PBE Ni_pv 06Sep2000               :
  PAW_PBE O 08Apr2002                   :

 POSCAR: La1 Eu3 Ni4 O12
  positions in direct lattice
 exchange correlation table for  LEXCH =        8
   RHO(1)=    0.500       N(1)  =     2000
   RHO(2)=  100.500       N(2)  =     4000

 VTST: version 4.2, (08/11/21)

 CHAIN: initializing optimizer

 OPT: Using VASP Dynamics algorithm
 CHAIN: Read ICHAIN             0

 POSCAR: La1 Eu3 Ni4 O12
  positions in direct lattice

 ion  position               nearest neighbor table
   1  0.508  0.540  0.250-  10 2.40  14 2.41  20 2.41   9 2.52  19 2.61  13 2.61  16 2.71  18 2.71

   2  0.991  0.045  0.250-   9 2.34  13 2.36  19 2.36  10 2.43  14 2.58  20 2.58  15 2.69  17 2.69

[...]

   5  0.000  0.500  0.998-  12 1.95  10 1.96  20 1.97  16 1.97  17 1.99  13 2.00
   6  0.500  1.000  0.501-  11 1.96  14 1.97  18 1.97   9 1.97  19 1.98  15 1.98
   7  0.000  0.500  0.502-  12 1.95  10 1.96  14 1.97  18 1.97  15 1.99  19 2.00
   8  0.500  1.000  0.999-  11 1.96  20 1.97  16 1.97   9 1.97  13 1.98  17 1.98
   9  0.417  0.991  0.250-   6 1.97   8 1.97   2 2.34   1 2.52
  10  0.071  0.483  0.250-   5 1.96   7 1.96   1 2.40   2 2.43
  11  0.582  0.017  0.750-   6 1.96   8 1.96   4 2.35   3 2.44
  12  0.918  0.517  0.750-   5 1.95   7 1.95   3 2.34   4 2.44
  13  0.792  0.794  0.042-   8 1.98   5 2.00   2 2.36   1 2.61   4 2.67
  14  0.714  0.286  0.462-   6 1.97   7 1.97   1 2.41   2 2.58   3 2.68
  15  0.211  0.209  0.543-   6 1.98   7 1.99   4 2.37   3 2.57   2 2.69
  16  0.290  0.710  0.955-   8 1.97   5 1.97   3 2.37   4 2.57   1 2.71
  17  0.211  0.209  0.957-   8 1.98   5 1.99   4 2.37   3 2.57   2 2.69
  18  0.290  0.710  0.545-   6 1.97   7 1.97   3 2.37   4 2.57   1 2.71
  19  0.792  0.794  0.458-   6 1.98   7 2.00   2 2.36   1 2.61   4 2.67
  20  0.714  0.286  0.038-   8 1.97   5 1.97   1 2.41   2 2.58   3 2.68

IMPORTANT INFORMATION: All symmetrisations will be switched off!
NOSYMM: (Re-)initialisation of all symmetry stuff for point group C_1.

                                     Primitive cell

  volume of cell :     227.1868

  direct lattice vectors                    reciprocal lattice vectors
     5.437967000 -0.013266000  0.000000000     0.183893359  0.000453560 -0.000000000
    -0.013477000  5.464173000  0.000000000     0.000446459  0.183011412 -0.000000000
     0.000000000  0.000000000  7.645830000    -0.000000000 -0.000000000  0.130790248

  length of vectors
     5.437983181  5.464189620  7.645830000     0.183893918  0.183011957  0.130790248

  position of ions in fractional coordinates (direct lattice)
     0.507973000  0.539661000  0.250000000
     0.991159000  0.044635000  0.250000000
     0.491235000  0.454320000  0.750000000
     0.008745000  0.954872000  0.750000000
     0.000085000  0.500451000  0.998327000
     0.500130000  0.999654000  0.501314000
     0.000085000  0.500451000  0.501673000
     0.500130000  0.999654000  0.998686000
     0.417008000  0.991238000  0.250000000
     0.070908000  0.482874000  0.250000000
     0.582119000  0.016630000  0.750000000
     0.917518000  0.516942000  0.750000000
     0.791549000  0.793844000  0.041817000
     0.713502000  0.286141000  0.461611000
     0.210911000  0.209207000  0.543008000
     0.290492000  0.710117000  0.954907000
     0.210911000  0.209207000  0.956992000
     0.290492000  0.710117000  0.545093000
     0.791549000  0.793844000  0.458183000
     0.713502000  0.286141000  0.038389000

  ion indices of the primitive-cell ions
   primitive index   ion index
                 1           1
                 2           2
                 3           3
                 4           4
                 5           5
                 6           6
                 7           7
                 8           8
                 9           9
                10          10
                11          11
                12          12
                13          13
                14          14
                15          15
                16          16
                17          17
                18          18
                19          19
                20          20

 KPOINTS: Kpoints from vasprun.xml

Automatic generation of k-mesh.
 Grid dimensions read from file:
 generate k-points for:    5    5    3

 Generating k-lattice:

  Cartesian coordinates                     Fractional coordinates (reciprocal lattice)
     0.036778672  0.000090712 -0.000000000     0.200000000 -0.000000000  0.000000000
     0.000089292  0.036602282 -0.000000000    -0.000000000  0.200000000  0.000000000
    -0.000000000 -0.000000000  0.043596749     0.000000000  0.000000000  0.333333333

  Length of vectors
     0.036778784  0.036602391  0.043596749

  Shift w.r.t. Gamma in fractional coordinates (k-lattice)
     0.000000000  0.000000000  0.000000000

 TETIRR: Found    222 inequivalent tetrahedra from      450

 Subroutine IBZKPT returns following result:

 Found     38 irreducible k-points:

 Following reciprocal coordinates:
            Coordinates               Weight
  0.000000  0.000000  0.000000      1.000000
  0.200000  0.000000  0.000000      2.000000
  0.400000  0.000000  0.000000      2.000000
  0.000000  0.200000  0.000000      2.000000
  0.200000  0.200000  0.000000      2.000000
  0.400000  0.200000  0.000000      2.000000
 -0.400000  0.200000  0.000000      2.000000
 -0.200000  0.200000  0.000000      2.000000
  0.000000  0.400000  0.000000      2.000000
  0.200000  0.400000  0.000000      2.000000
  0.400000  0.400000  0.000000      2.000000
 -0.400000  0.400000  0.000000      2.000000
 -0.200000  0.400000  0.000000      2.000000
  0.000000  0.000000  0.333333      2.000000
  0.200000  0.000000  0.333333      2.000000
 -0.200000  0.000000  0.333333      2.000000
  0.400000  0.000000  0.333333      2.000000
 -0.400000  0.000000  0.333333      2.000000
  0.000000  0.200000  0.333333      2.000000
  0.000000 -0.200000  0.333333      2.000000
  0.200000  0.200000  0.333333      2.000000
 -0.200000 -0.200000  0.333333      2.000000
  0.400000  0.200000  0.333333      2.000000
 -0.400000 -0.200000  0.333333      2.000000
 -0.400000  0.200000  0.333333      2.000000
  0.400000 -0.200000  0.333333      2.000000
 -0.200000  0.200000  0.333333      2.000000
  0.200000 -0.200000  0.333333      2.000000
  0.000000  0.400000  0.333333      2.000000
  0.000000 -0.400000  0.333333      2.000000
  0.200000  0.400000  0.333333      2.000000
 -0.200000 -0.400000  0.333333      2.000000
  0.400000  0.400000  0.333333      2.000000
 -0.400000 -0.400000  0.333333      2.000000
 -0.400000  0.400000  0.333333      2.000000
  0.400000 -0.400000  0.333333      2.000000
 -0.200000  0.400000  0.333333      2.000000
  0.200000 -0.400000  0.333333      2.000000

 Following cartesian coordinates:
            Coordinates               Weight
  0.000000  0.000000  0.000000      1.000000
  0.036779  0.000091  0.000000      2.000000
  0.073557  0.000181  0.000000      2.000000
  0.000089  0.036602  0.000000      2.000000
  0.036868  0.036693  0.000000      2.000000
  0.073647  0.036784  0.000000      2.000000
 -0.073468  0.036421  0.000000      2.000000
 -0.036689  0.036512  0.000000      2.000000
  0.000179  0.073205  0.000000      2.000000
  0.036957  0.073295  0.000000      2.000000
  0.073736  0.073386  0.000000      2.000000
 -0.073379  0.073023  0.000000      2.000000
 -0.036600  0.073114  0.000000      2.000000
  0.000000  0.000000  0.043597      2.000000
  0.036779  0.000091  0.043597      2.000000
 -0.036779 -0.000091  0.043597      2.000000
  0.073557  0.000181  0.043597      2.000000
 -0.073557 -0.000181  0.043597      2.000000
[...]
  280        strehar                               0.001163                            1   3
  281          m_sumb_d                              0.000046                          1   4
  282        chggra                                0.000812                            1   3
  283          fft3d_mpi                             0.000485                          3   4
  284            fftbrc_mpi                            0.000389                        3   5
  285              fftbas_plan_mpi                       0.000387                      3   6
  286                map_forward                           0.000194                    4   7
  287                  map_gather                            0.000044                  2   8
  288                  m_alltoallv_z                         0.000027                  2   8
  289                  map_scatter                           0.000095                  2   8
  290                map_backward                          0.000107                    2   7
  291                  map_gather                            0.000034                  1   8
  292                  m_alltoallv_z                         0.000013                  1   8
  293                  map_scatter                           0.000033                  1   8
  294          m_sumb_d                              0.000011                          2   4
  295          pothar                                0.000083                          1   4
  296            m_sumb_d                              0.000012                        1   5
  297        brmix                                 0.006459                            1   3
  298          m_sumb_d                              0.000038                          6   4
  299          brpre                                 0.000026                          2   4
  300          setg0                                 0.000719                          1   4
  301          broyd                                 0.004852                          1   4
  302            m_sumb_d                              0.000396                       43   5
  303            brget                                 0.000981                      189   5
  304            brsav                                 0.000209                       41   5
  305        m_bcast_d                             0.000024                            2   3
  306      potlok                                0.028581                              2   2
  307        fft3d_mpi                             0.017874                           36   3
  308          fftbrc_mpi                            0.015239                         36   4
  309            fftbas_plan_mpi                       0.015223                       36   5
  310              map_forward                           0.004389                     40   6
  311                map_gather                            0.001419                   24   7
  312                m_alltoallv_z                         0.001598                   24   7
  313                map_scatter                           0.001189                   24   7
  314              map_backward                          0.003648                     32   6
  315                map_gather                            0.001121                   16   7
  316                m_alltoallv_z                         0.001283                   16   7
  317                map_scatter                           0.001070                   16   7
  318              dfftw_execute                         0.005489                     30   6
  319        m_sumb_d                              0.000025                            5   3
  320        pothar                                0.000983                            2   3
  321          m_sumb_d                              0.000041                          2   4
  322        m_bcast_d                             0.001724                            4   3
  323      potlok_metagga                        0.000001                              1   2
  324      set_dd_magatom                        0.000004                              1   2
  325      set_dd_paw                            2.058049                              1   2
  326        m_sumb_d                              0.010328                            7   3
  327      augmentation_charge                   0.097103                              1   2
  328        fft3d_mpi                             0.028170                            2   3
  329          fftbrc_mpi                            0.025225                          2   4
  330            fftbas_plan_mpi                       0.025222                        2   5
  331              dfftw_execute                         0.017142                      6   6
  332              map_backward                          0.007868                      4   6
  333                map_gather                            0.001938                    2   7
  334                m_alltoallv_z                         0.003784                    2   7
  335                map_scatter                           0.002139                    2   7
  336      densta                               11.300091                              1   2

 Flat profile

 eddav                                  86.608532          41
 lapack                                 82.293994      176559
 set_dd_paw                             79.821236          39
 raccmu_                                66.695957      176559
 m_sumb_d                               62.807945      536425
 redis_pw                               38.098545      966026
 densta                                 19.930574          42
 m_alltoall_d                           18.096493     2583698
 init_acc                               11.301895           1
 total_time                             11.212005           1
 phaser                                 10.008558        3610
 eccp                                    9.438446       99712
 redis_proj                              8.214859     1219508
 fft3d                                   7.866871     1061951
 fftwav                                  6.927368      708833
 orth1                                   5.538981      529981
 racc0mu_acc                             5.225350      176559
 rpromu_acc                              5.217506      134607
 w1_copy                                 5.206200     1059354
 overl                                   5.080996      606600
 hamiltmu                                4.381013      176559
 m_bcast_z                               4.248806      186287
 setdij_                                 3.975964          65
 soft_charge                             3.840911          37
 setup_precond                           3.582725       99712
 m_bcast_d                               2.891414      353201
 overl_mu                                2.741420      176559
 augmentation_charge                     2.501907          38
 acc_init_cublas                         2.471482           1
 ggemm                                   2.300640      226415
 dfftw_execute                           2.290031        1308
 pw_charge                               1.908327       70693
 kinhamil                                1.609292      353118
 vhamil                                  1.602027      353118
 rpro_isp                                1.567256         494
 newband                                 1.502083      179675
 depsum                                  1.460403          37
 fftext_mpi                              1.451641      353118
 apply_precond                           1.391715      253406
 fftwav_mpi                              0.900244      708833
 acc_init_cusolver                       0.793117           1
 m_alltoallv_z                           0.669775        1601
 fft3d_mpi                               0.456321      354567
 sphpro_fast                             0.411252           2
 map_scatter                             0.295388        1601
 map_gather                              0.281243        1601
 rspher_all                              0.190821          14
 acc_cufft_makeplan                      0.155632          19
 potlok                                  0.140050          39
 elmin                                   0.138123           1
 lincom                                  0.121042        3192
 w1_projall                              0.120670      126703
 fftbas_plan_mpi                         0.094344        1449
 proall                                  0.088544           1
 orthch                                  0.051085           1
 broyd                                   0.048274          37
 truncate_high_frequency_w1              0.036069      452830
 brmix                                   0.031702          37
 setg0                                   0.026824          39
 force_and_stress                        0.025379           1
 choleski                                0.023029          76
 brget                                   0.018309        3657
 strnlr                                  0.012557           1
 set_charge                              0.009476          37
 map_backward                            0.007635        1518
 map_forward                             0.007440        1380
 stufak                                  0.007298           1
 fornlr                                  0.004341           1
 brsav                                   0.004276         858
 pothar                                  0.003765          40
 forhar                                  0.002446           2
 strkin                                  0.001770           1
 strelo                                  0.001554           1
 fft_gq                                  0.001293          37
 forloc                                  0.001291           1
 strehar                                 0.001117           1
 brpre                                   0.000932          74
 fftbrc_mpi                              0.000861        1449
 rsp                                     0.000528           1
 fewald                                  0.000360           1
 chggra                                  0.000233           1
 set_dd_magatom                          0.000177          39
 vectorpot                               0.000166          38
 brgrid                                  0.000160           1
 fordep                                  0.000104           1
 rcp                                     0.000031           1
 crpa_reader                             0.000028           1
 acc_cufft_makeplans                     0.000009           3
 potlok_metagga                          0.000006          38
 rotate_active_occupied_orbital          0.000000           1
 redis_pw_over_bands                     0.000000           1
  summed up times     598.4984560012817

 Accumulative profile

 total_time                            598.498456           1
 elmin                                 546.268158           1
 eddav                                 444.498926          41
 hamiltmu                               86.306767      176559
 lapack                                 82.293994      176559
 set_dd_paw                             80.399508          39
 raccmu_                                74.662727      176559
 m_sumb_d                               62.807945      536425
 redis_pw                               46.992225      966026
 newband                                22.239004      179675
 densta                                 19.930574          42
 m_alltoall_d                           18.096493     2583698
 redis_proj                             17.417672     1219508
 fftwav_mpi                             13.199082      708833
 set_charge                             13.032549          37
 fftwav                                 12.298838      708833
 init_acc                               11.301895           1
 force_and_stress                       10.622849           1
 phaser                                 10.008558        3610
 eccp                                    9.438446       99712
 soft_charge                             8.028275          37
 fft3d                                   7.866871     1061951
 fft3d_mpi                               6.598439      354567
 setdij_                                 6.391702          65
 kinhamil                                5.661000      353118
 orth1                                   5.538981      529981
 racc0mu_acc                             5.225350      176559
 rpromu_acc                              5.217506      134607
 w1_copy                                 5.206200     1059354
 overl                                   5.080996      606600
 m_bcast_z                               4.248806      186287
 strnlr                                  4.083215           1
 rpro_isp                                4.074154         494
 fftext_mpi                              4.051709      353118
 w1_projall                              3.778430      126703
 fftbrc_mpi                              3.646717        1449
 fftbas_plan_mpi                         3.645856        1449
 augmentation_charge                     3.622888          38
 setup_precond                           3.582725       99712
 m_bcast_d                               2.891414      353201
 overl_mu                                2.741420      176559
 acc_init_cublas                         2.471482           1
 ggemm                                   2.300640      226415
 dfftw_execute                           2.290031        1308
 pw_charge                               1.908327       70693
 vhamil                                  1.602027      353118
 depsum                                  1.469013          37
 apply_precond                           1.391715      253406
 fornlr                                  1.364804           1
 acc_init_cusolver                       0.793117           1
 map_forward                             0.729921        1380
 m_alltoallv_z                           0.669775        1601
 fordep                                  0.592005           1
 map_backward                            0.531560        1518
 orthch                                  0.501851           1
 potlok                                  0.451886          39
 sphpro_fast                             0.427209           2
 proall                                  0.316528           1
 map_scatter                             0.295388        1601
 map_gather                              0.281243        1601
 rspher_all                              0.190821          14
 acc_cufft_makeplans                     0.155641           3
 acc_cufft_makeplan                      0.155632          19
 brmix                                   0.140237          37
 lincom                                  0.121042        3192
 broyd                                   0.078877          37
 fft_gq                                  0.054326          37
 truncate_high_frequency_w1              0.036069      452830
 setg0                                   0.026824          39
 choleski                                0.023029          76
 brget                                   0.018309        3657
 stufak                                  0.007298           1
 brsav                                   0.004276         858
 pothar                                  0.004155          40
 forhar                                  0.002509           2
 fewald                                  0.001904           1
 strkin                                  0.001779           1
 strelo                                  0.001583           1
 forloc                                  0.001330           1
 strehar                                 0.001163           1
 brpre                                   0.000932          74
 chggra                                  0.000812           1
 rsp                                     0.000528           1
 set_dd_magatom                          0.000177          39
 vectorpot                               0.000166          38
 brgrid                                  0.000160           1
 rcp                                     0.000031           1
 crpa_reader                             0.000028           1
 potlok_metagga                          0.000006          38
 rotate_active_occupied_orbital          0.000000           1
 redis_pw_over_bands                     0.000000           1

Profiling took   2.210167  1.089829  0.003199  0.003122 seconds
Profiling took   1.383084 seconds