 vasp.6.3.2 27Jun22 (build Jul  3 2023 11:46:21) complex
 executed on    LinuxNV_CrayMPICH date 2024.04.21  03:34:03

 INCAR:
   ADDGRID = True
   ALGO = Normal
   EDIFF = 0.0012
   ENCUT = 520.0
   IBRION = -1
   ICHARG = 0
   ISIF = 3
   ISMEAR = -5
   ISPIN = 2
   KPOINT_BSE = -1 0 0 0
   LAECHG = True
   LASPH = True
   LCHARG = True
   LDAU = True
   LDAUJ = 0.0 0.0 0.0 0.0
   LDAUL = 0 0 2 0
   LDAUPRINT = 1
   LDAUTYPE = 2
   LDAUU = 0.0 0.0 4.38 0.0
   LELF = True
   LMAXMIX = 6
   LORBIT = 11
   LREAL = Auto
   LVHAR = True
   LWAVE = False
   MAGMOM = 2*0.6 2*7.0 4*5.0 16*0.6
   NELM = 1000
   NSW = 0
   PREC = accurate
   SIGMA = 0.05

 POTCAR:    PAW_PBE K_sv 06Sep2000
 POTCAR:    PAW_PBE Gd 23Dec2003
 POTCAR:    PAW_PBE Mo_pv 04Feb2005
 POTCAR:    PAW_PBE O 08Apr2002
 POTCAR:    PAW_PBE K_sv 06Sep2000
   VRHFIN =K:  3s3p4s

   TITEL  = PAW_PBE K_sv 06Sep2000
   POMASS =   39.098; ZVAL   =    9.000    mass and valenz
   ENMAX  =  259.264; ENMIN  =  194.448 eV

   TITEL  = PAW_PBE Gd 23Dec2003
   POMASS =  157.250; ZVAL   =   18.000    mass and valenz
   ENMAX  =  256.472; ENMIN  =  192.354 eV

   TITEL  = PAW_PBE Mo_pv 04Feb2005
   POMASS =   95.940; ZVAL   =   12.000    mass and valenz
   ENMAX  =  224.584; ENMIN  =  168.438 eV

   TITEL  = PAW_PBE O 08Apr2002
   POMASS =   16.000; ZVAL   =    6.000    mass and valenz
   ENMAX  =  400.000; ENMIN  =  300.000 eV

 Optimization of the real space projectors (new method)

 maximal supplied QI-value         = 16.25
 optimisation between [QCUT,QGAM] = [ 11.54, 23.24] = [ 37.28,151.24] Ry
 Optimized for a Real-space Cutoff    1.32 Angstroem

   l    n(q)    QCUT    max X(q) W(low)/X(q) W(high)/X(q)  e(spline)
   0      9    11.539    11.234    0.52E-04    0.40E-04    0.14E-07
   0      9    11.539    12.505    0.97E-04    0.77E-04    0.27E-07
   1      9    11.539   167.359    0.18E-03    0.11E-02    0.48E-06
   1      9    11.539   168.875    0.18E-03    0.11E-02    0.48E-06
   2      8    11.539     3.435    0.16E-03    0.11E-03    0.38E-07
 Optimization of the real space projectors (new method)

[...]

   l    n(q)    QCUT    max X(q) W(low)/X(q) W(high)/X(q)  e(spline)
   1     11    11.607     4.274    0.94E-05    0.70E-04    0.79E-06
   1     11    11.607     7.035    0.16E-04    0.12E-03    0.14E-05
   2     11    11.607    64.474    0.17E-03    0.12E-03    0.48E-06
   2     11    11.607    61.199    0.17E-03    0.12E-03    0.48E-06
   0     12    11.607    31.789    0.39E-04    0.85E-05    0.14E-06
   0     12    11.607    13.589    0.21E-04    0.62E-05    0.11E-06
 Optimization of the real space projectors (new method)

 maximal supplied QI-value         = 24.76
 optimisation between [QCUT,QGAM] = [ 11.64, 23.27] = [ 37.91,151.63] Ry
 Optimized for a Real-space Cutoff    1.14 Angstroem

   l    n(q)    QCUT    max X(q) W(low)/X(q) W(high)/X(q)  e(spline)
   0      8    11.635    20.381    0.10E-03    0.33E-03    0.24E-06
   0      8    11.635    15.268    0.11E-03    0.35E-03    0.26E-06
   1      7    11.635     5.964    0.24E-03    0.31E-03    0.30E-06
   1      7    11.635     5.382    0.22E-03    0.25E-03    0.26E-06
  PAW_PBE K_sv 06Sep2000                :
  PAW_PBE Gd 23Dec2003                  :
  PAW_PBE Mo_pv 04Feb2005               :
  PAW_PBE O 08Apr2002                   :

 POSCAR: K2 Gd2 Mo4 O16
  positions in direct lattice
 exchange correlation table for  LEXCH =        8
   RHO(1)=    0.500       N(1)  =     2000
   RHO(2)=  100.500       N(2)  =     4000

 VTST: version 4.2, (08/11/21)

 CHAIN: initializing optimizer

 OPT: Using VASP Dynamics algorithm
 CHAIN: Read ICHAIN             0

 POSCAR: K2 Gd2 Mo4 O16
  positions in direct lattice

 ion  position               nearest neighbor table
   1  0.810  0.695  0.557-  24 2.33  17 2.55   9 2.76  15 2.87   2 3.08   7 3.23   8 3.30   5 3.32

   2  0.190  0.305  0.443-  23 2.33  18 2.55  10 2.76  16 2.87   1 3.08   8 3.23   7 3.30   6 3.32

   3  0.693  0.815  0.938-  15 2.00  17 2.17  14 2.20  12 2.45  11 2.64  20 2.76   7 2.90   6 2.98
                             5 3.00   4 3.04
   4  0.307  0.185  0.062-  16 2.00  18 2.17  13 2.20  11 2.45  12 2.64  19 2.76   8 2.90   5 2.98
                             6 3.00   3 3.04
   5  0.043  0.429  0.830-  15 1.37   9 1.72  13 2.08  19 2.38  11 2.71   7 2.97   4 2.98   3 3.00
                             1 3.32
   6  0.957  0.571  0.170-  16 1.37  10 1.72  14 2.08  20 2.38  12 2.71   8 2.97   3 2.98   4 3.00
                             2 3.32
   7  0.425  0.061  0.717-  17 1.26  19 1.89  23 1.97   9 2.27  21 2.59   3 2.90   5 2.97   1 3.23
                             2 3.30
   8  0.575  0.939  0.283-  18 1.26  20 1.89  24 1.97  10 2.27  22 2.59   4 2.90   6 2.97   2 3.23
                             1 3.30
   9  0.236  0.414  0.681-   5 1.72   7 2.27   1 2.76
  10  0.764  0.586  0.319-   6 1.72   8 2.27   2 2.76
  11  0.727  0.187  0.915-   4 2.45   3 2.64   5 2.71
  12  0.273  0.813  0.085-   3 2.45   4 2.64   6 2.71
  13  0.287  0.484  0.932-   5 2.08   4 2.20
  14  0.713  0.516  0.068-   6 2.08   3 2.20
  15  0.943  0.642  0.808-   5 1.37   3 2.00   1 2.87
  16  0.057  0.358  0.192-   6 1.37   4 2.00   2 2.87
  17  0.574  0.875  0.751-   7 1.26   3 2.17   1 2.55
  18  0.426  0.125  0.249-   8 1.26   4 2.17   2 2.55
  19  0.174  0.059  0.872-   7 1.89   5 2.38   4 2.76
  20  0.826  0.941  0.128-   8 1.89   6 2.38   3 2.76
  21  0.709  0.305  0.654-   7 2.59
  22  0.291  0.695  0.346-   8 2.59
  23  0.252  1.000  0.597-   7 1.97   2 2.33
  24  0.748  0.000  0.403-   8 1.97   1 2.33

  LATTYP: Found a triclinic cell.
 ALAT       =     7.0437313572
 B/A-ratio  =     1.8977540708
 C/A-ratio  =     0.7625644318
 COS(alpha) =     0.0161659787
 COS(beta)  =     0.3811543717
 COS(gamma) =     0.5877631831

  Lattice vectors:

 A1 = (   2.6847490000,  -6.5120100000,   0.0000000000)
 A2 = (   0.2160950000,  -8.4092240000, -10.3885590000)
 A3 = (   5.3712990000,   0.0000000000,   0.0000000000)

Analysis of symmetry for initial positions (statically):
 Subroutine PRICEL returns:
 Original cell was already a primitive cell.

 Routine SETGRP: Setting up the symmetry group for a
 triclinic supercell.

 Subroutine GETGRP returns: Found  2 space group operations
 (whereof  2 operations were pure point group operations)
 out of a pool of  2 trial point group operations.

The static configuration has the point symmetry S_2 .

Analysis of symmetry for dynamics (positions and initial velocities):
 Subroutine PRICEL returns:
 Original cell was already a primitive cell.

[...]

The dynamic configuration has the point symmetry S_2 .

Analysis of structural, dynamic, and magnetic symmetry:
 Subroutine PRICEL returns:
 Original cell was already a primitive cell.

 Routine SETGRP: Setting up the symmetry group for a
 triclinic supercell.

 Subroutine GETGRP returns: Found  2 space group operations
 (whereof  2 operations were pure point group operations)
 out of a pool of  2 trial point group operations.

The overall configuration has the point symmetry S_2 .

 Subroutine INISYM returns: Found  2 space group operations
 (whereof  2 operations are pure point group operations),
 and found     1 'primitive' translations

                                     Primitive cell

  volume of cell :     363.3705

  direct lattice vectors                    reciprocal lattice vectors
     5.371299000  0.000000000  0.000000000     0.186174704 -0.076806954 -0.030214171
     2.686550000  6.512010000  0.000000000     0.000000000  0.153562418 -0.028044387
     2.468654000  1.897214000 10.388559000     0.000000000  0.000000000  0.096259741

  length of vectors
     5.371299000  7.044418013 10.845083293     0.203649760  0.156102222  0.096259741

  position of ions in fractional coordinates (direct lattice)
     0.809932000  0.695279000  0.556858000
     0.190068000  0.304721000  0.443142000
     0.693479000  0.814958000  0.938182000
     0.306521000  0.185042000  0.061818000
     0.043381000  0.428624000  0.830308000
     0.956619000  0.571376000  0.169692000
     0.424744000  0.060769000  0.717257000
     0.575256000  0.939231000  0.282743000
     0.235848000  0.413503000  0.680972000
     0.764152000  0.586497000  0.319028000
     0.726537000  0.187328000  0.915493000
     0.273463000  0.812672000  0.084507000
     0.287344000  0.483584000  0.931754000
     0.712656000  0.516416000  0.068246000
     0.943116000  0.641712000  0.808282000
     0.056884000  0.358288000  0.191718000
     0.574417000  0.875241000  0.750500000
     0.425583000  0.124759000  0.249500000
     0.174122000  0.058749000  0.871585000
     0.825878000  0.941251000  0.128415000
     0.708982000  0.304741000  0.653932000
     0.291018000  0.695259000  0.346068000
     0.252480000  0.999522000  0.596976000
     0.747520000  0.000478000  0.403024000

  ion indices of the primitive-cell ions
   primitive index   ion index
                 1           1
                 2           2
                 3           3
                 4           4
                 5           5
                 6           6
                 7           7
                 8           8
                 9           9
                10          10
                11          11
                12          12
                13          13
                14          14
                15          15
                16          16
                17          17
                18          18
                19          19
                20          20
                21          21
                22          22
                23          23
                24          24

 KPOINTS: Kpoints from vasprun.xml

Automatic generation of k-mesh.
 Grid dimensions read from file:
 generate k-points for:    5    4    2

 Generating k-lattice:

  Cartesian coordinates                     Fractional coordinates (reciprocal lattice)
     0.037234941 -0.015361391 -0.006042834     0.200000000  0.000000000 -0.000000000
     0.000000000  0.038390604 -0.007011097     0.000000000  0.250000000 -0.000000000
     0.000000000  0.000000000  0.048129871     0.000000000  0.000000000  0.500000000

  Length of vectors
     0.040729952  0.039025556  0.048129871

  Shift w.r.t. Gamma in fractional coordinates (k-lattice)
     0.000000000  0.000000000  0.000000000

 TETIRR: Found    120 inequivalent tetrahedra from      240

 Subroutine IBZKPT returns following result:

 Found     22 irreducible k-points:

 Following reciprocal coordinates:
            Coordinates               Weight
  0.000000  0.000000  0.000000      1.000000
  0.200000  0.000000  0.000000      2.000000
  0.400000  0.000000  0.000000      2.000000
  0.000000  0.250000  0.000000      2.000000
  0.200000  0.250000  0.000000      2.000000
  0.400000  0.250000  0.000000      2.000000
 -0.400000  0.250000  0.000000      2.000000
 -0.200000  0.250000  0.000000      2.000000
  0.000000  0.500000  0.000000      1.000000
  0.200000  0.500000  0.000000      2.000000
  0.400000  0.500000  0.000000      2.000000
  0.000000  0.000000  0.500000      1.000000
  0.200000  0.000000  0.500000      2.000000
  0.400000  0.000000  0.500000      2.000000
[...]
  318                map_forward                           0.000211                    4   7
  319                  map_gather                            0.000049                  2   8
  320                  m_alltoallv_z                         0.000026                  2   8
  321                  map_scatter                           0.000103                  2   8
  322                map_backward                          0.000103                    2   7
  323                  map_gather                            0.000024                  1   8
  324                  m_alltoallv_z                         0.000011                  1   8
  325                  map_scatter                           0.000050                  1   8
  326          m_sumb_d                              0.000009                          2   4
  327          pothar                                0.000080                          1   4
  328            m_sumb_d                              0.000004                        1   5
  329        brmix                                 0.011955                            1   3
  330          m_sumb_d                              0.000043                          6   4
  331          brpre                                 0.000032                          2   4
  332          setg0                                 0.001260                          1   4
  333          broyd                                 0.009135                          1   4
  334            brget                                 0.002476                      326   5
  335            brsav                                 0.001140                      163   5
  336            m_sumb_d                              0.000274                       47   5
  337        m_bcast_d                             0.000024                            2   3
  338      potlok                                0.045342                              2   2
  339        fft3d_mpi                             0.027246                           36   3
  340          fftbrc_mpi                            0.022980                         36   4
  341            fftbas_plan_mpi                       0.022959                       36   5
  342              map_forward                           0.006713                     40   6
  343                map_gather                            0.002084                   24   7
  344                m_alltoallv_z                         0.002522                   24   7
  345                map_scatter                           0.001896                   24   7
  346              map_backward                          0.005648                     32   6
  347                map_gather                            0.001932                   16   7
  348                m_alltoallv_z                         0.001857                   16   7
  349                map_scatter                           0.001636                   16   7
  350              dfftw_execute                         0.008911                     30   6
  351        m_sumb_d                              0.000028                            5   3
  352        pothar                                0.001817                            2   3
  353          m_sumb_d                              0.000151                          2   4
  354        m_bcast_d                             0.003091                            4   3
  355      potlok_metagga                        0.000000                              1   2
  356      set_dd_magatom                        0.000004                              1   2
  357      set_dd_paw                            2.273421                              1   2
  358        m_sumb_d                              0.000362                            7   3
  359      augmentation_charge                   0.148854                              1   2
  360        fft3d_mpi                             0.063841                            2   3
  361          fftbrc_mpi                            0.057947                          2   4
  362            fftbas_plan_mpi                       0.057943                        2   5
  363              dfftw_execute                         0.035868                      6   6
  364              map_backward                          0.021807                      4   6
  365                map_gather                            0.006331                    2   7
  366                m_alltoallv_z                         0.009556                    2   7
  367                map_scatter                           0.005909                    2   7
  368      fftwav_mpi                            5.592031                           4620   2
  369        fftwav                                5.586201                         4620   3
  370          fft3d                                 5.152210                       4620   4
  371      densta                                7.411959                              1   2

 Flat profile

 set_dd_paw                            211.797750          93
 eddav                                 150.229393          95
 lapack                                138.279668      296603
 raccmu_                               138.251652      296603
 m_sumb_d                              120.106031      902746
 redis_pw                               68.007307     1580047
 m_alltoall_d                           29.363148     4162431
 fft3d                                  19.187648     1698667
 phaser                                 18.222446        4466
 densta                                 17.467390          96
 eccp                                   15.133061      146300
 total_time                             14.776636           1
 redis_proj                             13.430908     2006424
 orth1                                  12.246956      890029
 init_acc                               11.489472           1
 fftwav                                 11.229454     1126034
 setdij_                                 9.459632         119
 dfftw_execute                           8.830251        2676
 hamiltmu                                8.680272      296603
 racc0mu_acc                             8.630595      296603
 w1_copy                                 8.427725     1717899
 overl                                   8.381012      999010
 augmentation_charge                     7.899168          93
 rpromu_acc                              7.488979      226511
 m_bcast_z                               6.888084      302763
 soft_charge                             5.892350          92
 setup_precond                           5.342123      146300
 m_bcast_d                               4.782525      593397
 ggemm                                   4.698252      371843
 overl_mu                                4.595601      296603
 pw_charge                               3.326723      102428
 kinhamil                                2.674980      572633
 vhamil                                  2.658119      572633
 fftext_mpi                              2.482324      572633
 acc_init_cublas                         2.448150           1
 apply_precond                           2.353294      426333
 newband                                 2.301850      300783
 depsum                                  2.295748          92
 m_alltoallv_z                           2.098560        3699
 fft3d_mpi                               1.729868      575942
 map_scatter                             1.646285        3699
 fftwav_mpi                              1.506231     1126034
 map_gather                              1.242426        3699
 set_charge                              1.140854          92
 rpro_isp                                1.019536         286
 acc_init_cusolver                       0.787712           1
 broyd                                   0.459199          91
 potlok                                  0.457708          93
 sphpro_fast                             0.289423           2
 elmin                                   0.265068           1
 rspher_all                              0.237709          14
 brmix                                   0.231397          91
 w1_projall                              0.218618      221363
 fftbas_plan_mpi                         0.187829        3309
 lincom                                  0.153326        4224
 acc_cufft_makeplan                      0.151363          19
 brget                                   0.131777       16583
 setg0                                   0.118007          93
 proall                                  0.086308           1
 truncate_high_frequency_w1              0.055516      718933
 orthch                                  0.046352           1
 brsav                                   0.034921        4563
 force_and_stress                        0.026593           1
 map_backward                            0.022492        3482
 map_forward                             0.020134        3136
 choleski                                0.016844          44
 stufak                                  0.014644           1
 fft_gq                                  0.011569          92
 pothar                                  0.009417          94
 strnlr                                  0.007991           1
 inisym                                  0.004315           1
 forhar                                  0.003956           2
 brpre                                   0.003417         182
 fornlr                                  0.002793           1
 strelo                                  0.002480           1
 forloc                                  0.002042           1
 fftbrc_mpi                              0.001999        3309
 strehar                                 0.001806           1
 strkin                                  0.001798           1
 rsp                                     0.000801           1
 set_dd_magatom                          0.000414          93
 vectorpot                               0.000386          92
 fewald                                  0.000343           1
 chggra                                  0.000253           1
 brgrid                                  0.000250           1
 fordep                                  0.000098           1
 rcp                                     0.000038           1
 crpa_reader                             0.000028           1
 posmap                                  0.000022           2
 acc_cufft_makeplans                     0.000010           3
 potlok_metagga                          0.000009          92
 rotate_active_occupied_orbital          0.000001           1
 redis_pw_over_bands                     0.000000           1
  summed up times     1124.209612131119

 Accumulative profile

 total_time                           1124.209612           1
 elmin                                1064.592497           1
 eddav                                 801.211987          95
 set_dd_paw                            212.092873          93
 hamiltmu                              172.242805      296603
 raccmu_                               151.477848      296603
 lapack                                138.279668      296603
 m_sumb_d                              120.106031      902746
 redis_pw                               82.600562     1580047
 newband                                34.433846      300783
 set_charge                             31.742162          92
 m_alltoall_d                           29.363148     4162431
 redis_proj                             28.200801     2006424
 fftwav_mpi                             27.827714     1126034
 fftwav                                 26.321483     1126034
 fft3d_mpi                              19.875462      575942
 fft3d                                  19.187648     1698667
 phaser                                 18.222446        4466
 setdij_                                17.910305         119
 densta                                 17.467390          96
 eccp                                   15.133061      146300
 soft_charge                            14.289979          92
 fftbrc_mpi                             14.049975        3309
 fftbas_plan_mpi                        14.047977        3309
 augmentation_charge                    13.965635          93
 orth1                                  12.246956      890029
 init_acc                               11.489472           1
 force_and_stress                       10.528803           1
 kinhamil                                9.426566      572633
 dfftw_execute                           8.830251        2676
 racc0mu_acc                             8.630595      296603
 w1_copy                                 8.427725     1717899
 overl                                   8.381012      999010
 rpromu_acc                              7.488979      226511
 m_bcast_z                               6.888084      302763
 fftext_mpi                              6.751586      572633
 w1_projall                              6.623308      221363
 setup_precond                           5.342123      146300
 m_bcast_d                               4.782525      593397
 ggemm                                   4.698252      371843
 overl_mu                                4.595601      296603
 pw_charge                               3.326723      102428
 strnlr                                  2.962621           1
 rpro_isp                                2.711981         286
 vhamil                                  2.658119      572633
 map_backward                            2.562590        3482
 map_forward                             2.467308        3136
 acc_init_cublas                         2.448150           1
 apply_precond                           2.353294      426333
 depsum                                  2.321553          92
 m_alltoallv_z                           2.098560        3699
 map_scatter                             1.646285        3699
 map_gather                              1.242426        3699
 potlok                                  1.109318          93
 brmix                                   1.006997          91
 fornlr                                  0.992111           1
 fordep                                  0.899674           1
 acc_init_cusolver                       0.787712           1
 broyd                                   0.647167          91
 orthch                                  0.458920           1
 sphpro_fast                             0.302239           2
 fft_gq                                  0.258169          92
 proall                                  0.250758           1
 rspher_all                              0.237709          14
 lincom                                  0.153326        4224
 acc_cufft_makeplans                     0.151373           3
 acc_cufft_makeplan                      0.151363          19
 brget                                   0.131777       16583
 setg0                                   0.118007          93
 truncate_high_frequency_w1              0.055516      718933
 brsav                                   0.034921        4563
 choleski                                0.016844          44
 stufak                                  0.014644           1
 pothar                                  0.010334          94
 inisym                                  0.004337           1
 forhar                                  0.004013           2
 forloc                                  0.003422           1
 brpre                                   0.003417         182
 strelo                                  0.002528           1
 strehar                                 0.001822           1
 strkin                                  0.001817           1
 fewald                                  0.001255           1
 chggra                                  0.000851           1
 rsp                                     0.000801           1
 set_dd_magatom                          0.000414          93
 vectorpot                               0.000386          92
 brgrid                                  0.000250           1
 rcp                                     0.000038           1
 crpa_reader                             0.000028           1
 posmap                                  0.000022           2
 potlok_metagga                          0.000009          92
 rotate_active_occupied_orbital          0.000001           1
 redis_pw_over_bands                     0.000000           1

Profiling took   3.522882  1.769777  0.003373  0.003254 seconds
Profiling took   2.327942 seconds