 vasp.6.3.2 27Jun22 (build Jul  3 2023 11:46:21) complex
 executed on    LinuxNV_CrayMPICH date 2024.04.21  03:20:10

 INCAR:
   ADDGRID = True
   ALGO = Normal
   EDIFF = 0.0003
   ENCUT = 520.0
   IBRION = -1
   ICHARG = 0
   ISIF = 3
   ISMEAR = -5
   ISPIN = 2
   KPOINT_BSE = -1 0 0 0
   LAECHG = True
   LASPH = True
   LCHARG = True
   LELF = True
   LORBIT = 11
   LREAL = Auto
   LVHAR = True
   LWAVE = False
   MAGMOM = 1*7.0 2*5.0 3*0.6
   NELM = 1000
   NSW = 0
   PREC = accurate
   SIGMA = 0.05

 POTCAR:    PAW_PBE Gd 23Dec2003
 POTCAR:    PAW_PBE Ni_pv 06Sep2000
 POTCAR:    PAW_PBE B 06Sep2000
 POTCAR:    PAW_PBE C 08Apr2002
 POTCAR:    PAW_PBE Gd 23Dec2003
   VRHFIN =Gd : [core=Xe4]

   TITEL  = PAW_PBE Gd 23Dec2003
   POMASS =  157.250; ZVAL   =   18.000    mass and valenz
   ENMAX  =  256.472; ENMIN  =  192.354 eV

   TITEL  = PAW_PBE Ni_pv 06Sep2000
   POMASS =   58.690; ZVAL   =   16.000    mass and valenz
   ENMAX  =  367.986; ENMIN  =  275.989 eV

   TITEL  = PAW_PBE B 06Sep2000
   POMASS =   10.811; ZVAL   =    3.000    mass and valenz
   ENMAX  =  318.614; ENMIN  =  238.960 eV

   TITEL  = PAW_PBE C 08Apr2002
   POMASS =   12.011; ZVAL   =    4.000    mass and valenz
   ENMAX  =  400.000; ENMIN  =  300.000 eV

 Optimization of the real space projectors (new method)

 maximal supplied QI-value         = 13.42
 optimisation between [QCUT,QGAM] = [ 11.67, 23.35] = [ 38.16,152.62] Ry
 Optimized for a Real-space Cutoff    1.63 Angstroem

   l    n(q)    QCUT    max X(q) W(low)/X(q) W(high)/X(q)  e(spline)
   0     11    11.673    10.501    0.14E-04    0.17E-05    0.21E-07
   0     11    11.673     9.148    0.21E-04    0.32E-05    0.45E-07
   1     11    11.673     4.035    0.33E-05    0.11E-04    0.84E-07
   1     11    11.673     4.388    0.11E-04    0.47E-04    0.34E-06
   2     10    11.673    20.656    0.12E-04    0.28E-04    0.54E-06
   2     10    11.673    12.651    0.11E-04    0.26E-04    0.51E-06
   3     10    11.673    61.921    0.19E-03    0.22E-03    0.23E-06
   3     10    11.673    48.328    0.20E-03    0.23E-03    0.23E-06
 Optimization of the real space projectors (new method)

[...]

   l    n(q)    QCUT    max X(q) W(low)/X(q) W(high)/X(q)  e(spline)
   0      8    11.497    53.033    0.18E-03    0.30E-03    0.10E-06
   0      8    11.497    34.740    0.17E-03    0.29E-03    0.10E-06
   1      8    11.497    30.949    0.20E-03    0.12E-03    0.21E-06
   1      8    11.497    19.518    0.18E-03    0.11E-03    0.19E-06
 Optimization of the real space projectors (new method)

 maximal supplied QI-value         = 25.13
 optimisation between [QCUT,QGAM] = [ 11.56, 23.12] = [ 37.43,149.72] Ry
 Optimized for a Real-space Cutoff    1.04 Angstroem

   l    n(q)    QCUT    max X(q) W(low)/X(q) W(high)/X(q)  e(spline)
   0      7    11.561   115.676    0.20E-03    0.60E-03    0.21E-06
   0      7    11.561    87.132    0.20E-03    0.59E-03    0.21E-06
   1      7    11.561     4.429    0.23E-03    0.35E-03    0.15E-06
   1      7    11.561     2.733    0.18E-03    0.25E-03    0.12E-06
  PAW_PBE Gd 23Dec2003                  :
  PAW_PBE Ni_pv 06Sep2000               :
  PAW_PBE B 06Sep2000                   :
  PAW_PBE C 08Apr2002                   :

 POSCAR: Gd1 Ni2 B2 C1
  positions in direct lattice
 exchange correlation table for  LEXCH =        8
   RHO(1)=    0.500       N(1)  =     2000
   RHO(2)=  100.500       N(2)  =     4000

 VTST: version 4.2, (08/11/21)

 CHAIN: initializing optimizer

 OPT: Using VASP Dynamics algorithm
 CHAIN: Read ICHAIN             0

 POSCAR: Gd1 Ni2 B2 C1
  positions in direct lattice

 ion  position               nearest neighbor table
   1  0.000  0.000  0.000-   6 2.54   6 2.54   6 2.54   6 2.54
   2  0.750  0.250  0.500-   4 2.09   5 2.09   4 2.09   5 2.09   3 2.54   3 2.54   3 2.54   3 2.54

   3  0.250  0.750  0.500-   4 2.09   5 2.09   4 2.09   5 2.09   2 2.54   2 2.54   2 2.54   2 2.54

   4  0.355  0.355  0.000-   6 1.50   3 2.09   2 2.09   3 2.09   2 2.09
   5  0.645  0.645  0.000-   6 1.50   2 2.09   3 2.09   2 2.09   3 2.09
   6  0.500  0.500  0.000-   4 1.50   5 1.50   1 2.54   1 2.54   1 2.54   1 2.54

  LATTYP: Found a body centered tetragonal cell.
 ALAT       =     3.5853220000
 C/A-ratio  =     2.8707195616

  Lattice vectors:

 A1 = (  -1.7926610000,   1.7926610000,   5.1462270000)
 A2 = (   1.7926610000,  -1.7926610000,   5.1462270000)
 A3 = (   1.7926610000,   1.7926610000,  -5.1462270000)

Analysis of symmetry for initial positions (statically):
 Subroutine PRICEL returns:
 Original cell was already a primitive cell.

 Routine SETGRP: Setting up the symmetry group for a
 body centered tetragonal supercell.

 Subroutine GETGRP returns: Found 16 space group operations
 (whereof 16 operations were pure point group operations)
 out of a pool of 16 trial point group operations.

The static configuration has the point symmetry D_4h.

Analysis of symmetry for dynamics (positions and initial velocities):
 Subroutine PRICEL returns:
 Original cell was already a primitive cell.

[...]

The dynamic configuration has the point symmetry D_4h.

Analysis of structural, dynamic, and magnetic symmetry:
 Subroutine PRICEL returns:
 Original cell was already a primitive cell.

 Routine SETGRP: Setting up the symmetry group for a
 body centered tetragonal supercell.

 Subroutine GETGRP returns: Found 16 space group operations
 (whereof 16 operations were pure point group operations)
 out of a pool of 16 trial point group operations.

The overall configuration has the point symmetry D_4h.

 Subroutine INISYM returns: Found 16 space group operations
 (whereof 16 operations are pure point group operations),
 and found     1 'primitive' translations

                                     Primitive cell

  volume of cell :      66.1523

  direct lattice vectors                    reciprocal lattice vectors
    -1.792661000  1.792661000  5.146227000    -0.000000000  0.278914976  0.097158559
     1.792661000 -1.792661000  5.146227000     0.278914976 -0.000000000  0.097158559
     1.792661000  1.792661000 -5.146227000     0.278914976  0.278914976 -0.000000000

  length of vectors
     5.736803924  5.736803924  5.736803924     0.295352924  0.295352924  0.394445342

  position of ions in fractional coordinates (direct lattice)
     0.000000000  0.000000000  0.000000000
     0.750000000  0.250000000  0.500000000
     0.250000000  0.750000000  0.500000000
     0.354715000  0.354715000  1.000000000
     0.645285000  0.645285000  1.000000000
     0.500000000  0.500000000  1.000000000

  ion indices of the primitive-cell ions
   primitive index   ion index
                 1           1
                 2           2
                 3           3
                 4           4
                 5           5
                 6           6

 KPOINTS: Kpoints from vasprun.xml

Automatic generation of k-mesh.
 Grid dimensions read from file:
 generate k-points for:    7    7    7

 Generating k-lattice:

  Cartesian coordinates                     Fractional coordinates (reciprocal lattice)
    -0.000000000  0.039844997  0.013879794     0.142857143 -0.000000000  0.000000000
     0.039844997 -0.000000000  0.013879794    -0.000000000  0.142857143  0.000000000
     0.039844997  0.039844997 -0.000000000    -0.000000000  0.000000000  0.142857143

  Length of vectors
     0.042193275  0.042193275  0.056349335

  Shift w.r.t. Gamma in fractional coordinates (k-lattice)
     0.000000000  0.000000000  0.000000000

 TETIRR: Found    443 inequivalent tetrahedra from     2058

 Subroutine IBZKPT returns following result:

 Found     40 irreducible k-points:

 Following reciprocal coordinates:
            Coordinates               Weight
  0.000000  0.000000  0.000000      1.000000
  0.142857  0.000000  0.000000      8.000000
  0.285714  0.000000  0.000000      8.000000
  0.428571  0.000000  0.000000      8.000000
  0.142857  0.142857  0.000000      8.000000
  0.285714  0.142857  0.000000     16.000000
  0.428571  0.142857  0.000000     16.000000
 -0.428571  0.142857  0.000000     16.000000
 -0.285714  0.142857  0.000000     16.000000
 -0.142857  0.142857  0.000000      4.000000
  0.285714  0.285714  0.000000      8.000000
  0.428571  0.285714  0.000000     16.000000
 -0.428571  0.285714  0.000000     16.000000
 -0.285714  0.285714  0.000000      4.000000
  0.428571  0.428571  0.000000      8.000000
 -0.428571  0.428571  0.000000      4.000000
  0.142857  0.142857  0.142857      8.000000
  0.285714  0.142857  0.142857     16.000000
 -0.142857  0.142857  0.142857      4.000000
  0.285714  0.285714  0.142857      8.000000
  0.428571  0.285714  0.142857      8.000000
 -0.285714  0.285714  0.142857      8.000000
 -0.142857  0.285714  0.142857      8.000000
 -0.428571  0.428571  0.142857      8.000000
 -0.285714  0.428571  0.142857     16.000000
 -0.142857  0.428571  0.142857      8.000000
 -0.428571 -0.428571  0.142857      8.000000
 -0.285714 -0.428571  0.142857     16.000000
 -0.142857 -0.428571  0.142857      8.000000
 -0.285714 -0.285714  0.142857      8.000000
 -0.142857 -0.285714  0.142857      8.000000
 -0.142857 -0.142857  0.142857      2.000000
 -0.285714  0.285714  0.285714      4.000000
 -0.428571  0.428571  0.285714      8.000000
 -0.285714  0.428571  0.285714      8.000000
 -0.428571 -0.428571  0.285714      8.000000
 -0.285714 -0.428571  0.285714      8.000000
 -0.285714 -0.285714  0.285714      2.000000
 -0.428571  0.428571  0.428571      4.000000
 -0.428571 -0.428571  0.428571      2.000000

 Following cartesian coordinates:
            Coordinates               Weight
  0.000000  0.000000  0.000000      1.000000
  0.000000  0.039845  0.013880      8.000000
  0.000000  0.079690  0.027760      8.000000
  0.000000  0.119535  0.041639      8.000000
  0.039845  0.039845  0.027760      8.000000
  0.039845  0.079690  0.041639     16.000000
  0.039845  0.119535  0.055519     16.000000
  0.039845 -0.119535 -0.027760     16.000000
  0.039845 -0.079690 -0.013880     16.000000
  0.039845 -0.039845  0.000000      4.000000
  0.079690  0.079690  0.055519      8.000000
  0.079690  0.119535  0.069399     16.000000
  0.079690 -0.119535 -0.013880     16.000000
  0.079690 -0.079690  0.000000      4.000000
  0.119535  0.119535  0.083279      8.000000
  0.119535 -0.119535  0.000000      4.000000
  0.079690  0.079690  0.027760      8.000000
  0.079690  0.119535  0.041639     16.000000
  0.079690  0.000000  0.000000      4.000000
  0.119535  0.119535  0.055519      8.000000
  0.119535  0.159380  0.069399      8.000000
  0.119535 -0.039845  0.000000      8.000000
  0.119535  0.000000  0.013880      8.000000
  0.159380 -0.079690  0.000000      8.000000
  0.159380 -0.039845  0.013880     16.000000
  0.159380  0.000000  0.027760      8.000000
 -0.079690 -0.079690 -0.083279      8.000000
 -0.079690 -0.039845 -0.069399     16.000000
 -0.079690  0.000000 -0.055519      8.000000
 -0.039845 -0.039845 -0.055519      8.000000
 -0.039845  0.000000 -0.041639      8.000000
  0.000000  0.000000 -0.027760      2.000000
  0.159380  0.000000  0.000000      4.000000
  0.199225 -0.039845  0.000000      8.000000
  0.199225  0.000000  0.013880      8.000000
[...]
  318                map_forward                           0.000188                    4   7
  319                  map_gather                            0.000042                  2   8
  320                  m_alltoallv_z                         0.000032                  2   8
  321                  map_scatter                           0.000084                  2   8
  322                map_backward                          0.000081                    2   7
  323                  map_gather                            0.000020                  1   8
  324                  m_alltoallv_z                         0.000012                  1   8
  325                  map_scatter                           0.000035                  1   8
  326          m_sumb_d                              0.000010                          2   4
  327          pothar                                0.000081                          1   4
  328            m_sumb_d                              0.000012                        1   5
  329        brmix                                 0.005990                            1   3
  330          m_sumb_d                              0.000039                          6   4
  331          brpre                                 0.000020                          2   4
  332          setg0                                 0.000798                          1   4
  333          broyd                                 0.004277                          1   4
  334            brget                                 0.000915                      326   5
  335            brsav                                 0.000436                      163   5
  336            m_sumb_d                              0.000609                       47   5
  337        m_bcast_d                             0.000015                            2   3
  338      potlok                                0.029996                              2   2
  339        fft3d_mpi                             0.019621                           36   3
  340          fftbrc_mpi                            0.016379                         36   4
  341            fftbas_plan_mpi                       0.016362                       36   5
  342              map_forward                           0.004917                     40   6
  343                map_gather                            0.001498                   24   7
  344                m_alltoallv_z                         0.001834                   24   7
  345                map_scatter                           0.001398                   24   7
  346              map_backward                          0.003721                     32   6
  347                map_gather                            0.001280                   16   7
  348                m_alltoallv_z                         0.001029                   16   7
  349                map_scatter                           0.001218                   16   7
  350              dfftw_execute                         0.005836                     30   6
  351        m_sumb_d                              0.000023                            5   3
  352        pothar                                0.001208                            2   3
  353          m_sumb_d                              0.000119                          2   4
  354        m_bcast_d                             0.001841                            4   3
  355      potlok_metagga                        0.000000                              1   2
  356      set_dd_magatom                        0.000004                              1   2
  357      set_dd_paw                            1.136197                              1   2
  358        m_sumb_d                              0.935986                            7   3
  359      augmentation_charge                   0.135386                              1   2
  360        fft3d_mpi                             0.032133                            2   3
  361          fftbrc_mpi                            0.028916                          2   4
  362            fftbas_plan_mpi                       0.028913                        2   5
  363              dfftw_execute                         0.019433                      6   6
  364              map_backward                          0.009216                      4   6
  365                map_gather                            0.002410                    2   7
  366                m_alltoallv_z                         0.004206                    2   7
  367                map_scatter                           0.002593                    2   7
  368      fftwav_mpi                            2.264091                           2880   2
  369        fftwav                                2.260513                         2880   3
  370          fft3d                                 2.174610                       2880   4
  371      densta                                1.833847                              1   2

 Flat profile

 raccmu_                              1973.633456     1622764
 m_sumb_d                             1269.776578     5028458
 eddav                                 760.314640        1000
 lapack                                691.767396     1622764
 phaser                                325.664309       80520
 redis_pw                              290.165522     8936744
 densta                                257.539049        1001
 set_dd_paw                            200.912274         998
 m_alltoall_d                          164.539086    23683496
 augmentation_charge                    99.092813         998
 setdij_                                97.246578        1024
 eccp                                   87.805526      960000
 redis_proj                             75.855322    11222352
 fft3d                                  73.485167     9505224
 fftwav                                 58.998742     6259696
 orth1                                  51.909350     4868452
 soft_charge                            51.127089         997
 w1_copy                                47.170504     9736584
 racc0mu_acc                            46.996929     1622764
 dfftw_execute                          45.983970       24396
 overl                                  45.841782     5531136
 hamiltmu                               36.074174     1622764
 setup_precond                          34.578161      960000
 m_bcast_z                              34.294320     1626604
 rpromu_acc                             33.777199     1145884
 m_bcast_d                              26.572502     3247529
 overl_mu                               24.923878     1622764
 ggemm                                  21.659900     2102764
 pw_charge                              19.326860      713280
 depsum                                 15.200051         997
 vhamil                                 14.866343     3245528
 kinhamil                               14.686392     3245528
 fftext_mpi                             13.878911     3245528
 newband                                13.438599     1702764
 apply_precond                          12.570196     2285528
 init_acc                               11.500358           1
 m_alltoallv_z                          11.128668       38089
 total_time                             10.311463           1
 fft3d_mpi                               9.214107     3279607
 set_charge                              8.437023         997
 fftwav_mpi                              8.194518     6259696
 map_scatter                             7.370477       38089
 map_gather                              6.343685       38089
 potlok                                  3.453944         998
 broyd                                   2.576882         996
 lincom                                  2.531565       80080
 acc_init_cublas                         2.419437           1
 fftbas_plan_mpi                         1.781396       34079
 elmin                                   1.677124           1
 w1_projall                              1.161717     1142764
 brmix                                   0.961596         996
 setg0                                   0.792075         998
 acc_init_cusolver                       0.774810           1
 rpro_isp                                0.742660         520
 brget                                   0.700912      235955
 truncate_high_frequency_w1              0.330700     4205528
 rspher_all                              0.250863          14
 map_backward                            0.202973       36062
 brsav                                   0.195687       68456
 map_forward                             0.183740       32096
 acc_cufft_makeplan                      0.124793          19
 pothar                                  0.074997         999
 sphpro_fast                             0.074659           2
 fft_gq                                  0.047184         997
 proall                                  0.047031           1
 fftbrc_mpi                              0.019950       34079
 brpre                                   0.019371        1992
 orthch                                  0.016834           1
 choleski                                0.014518          80
 strnlr                                  0.010839           1
 force_and_stress                        0.010443           1
 inisym                                  0.004583           1
 set_dd_magatom                          0.004349         998
 vectorpot                               0.004076         997
 fornlr                                  0.003711           1
 stufak                                  0.003502           1
 forhar                                  0.002552           2
 strelo                                  0.001728           1
 forloc                                  0.001332           1
 strehar                                 0.001245           1
 fewald                                  0.000365           1
 strkin                                  0.000292           1
 chggra                                  0.000236           1
 brgrid                                  0.000163           1
 rsp                                     0.000117           1
 potlok_metagga                          0.000095         997
 fordep                                  0.000050           1
 crpa_reader                             0.000026           1
 posmap                                  0.000024           2
 rcp                                     0.000015           1
 acc_cufft_makeplans                     0.000009           3
 rotate_active_occupied_orbital          0.000000           1
 redis_pw_over_bands                     0.000000           1
  summed up times     7125.401037931442

 Accumulative profile

 total_time                           7125.401038           1
 elmin                                7084.034230           1
 eddav                                5293.984268        1000
 hamiltmu                             2149.354238     1622764
 raccmu_                              2045.554262     1622764
 m_sumb_d                             1269.776578     5028458
 set_dd_paw                           1132.670564         998
 lapack                                691.767396     1622764
 redis_pw                              371.843499     8936744
 phaser                                325.664309       80520
 densta                                257.539049        1001
 set_charge                            252.951779         997
 newband                               204.429862     1702764
 m_alltoall_d                          164.539086    23683496
 redis_proj                            158.716431    11222352
 setdij_                               140.333643        1024
 augmentation_charge                   131.796094         998
 fftwav_mpi                            117.348106     6259696
 fftwav                                109.153588     6259696
 fft3d_mpi                             105.559287     3279607
 soft_charge                            96.416916         997
 eccp                                   87.805526      960000
 fft3d                                  73.485167     9505224
 fftbrc_mpi                             73.014859       34079
 fftbas_plan_mpi                        72.994910       34079
 kinhamil                               52.859458     3245528
 orth1                                  51.909350     4868452
 w1_copy                                47.170504     9736584
 racc0mu_acc                            46.996929     1622764
 dfftw_execute                          45.983970       24396
 overl                                  45.841782     5531136
 fftext_mpi                             38.173066     3245528
 setup_precond                          34.578161      960000
 m_bcast_z                              34.294320     1626604
 w1_projall                             34.277845     1142764
 rpromu_acc                             33.777199     1145884
 m_bcast_d                              26.572502     3247529
 overl_mu                               24.923878     1622764
 ggemm                                  21.659900     2102764
 pw_charge                              19.326860      713280
 depsum                                 15.278027         997
 vhamil                                 14.866343     3245528
 map_backward                           13.300191       36062
 apply_precond                          12.570196     2285528
 map_forward                            11.929353       32096
 init_acc                               11.500358           1
 m_alltoallv_z                          11.128668       38089
 force_and_stress                        8.877948           1
 potlok                                  7.904573         998
 map_scatter                             7.370477       38089
 map_gather                              6.343685       38089
 brmix                                   5.784771         996
 broyd                                   3.956572         996
 strnlr                                  2.947736           1
 lincom                                  2.531565       80080
 acc_init_cublas                         2.419437           1
 rpro_isp                                1.772458         520
 fft_gq                                  1.686048         997
 fornlr                                  0.989067           1
 fordep                                  0.816604           1
 setg0                                   0.792075         998
 acc_init_cusolver                       0.774810           1
 brget                                   0.700912      235955
 truncate_high_frequency_w1              0.330700     4205528
 orthch                                  0.278307           1
 proall                                  0.260273           1
 rspher_all                              0.250863          14
 brsav                                   0.195687       68456
 acc_cufft_makeplans                     0.124802           3
 acc_cufft_makeplan                      0.124793          19
 pothar                                  0.083918         999
 sphpro_fast                             0.076763           2
 brpre                                   0.019371        1992
 choleski                                0.014518          80
 inisym                                  0.004607           1
 set_dd_magatom                          0.004349         998
 vectorpot                               0.004076         997
 stufak                                  0.003502           1
 forhar                                  0.002577           2
 strelo                                  0.001747           1
 forloc                                  0.001431           1
 strehar                                 0.001248           1
 chggra                                  0.000779           1
 fewald                                  0.000569           1
 strkin                                  0.000297           1
 brgrid                                  0.000163           1
 rsp                                     0.000117           1
 potlok_metagga                          0.000095         997
 crpa_reader                             0.000026           1
 posmap                                  0.000024           2
 rcp                                     0.000015           1
 rotate_active_occupied_orbital          0.000000           1
 redis_pw_over_bands                     0.000000           1

Profiling took  20.017124  9.804449  0.003201  0.003121 seconds
Profiling took  12.547689 seconds