 vasp.6.3.2 27Jun22 (build Jul  3 2023 11:46:21) complex
 executed on    LinuxNV_CrayMPICH date 2024.04.21  13:41:11

 INCAR:
   ADDGRID = True
   ALGO = Normal
   EDIFF = 0.0014
   ENCUT = 520.0
   IBRION = -1
   ICHARG = 0
   ISIF = 3
   ISMEAR = -5
   ISPIN = 2
   KPOINT_BSE = -1 0 0 0
   LAECHG = True
   LASPH = True
   LCHARG = True
   LELF = True
   LORBIT = 11
   LREAL = Auto
   LVHAR = True
   LWAVE = False
   MAGMOM = 4*7.0 24*0.6
   NELM = 1000
   NSW = 0
   PREC = accurate
   SIGMA = 0.05

 POTCAR:    PAW_PBE Gd 23Dec2003
 POTCAR:    PAW_PBE Al 04Jan2001
 POTCAR:    PAW_PBE Ir 06Sep2000
 POTCAR:    PAW_PBE Gd 23Dec2003
   VRHFIN =Gd : [core=Xe4]

   TITEL  = PAW_PBE Gd 23Dec2003
   POMASS =  157.250; ZVAL   =   18.000    mass and valenz
   ENMAX  =  256.472; ENMIN  =  192.354 eV

   TITEL  = PAW_PBE Al 04Jan2001
   POMASS =   26.981; ZVAL   =    3.000    mass and valenz
   ENMAX  =  240.300; ENMIN  =  180.225 eV

   TITEL  = PAW_PBE Ir 06Sep2000
   POMASS =  192.220; ZVAL   =    9.000    mass and valenz
   ENMAX  =  210.864; ENMIN  =  158.148 eV

 Optimization of the real space projectors (new method)

 maximal supplied QI-value         = 13.42
 optimisation between [QCUT,QGAM] = [ 11.67, 23.35] = [ 38.16,152.62] Ry
 Optimized for a Real-space Cutoff    1.63 Angstroem

   l    n(q)    QCUT    max X(q) W(low)/X(q) W(high)/X(q)  e(spline)
   0     11    11.673    10.501    0.14E-04    0.17E-05    0.21E-07
   0     11    11.673     9.148    0.21E-04    0.32E-05    0.45E-07
   1     11    11.673     4.035    0.33E-05    0.11E-04    0.84E-07
   1     11    11.673     4.388    0.11E-04    0.47E-04    0.34E-06
   2     10    11.673    20.656    0.12E-04    0.28E-04    0.54E-06
   2     10    11.673    12.651    0.11E-04    0.26E-04    0.51E-06
   3     10    11.673    61.921    0.19E-03    0.22E-03    0.23E-06
   3     10    11.673    48.328    0.20E-03    0.23E-03    0.23E-06
 Optimization of the real space projectors (new method)

[...]

   l    n(q)    QCUT    max X(q) W(low)/X(q) W(high)/X(q)  e(spline)
   0      8    11.508   176.870    0.11E-03    0.16E-03    0.40E-07
   0      8    11.508   105.762    0.11E-03    0.16E-03    0.39E-07
   1      8    11.508    55.370    0.23E-03    0.10E-03    0.75E-07
   1      8    11.508    20.208    0.21E-03    0.91E-04    0.68E-07
 Optimization of the real space projectors (new method)

 maximal supplied QI-value         = 14.36
 optimisation between [QCUT,QGAM] = [ 11.63, 23.27] = [ 37.90,151.59] Ry
 Optimized for a Real-space Cutoff    1.63 Angstroem

   l    n(q)    QCUT    max X(q) W(low)/X(q) W(high)/X(q)  e(spline)
   2     10    11.633   134.116    0.23E-03    0.25E-04    0.92E-06
   2     10    11.633   130.192    0.23E-03    0.25E-04    0.92E-06
   0     11    11.633    60.310    0.44E-04    0.29E-04    0.76E-06
   0     11    11.633    39.218    0.38E-04    0.27E-04    0.71E-06
   1     11    11.633    18.439    0.37E-04    0.62E-04    0.19E-06
   1     11    11.633    12.760    0.29E-04    0.50E-04    0.16E-06
  PAW_PBE Gd 23Dec2003                  :
  PAW_PBE Al 04Jan2001                  :
  PAW_PBE Ir 06Sep2000                  :

 POSCAR: Gd4 Al18 Ir6
  positions in direct lattice
 exchange correlation table for  LEXCH =        8
   RHO(1)=    0.500       N(1)  =     2000
   RHO(2)=  100.500       N(2)  =     4000

 VTST: version 4.2, (08/11/21)

 CHAIN: initializing optimizer

 OPT: Using VASP Dynamics algorithm
 CHAIN: Read ICHAIN             0

 POSCAR: Gd4 Al18 Ir6
  positions in direct lattice

 ion  position               nearest neighbor table
   1  0.005  0.329  0.750-   9 3.05  17 3.05   5 3.06  22 3.06  15 3.07  19 3.09   6 3.09  20 3.10
                            14 3.13  11 3.13   8 3.18  25 3.43  27 3.43  23 3.47  28 3.47  24 3.48
   2  0.329  0.005  0.750-   5 3.05  22 3.05  17 3.06   9 3.06   8 3.07  18 3.09   7 3.09  20 3.10
                            11 3.13  14 3.13  15 3.18  25 3.43  27 3.43  26 3.47  24 3.47  23 3.48
   3  0.671  0.995  0.250-   6 3.05  19 3.05  18 3.06   7 3.06  21 3.07  17 3.09   9 3.09  13 3.10
                            12 3.13  10 3.13  16 3.18  25 3.43  27 3.43  23 3.47  28 3.47  24 3.48
   4  0.995  0.671  0.250-   7 3.05  18 3.05   6 3.06  19 3.06  16 3.07   5 3.09  22 3.09  13 3.10
                            12 3.13  10 3.13  21 3.18  25 3.43  27 3.43  26 3.47  24 3.47  23 3.48
   5  0.999  0.665  0.574-  24 2.57  28 2.63  27 2.63  20 2.77  12 2.78   8 2.81  19 2.88   7 2.93
                             2 3.05   1 3.06   4 3.09  22 3.34
   6  0.001  0.335  0.074-  23 2.57  26 2.63  25 2.63  13 2.77  11 2.78  21 2.81  22 2.88  17 2.93
                             3 3.05   4 3.06   1 3.09  19 3.34
   7  0.335  0.001  0.426-  24 2.57  28 2.63  27 2.63  13 2.77  14 2.78  16 2.81   9 2.88   5 2.93
                             4 3.05   3 3.06   2 3.09  18 3.34
   8  0.661  0.452  0.750-  23 2.57  28 2.57  15 2.72  20 2.76   5 2.81  22 2.81  14 2.90  11 2.90
                             2 3.07   1 3.18  10 3.26  12 3.26
   9  0.665  0.999  0.574-  28 2.57  24 2.63  27 2.63  20 2.77  12 2.78  15 2.81   7 2.88  19 2.93
                             1 3.05   2 3.06   3 3.09  17 3.34
  10  0.667  0.667  0.048-  25 2.58  23 2.62  26 2.62  11 2.71  22 2.78  17 2.78  21 2.90  16 2.90
                             3 3.13   4 3.13  20 3.24   8 3.26  15 3.26
  11  0.333  0.333  0.952-  25 2.58  23 2.62  26 2.62  10 2.71  18 2.78   6 2.78   8 2.90  15 2.90
                             1 3.13   2 3.13  13 3.24  21 3.26  16 3.26
  12  0.667  0.667  0.452-  27 2.58  24 2.62  28 2.62  14 2.71   5 2.78   9 2.78  21 2.90  16 2.90
                             3 3.13   4 3.13  20 3.24   8 3.26  15 3.26
  13  0.129  0.129  0.250-  25 2.57  27 2.57  16 2.76  21 2.76  19 2.77   7 2.77   6 2.77  18 2.77
                             3 3.10   4 3.10  11 3.24  14 3.24
  14  0.333  0.333  0.548-  27 2.58  24 2.62  28 2.62  12 2.71  19 2.78   7 2.78   8 2.90  15 2.90
                             1 3.13   2 3.13  13 3.24  21 3.26  16 3.26
  15  0.452  0.661  0.750-  24 2.57  26 2.57   8 2.72  20 2.76  17 2.81   9 2.81  11 2.90  14 2.90
                             1 3.07   2 3.18  12 3.26  10 3.26
  16  0.548  0.339  0.250-  23 2.57  28 2.57  21 2.72  13 2.76  18 2.81   7 2.81  12 2.90  10 2.90
                             4 3.07   3 3.18  11 3.26  14 3.26
  17  0.665  0.999  0.926-  23 2.57  26 2.63  25 2.63  20 2.77  10 2.78  15 2.81  18 2.88   6 2.93
                             1 3.05   2 3.06   3 3.09   9 3.34
  18  0.335  0.001  0.074-  26 2.57  23 2.63  25 2.63  13 2.77  11 2.78  16 2.81  17 2.88  22 2.93
                             4 3.05   3 3.06   2 3.09   7 3.34
  19  0.001  0.335  0.426-  28 2.57  24 2.63  27 2.63  13 2.77  14 2.78  21 2.81   5 2.88   9 2.93
                             3 3.05   4 3.06   1 3.09   6 3.34
  20  0.871  0.871  0.750-  25 2.57  27 2.57   8 2.76  15 2.76  17 2.77  22 2.77   9 2.77   5 2.77
                             1 3.10   2 3.10  12 3.24  10 3.24
  21  0.339  0.548  0.250-  24 2.57  26 2.57  16 2.72  13 2.76   6 2.81  19 2.81  12 2.90  10 2.90
                             3 3.07   4 3.18  11 3.26  14 3.26
  22  0.999  0.665  0.926-  26 2.57  23 2.63  25 2.63  20 2.77  10 2.78   8 2.81   6 2.88  18 2.93
                             2 3.05   1 3.06   4 3.09   5 3.34
  23  0.671  0.329  0.000-  17 2.57   6 2.57  16 2.57   8 2.57  10 2.62  11 2.62  22 2.63  18 2.63
                             1 3.47   3 3.47   2 3.48   4 3.48
  24  0.329  0.671  0.500-   7 2.57   5 2.57  15 2.57  21 2.57  12 2.62  14 2.62  19 2.63   9 2.63
                             2 3.47   4 3.47   3 3.48   1 3.48
  25  0.000  0.000  0.000-  13 2.57  20 2.57  10 2.58  11 2.58  17 2.63  18 2.63   6 2.63  22 2.63
                             1 3.43   2 3.43   3 3.43   4 3.43
  26  0.329  0.671  0.000-  18 2.57  22 2.57  21 2.57  15 2.57  10 2.62  11 2.62   6 2.63  17 2.63
                             2 3.47   4 3.47   3 3.48   1 3.48
  27  0.000  0.000  0.500-  13 2.57  20 2.57  14 2.58  12 2.58   7 2.63   9 2.63  19 2.63   5 2.63
                             1 3.43   2 3.43   3 3.43   4 3.43
  28  0.671  0.329  0.500-   9 2.57  19 2.57  16 2.57   8 2.57  12 2.62  14 2.62   5 2.63   7 2.63
                             1 3.47   3 3.47   2 3.48   4 3.48

  LATTYP: Found a base centered orthorhombic cell.
 ALAT       =     7.6280480000
 B/A-ratio  =     1.7154184137
 C/A-ratio  =     1.2475368535

  Lattice vectors:

 A1 = (   3.8140240000,  -6.5426470000,   0.0000000000)
 A2 = (   3.8140240000,   6.5426470000,   0.0000000000)
 A3 = (   0.0000000000,   0.0000000000,   9.5162710000)

Analysis of symmetry for initial positions (statically):
 Subroutine PRICEL returns:
 Original cell was already a primitive cell.

 Routine SETGRP: Setting up the symmetry group for a
 base centered orthorhombic supercell.

 Subroutine GETGRP returns: Found  8 space group operations
 (whereof  4 operations were pure point group operations)
 out of a pool of  8 trial point group operations.

The static configuration has the point symmetry C_2h.
 The point group associated with its full space group is D_2h.

Analysis of symmetry for dynamics (positions and initial velocities):
 Subroutine PRICEL returns:
 Original cell was already a primitive cell.

[...]

The dynamic configuration has the point symmetry C_2h.
 The point group associated with its full space group is D_2h.

Analysis of structural, dynamic, and magnetic symmetry:
 Subroutine PRICEL returns:
 Original cell was already a primitive cell.

 Routine SETGRP: Setting up the symmetry group for a
 base centered orthorhombic supercell.

 Subroutine GETGRP returns: Found  8 space group operations
 (whereof  4 operations were pure point group operations)
 out of a pool of  8 trial point group operations.

The overall configuration has the point symmetry C_2h.
 The point group associated with its full space group is D_2h.

 Subroutine INISYM returns: Found  8 space group operations
 (whereof  4 operations are pure point group operations),
 and found     1 'primitive' translations

                                     Primitive cell

  volume of cell :     474.9345

  direct lattice vectors                    reciprocal lattice vectors
     3.814024000 -6.542647000  0.000000000     0.131095137 -0.076421668  0.000000000
     3.814024000  6.542647000  0.000000000     0.131095137  0.076421668 -0.000000000
     0.000000000  0.000000000  9.516271000    -0.000000000  0.000000000  0.105083178

  length of vectors
     7.573176932  7.573176932  9.516271000     0.151743884  0.151743884  0.105083178

  position of ions in fractional coordinates (direct lattice)
     0.005129000  0.329078000  0.750000000
     0.329078000  0.005129000  0.750000000
     0.670922000  0.994871000  0.250000000
     0.994871000  0.670922000  0.250000000
     0.999182000  0.664852000  0.574365000
     0.000818000  0.335148000  0.074365000
     0.335148000  0.000818000  0.425635000
     0.660583000  0.452417000  0.750000000
     0.664852000  0.999182000  0.574365000
     0.666755000  0.666755000  0.048325000
     0.333245000  0.333245000  0.951675000
     0.666755000  0.666755000  0.451675000
[...]
  318                map_forward                           0.000229                    4   7
  319                  map_gather                            0.000049                  2   8
  320                  m_alltoallv_z                         0.000027                  2   8
  321                  map_scatter                           0.000120                  2   8
  322                map_backward                          0.000107                    2   7
  323                  map_gather                            0.000025                  1   8
  324                  m_alltoallv_z                         0.000012                  1   8
  325                  map_scatter                           0.000054                  1   8
  326          m_sumb_d                              0.000009                          2   4
  327          pothar                                0.000087                          1   4
  328            m_sumb_d                              0.000010                        1   5
  329        brmix                                 0.014638                            1   3
  330          m_sumb_d                              0.000044                          6   4
  331          brpre                                 0.000045                          2   4
  332          setg0                                 0.001623                          1   4
  333          broyd                                 0.011043                          1   4
  334            m_sumb_d                              0.000608                       50   5
  335            brget                                 0.002064                      224   5
  336            brsav                                 0.000437                       48   5
  337        m_bcast_d                             0.000027                            2   3
  338      potlok                                0.052150                              2   2
  339        fft3d_mpi                             0.033122                           36   3
  340          fftbrc_mpi                            0.028197                         36   4
  341            fftbas_plan_mpi                       0.028177                       36   5
  342              map_forward                           0.008031                     40   6
  343                map_gather                            0.002604                   24   7
  344                m_alltoallv_z                         0.002873                   24   7
  345                map_scatter                           0.002357                   24   7
  346              map_backward                          0.007009                     32   6
  347                map_gather                            0.002271                   16   7
  348                m_alltoallv_z                         0.002551                   16   7
  349                map_scatter                           0.001977                   16   7
  350              dfftw_execute                         0.011413                     30   6
  351        m_sumb_d                              0.000045                            5   3
  352        pothar                                0.002200                            2   3
  353          m_sumb_d                              0.000027                          2   4
  354        m_bcast_d                             0.003795                            4   3
  355      potlok_metagga                        0.000001                              1   2
  356      set_dd_magatom                        0.000005                              1   2
  357      set_dd_paw                            2.691978                              1   2
  358        m_sumb_d                              0.000395                            7   3
  359      augmentation_charge                   0.221118                              1   2
  360        fft3d_mpi                             0.074025                            2   3
  361          fftbrc_mpi                            0.064868                          2   4
  362            fftbas_plan_mpi                       0.064864                        2   5
  363              dfftw_execute                         0.037540                      6   6
  364              map_backward                          0.027099                      4   6
  365                map_gather                            0.009661                    2   7
  366                m_alltoallv_z                         0.008690                    2   7
  367                map_scatter                           0.008736                    2   7
  368      fftwav_mpi                            4.302207                           2772   2
  369        fftwav                                4.298510                         2772   3
  370          fft3d                                 3.973433                       2772   4
  371      densta                                3.330585                              1   2

 Flat profile

 set_dd_paw                            713.901350         266
 eddav                                 254.325473         268
 lapack                                236.870967      501775
 raccmu_                               230.038284      501775
 redis_pw                              120.553078     2673013
 m_sumb_d                              112.154128     1535047
 m_alltoall_d                           49.456491     7031941
 setdij_                                40.393955         292
 augmentation_charge                    38.904049         266
 phaser                                 37.981770        7686
 orth1                                  26.549327     1505465
 fft3d                                  26.089383     2844933
 eccp                                   26.030507      247632
 dfftw_execute                          25.613062        6828
 densta                                 23.258519         269
 redis_proj                             22.664224     3393936
 total_time                             18.424876           1
 fftwav                                 17.876837     1876406
 hamiltmu                               14.966615      501775
 racc0mu_acc                            14.594394      501775
 w1_copy                                14.105601     2905581
 overl                                  13.982838     1689450
 rpromu_acc                             11.468109      377483
 init_acc                               11.404271           1
 m_bcast_z                              11.141914      505471
 soft_charge                            10.612788         265
 setup_precond                           9.092676      247632
 m_bcast_d                               8.156132     1004087
 ggemm                                   7.922021      629343
 overl_mu                                7.703650      501775
 m_alltoallv_z                           6.322022       10273
 pw_charge                               5.612123      172200
 fft3d_mpi                               5.400974      977718
 map_scatter                             5.055367       10273
 map_gather                              4.866827       10273
 vhamil                                  4.491133      968527
 kinhamil                                4.413649      968527
 fftext_mpi                              4.105152      968527
 depsum                                  3.984796         265
 apply_precond                           3.936572      720895
 newband                                 3.902245      509279
 set_charge                              3.657681         265
 acc_init_cublas                         3.622763           1
 fftwav_mpi                              2.538676     1876406
 broyd                                   1.616479         264
 potlok                                  1.452094         266
 acc_init_cusolver                       1.102748           1
 brmix                                   0.684727         264
 rpro_isp                                0.624474         182
 elmin                                   0.567032           1
 brget                                   0.540123       58448
 fftbas_plan_mpi                         0.476210        9191
 setg0                                   0.426499         266
 w1_projall                              0.392489      374207
 rspher_all                              0.305169          14
 acc_cufft_makeplan                      0.297272          19
 lincom                                  0.279582        7532
 sphpro_fast                             0.206718           2
 brsav                                   0.147270       16706
 truncate_high_frequency_w1              0.099339     1216159
 proall                                  0.076178           1
 map_backward                            0.057720        9710
 map_forward                             0.055895        8672
 orthch                                  0.035364           1
 fft_gq                                  0.033450         265
 pothar                                  0.024632         267
 force_and_stress                        0.024116           1
 stufak                                  0.020517           1
 choleski                                0.019773          28
 brpre                                   0.012873         528
 fftbrc_mpi                              0.005593        9191
 strnlr                                  0.005578           1
 inisym                                  0.004621           1
 forhar                                  0.003405           2
 strelo                                  0.002917           1
 strehar                                 0.002220           1
 fornlr                                  0.001899           1
 forloc                                  0.001773           1
 strkin                                  0.001502           1
 set_dd_magatom                          0.001228         266
 vectorpot                               0.001117         265
 rsp                                     0.000887           1
 fewald                                  0.000335           1
 brgrid                                  0.000290           1
 chggra                                  0.000257           1
 fordep                                  0.000121           1
 posmap                                  0.000064           2
 rcp                                     0.000047           1
 crpa_reader                             0.000026           1
 potlok_metagga                          0.000021         265
 acc_cufft_makeplans                     0.000010           3
 rotate_active_occupied_orbital          0.000000           1
 redis_pw_over_bands                     0.000000           1
  summed up times     2227.759926795959

 Accumulative profile

 total_time                           2227.759927           1
 elmin                                2166.939105           1
 eddav                                1281.573770         268
 set_dd_paw                            714.061664         266
 hamiltmu                              287.463671      501775
 raccmu_                               252.336328      501775
 lapack                                236.870967      501775
 redis_pw                              145.021615     2673013
 m_sumb_d                              112.154128     1535047
 set_charge                             92.073817         265
 setdij_                                65.575229         292
 augmentation_charge                    58.922343         266
 newband                                58.763422      509279
 fft3d_mpi                              54.701556      977718
 m_alltoall_d                           49.456491     7031941
 redis_proj                             47.652178     3393936
 fftbrc_mpi                             42.452696        9191
 fftbas_plan_mpi                        42.447103        9191
 fftwav_mpi                             39.657010     1876406
 phaser                                 37.981770        7686
 fftwav                                 37.118334     1876406
 orth1                                  26.549327     1505465
 fft3d                                  26.089383     2844933
 eccp                                   26.030507      247632
 dfftw_execute                          25.613062        6828
 soft_charge                            24.732995         265
 densta                                 23.258519         269
 kinhamil                               15.669595      968527
 racc0mu_acc                            14.594394      501775
 w1_copy                                14.105601     2905581
 overl                                  13.982838     1689450
 force_and_stress                       11.732961           1
 rpromu_acc                             11.468109      377483
 init_acc                               11.404271           1
 fftext_mpi                             11.255946      968527
 m_bcast_z                              11.141914      505471
 w1_projall                             11.117127      374207
 map_backward                            9.283527        9710
 setup_precond                           9.092676      247632
 m_bcast_d                               8.156132     1004087
 ggemm                                   7.922021      629343
 overl_mu                                7.703650      501775
 map_forward                             7.074303        8672
 m_alltoallv_z                           6.322022       10273
 pw_charge                               5.612123      172200
 map_scatter                             5.055367       10273
 map_gather                              4.866827       10273
 vhamil                                  4.491133      968527
 depsum                                  4.172235         265
 apply_precond                           3.936572      720895
 brmix                                   3.652927         264
 acc_init_cublas                         3.622763           1
 potlok                                  2.946846         266
 broyd                                   2.495448         264
 strnlr                                  2.130056           1
 rpro_isp                                1.743382         182
 fordep                                  1.344839           1
 acc_init_cusolver                       1.102748           1
 fft_gq                                  0.892638         265
 fornlr                                  0.701276           1
 brget                                   0.540123       58448
 setg0                                   0.426499         266
 orthch                                  0.391404           1
 rspher_all                              0.305169          14
 acc_cufft_makeplans                     0.297283           3
 acc_cufft_makeplan                      0.297272          19
 lincom                                  0.279582        7532
 sphpro_fast                             0.214890           2
 proall                                  0.194403           1
 brsav                                   0.147270       16706
 truncate_high_frequency_w1              0.099339     1216159
 pothar                                  0.027199         267
 stufak                                  0.020517           1
 choleski                                0.019773          28
 brpre                                   0.012873         528
 inisym                                  0.004685           1
 forhar                                  0.003461           2
 strelo                                  0.003082           1
 fewald                                  0.003076           1
 forloc                                  0.002497           1
 strehar                                 0.002224           1
 strkin                                  0.001516           1
 set_dd_magatom                          0.001228         266
 vectorpot                               0.001117         265
 rsp                                     0.000887           1
 chggra                                  0.000882           1
 brgrid                                  0.000290           1
 posmap                                  0.000064           2
 rcp                                     0.000047           1
 crpa_reader                             0.000026           1
 potlok_metagga                          0.000021         265
 rotate_active_occupied_orbital          0.000000           1
 redis_pw_over_bands                     0.000000           1

Profiling took   6.180161  2.925880  0.003268  0.003149 seconds
Profiling took   3.855069 seconds