 vasp.6.3.2 27Jun22 (build Jul  3 2023 11:46:21) complex
 executed on    LinuxNV_CrayMPICH date 2024.04.20  22:16:35

 INCAR:
   ALGO = Fast
   EDIFF = 0.0001
   EFIELD_PEAD = 0.0 0.0 0.0
   ENCUT = 520.0
   IBRION = 1
   ICHARG = 1
   ISIF = 3
   ISMEAR = -5
   ISPIN = 2
   LCALCEPS = False
   LCALCPOL = False
   LDAU = False
   LEFG = False
   LMAXTAU = 0
   LORBIT = 11
   LPEAD = False
   LREAL = Auto
   LRHFATM = False
   LWAVE = False
   MAGMOM = 2*7.0 12*0.6
   METAGGA = --
   NELM = 1000
   NSW = 99
   PREC = accurate
   SIGMA = 0.2

 POTCAR:    PAW_PBE Eu 23Dec2003
 POTCAR:    PAW_PBE K_sv 06Sep2000
 POTCAR:    PAW_PBE Si 05Jan2001
 POTCAR:    PAW_PBE S 06Sep2000
 POTCAR:    PAW_PBE Eu 23Dec2003
   VRHFIN =Eu : [core=Kr4d]

   TITEL  = PAW_PBE Eu 23Dec2003
   POMASS =  151.965; ZVAL   =   17.000    mass and valenz
   ENMAX  =  249.668; ENMIN  =  187.251 eV

   TITEL  = PAW_PBE K_sv 06Sep2000
   POMASS =   39.098; ZVAL   =    9.000    mass and valenz
   ENMAX  =  259.264; ENMIN  =  194.448 eV

   TITEL  = PAW_PBE Si 05Jan2001
   POMASS =   28.085; ZVAL   =    4.000    mass and valenz
   ENMAX  =  245.345; ENMIN  =  184.009 eV

   TITEL  = PAW_PBE S 06Sep2000
   POMASS =   32.066; ZVAL   =    6.000    mass and valenz
   ENMAX  =  258.689; ENMIN  =  194.016 eV

 Optimization of the real space projectors (new method)

 maximal supplied QI-value         = 13.42
 optimisation between [QCUT,QGAM] = [ 11.67, 23.35] = [ 38.16,152.62] Ry
 Optimized for a Real-space Cutoff    1.63 Angstroem

   l    n(q)    QCUT    max X(q) W(low)/X(q) W(high)/X(q)  e(spline)
   0     11    11.673    10.400    0.14E-04    0.18E-05    0.24E-07
   0     11    11.673    10.768    0.21E-04    0.32E-05    0.49E-07
   1     11    11.673     4.094    0.40E-05    0.13E-04    0.93E-07
   1     11    11.673     4.009    0.11E-04    0.46E-04    0.33E-06
   2     10    11.673    29.030    0.79E-04    0.60E-04    0.70E-06
   2     10    11.673    19.941    0.80E-04    0.60E-04    0.71E-06
   3     10    11.673    88.889    0.23E-03    0.29E-03    0.30E-06
   3     10    11.673    76.102    0.23E-03    0.30E-03    0.30E-06
 Optimization of the real space projectors (new method)

[...]

   l    n(q)    QCUT    max X(q) W(low)/X(q) W(high)/X(q)  e(spline)
   0      8    11.508   159.560    0.71E-04    0.15E-03    0.51E-07
   0      8    11.508   115.863    0.70E-04    0.15E-03    0.51E-07
   1      8    11.508    88.339    0.16E-03    0.38E-04    0.82E-07
   1      8    11.508    48.592    0.15E-03    0.36E-04    0.79E-07
 Optimization of the real space projectors (new method)

 maximal supplied QI-value         = 19.84
 optimisation between [QCUT,QGAM] = [ 11.51, 23.22] = [ 37.09,150.92] Ry
 Optimized for a Real-space Cutoff    1.21 Angstroem

   l    n(q)    QCUT    max X(q) W(low)/X(q) W(high)/X(q)  e(spline)
   0      8    11.508   187.594    0.96E-04    0.18E-03    0.54E-07
   0      8    11.508   164.243    0.96E-04    0.18E-03    0.54E-07
   1      8    11.508    67.533    0.18E-03    0.65E-04    0.94E-07
   1      8    11.508    50.729    0.18E-03    0.63E-04    0.92E-07
  PAW_PBE Eu 23Dec2003                  :
  PAW_PBE K_sv 06Sep2000                :
  PAW_PBE Si 05Jan2001                  :
  PAW_PBE S 06Sep2000                   :

 POSCAR: K2 Eu2 Si2 S8
  positions in direct lattice
 exchange correlation table for  LEXCH =        8
   RHO(1)=    0.500       N(1)  =     2000
   RHO(2)=  100.500       N(2)  =     4000

 VTST: version 4.2, (08/11/21)

 CHAIN: initializing optimizer

 OPT: Using VASP QUASI-newton optimizer
 CHAIN: Read ICHAIN             0

 POSCAR: K2 Eu2 Si2 S8
  positions in direct lattice

 ion  position               nearest neighbor table
   1  0.269  0.215  0.449-  13 2.91   7 2.92  10 2.94  14 2.97  12 2.98  11 3.02   9 3.02
   2  0.731  0.715  0.551-   8 2.91  11 2.92  12 2.94   9 2.97  10 2.98   7 3.02  14 3.02
   3  0.774  0.692  0.066-
   4  0.226  0.192  0.934-
   5  0.282  0.676  0.679-   8 2.10  11 2.12  14 2.13  12 2.13
   6  0.718  0.176  0.321-  13 2.10   7 2.12   9 2.13  10 2.13
   7  0.907  0.132  0.559-   6 2.12   1 2.92   2 3.02
   8  0.096  0.677  0.833-   5 2.10   2 2.91
   9  0.484  0.947  0.270-   6 2.13   2 2.97   1 3.02
  10  0.524  0.436  0.287-   6 2.13   1 2.94   2 2.98
  11  0.093  0.632  0.441-   5 2.12   2 2.92   1 3.02
  12  0.476  0.936  0.713-   5 2.13   2 2.94   1 2.98
  13  0.904  0.177  0.167-   6 2.10   1 2.91
  14  0.516  0.447  0.730-   5 2.13   1 2.97   2 3.02

  LATTYP: Found a simple monoclinic cell.
 ALAT       =     6.6547560261
 B/A-ratio  =     1.0033560169
 C/A-ratio  =     1.3324675522
 COS(beta)  =    -0.3077881964

  Lattice vectors:

 A1 = (   6.3335516400,   0.0000000000,  -2.0425232900)
 A2 = (   0.0000000000,   6.6770895000,   0.0000000000)
 A3 = (  -0.0080263100,   0.0000000000,   8.8672428400)

Analysis of symmetry for initial positions (statically):
 Subroutine PRICEL returns:
 Original cell was already a primitive cell.

 Routine SETGRP: Setting up the symmetry group for a
 simple monoclinic supercell.

 Subroutine GETGRP returns: Found  2 space group operations
 (whereof  1 operations were pure point group operations)
 out of a pool of  4 trial point group operations.

The static configuration has the point symmetry C_1 .
 The point group associated with its full space group is C_2 .

Analysis of symmetry for dynamics (positions and initial velocities):
 Subroutine PRICEL returns:
 Original cell was already a primitive cell.

[...]

The dynamic configuration has the point symmetry C_1 .
 The point group associated with its full space group is C_2 .

Analysis of structural, dynamic, and magnetic symmetry:
 Subroutine PRICEL returns:
 Original cell was already a primitive cell.

 Routine SETGRP: Setting up the symmetry group for a
 simple monoclinic supercell.

 Subroutine GETGRP returns: Found  2 space group operations
 (whereof  1 operations were pure point group operations)
 out of a pool of  4 trial point group operations.

The overall configuration has the point symmetry C_1 .
 The point group associated with its full space group is C_2 .

 Subroutine INISYM returns: Found  2 space group operations
 (whereof  1 operations are pure point group operations),
 and found     1 'primitive' translations

                                     Primitive cell

  volume of cell :     374.8835

  direct lattice vectors                    reciprocal lattice vectors
     6.333551640  0.000000000 -2.042523290     0.157935397 -0.000000000  0.000142957
     0.000000000  6.677089500  0.000000000    -0.000000000  0.149765852 -0.000000000
    -0.008026310  0.000000000  8.867242840     0.036379598 -0.000000000  0.112807556

  length of vectors
     6.654756026  6.677089500  8.867246473     0.157935462  0.149765852  0.118528561

  position of ions in fractional coordinates (direct lattice)
     0.268628630  0.214559720  0.448583920
     0.731371370  0.714559720  0.551416080
     0.774211130  0.691696140  0.065952110
     0.225788870  0.191696140  0.934047890
     0.281657150  0.676117310  0.679274200
     0.718342850  0.176117310  0.320725800
     0.907023310  0.132374690  0.559323900
     0.095949260  0.676981900  0.833178150
     0.483907960  0.947480580  0.270379550
     0.523719380  0.436359670  0.286815970
     0.092976690  0.632374690  0.440676100
     0.476280620  0.936359670  0.713184030
     0.904050740  0.176981900  0.166821850
     0.516092040  0.447480580  0.729620450

  ion indices of the primitive-cell ions
   primitive index   ion index
                 1           1
                 2           2
                 3           3
                 4           4
                 5           5
                 6           6
                 7           7
                 8           8
                 9           9
                10          10
                11          11
                12          12
                13          13
                14          14

 KPOINTS: Kpoints from vasprun.xml

Automatic generation of k-mesh.
 Grid dimensions read from file:
 generate k-points for:    6    4    4

 Generating k-lattice:

  Cartesian coordinates                     Fractional coordinates (reciprocal lattice)
     0.026322566 -0.000000000  0.000023826     0.166666667  0.000000000 -0.000000000
    -0.000000000  0.037441463 -0.000000000     0.000000000  0.250000000  0.000000000
     0.009094899 -0.000000000  0.028201889     0.000000000  0.000000000  0.250000000

  Length of vectors
     0.026322577  0.037441463  0.029632140

  Shift w.r.t. Gamma in fractional coordinates (k-lattice)
     0.500000000  0.500000000  0.500000000

 TETIRR: Found    268 inequivalent tetrahedra from      576

 Subroutine IBZKPT returns following result:

 Found     24 irreducible k-points:

 Following reciprocal coordinates:
            Coordinates               Weight
  0.083333  0.125000  0.125000      4.000000
  0.250000  0.125000  0.125000      4.000000
  0.416667  0.125000  0.125000      4.000000
 -0.416667  0.125000  0.125000      4.000000
 -0.250000  0.125000  0.125000      4.000000
 -0.083333  0.125000  0.125000      4.000000
  0.083333  0.375000  0.125000      4.000000
  0.250000  0.375000  0.125000      4.000000
  0.416667  0.375000  0.125000      4.000000
 -0.416667  0.375000  0.125000      4.000000
 -0.250000  0.375000  0.125000      4.000000
 -0.083333  0.375000  0.125000      4.000000
  0.083333  0.125000  0.375000      4.000000
  0.250000  0.125000  0.375000      4.000000
  0.416667  0.125000  0.375000      4.000000
 -0.416667  0.125000  0.375000      4.000000
 -0.250000  0.125000  0.375000      4.000000
 -0.083333  0.125000  0.375000      4.000000
  0.083333  0.375000  0.375000      4.000000
  0.250000  0.375000  0.375000      4.000000
  0.416667  0.375000  0.375000      4.000000
 -0.416667  0.375000  0.375000      4.000000
 -0.250000  0.375000  0.375000      4.000000
 -0.083333  0.375000  0.375000      4.000000

 Following cartesian coordinates:
            Coordinates               Weight
  0.017709  0.018721  0.014113      4.000000
  0.044031  0.018721  0.014137      4.000000
  0.070354  0.018721  0.014161      4.000000
 -0.061259  0.018721  0.014041      4.000000
 -0.034936  0.018721  0.014065      4.000000
 -0.008614  0.018721  0.014089      4.000000
  0.017709  0.056162  0.014113      4.000000
  0.044031  0.056162  0.014137      4.000000
  0.070354  0.056162  0.014161      4.000000
 -0.061259  0.056162  0.014041      4.000000
 -0.034936  0.056162  0.014065      4.000000
 -0.008614  0.056162  0.014089      4.000000
  0.026804  0.018721  0.042315      4.000000
  0.053126  0.018721  0.042339      4.000000
  0.079449  0.018721  0.042362      4.000000
 -0.052164  0.018721  0.042243      4.000000
 -0.025842  0.018721  0.042267      4.000000
  0.000481  0.018721  0.042291      4.000000
  0.026804  0.056162  0.042315      4.000000
  0.053126  0.056162  0.042339      4.000000
  0.079449  0.056162  0.042362      4.000000
 -0.052164  0.056162  0.042243      4.000000
 -0.025842  0.056162  0.042267      4.000000
  0.000481  0.056162  0.042291      4.000000

 SYSTEM =  unknown system
 POSCAR =  K2 Eu2 Si2 S8

 Startparameter for this run:
[...]
  323        brmix                                 0.084810                           24   3
  324          m_sumb_d                              0.001879                        144   4
  325          brpre                                 0.000843                         48   4
  326          setg0                                 0.029950                         24   4
  327          broyd                                 0.017552                         24   4
  328            m_sumb_d                              0.001158                      320   5
  329            brget                                 0.006244                      976   5
  330            brsav                                 0.001892                      285   5
  331        m_bcast_d                             0.000568                           48   3
  332      potlok                                0.169566                             24   2
  333        fft3d_mpi                             0.109075                          624   3
  334          fftbrc_mpi                            0.085430                        624   4
  335            fftbas_plan_mpi                       0.085111                      624   5
  336              map_forward                           0.037215                    672   6
  337                map_gather                            0.008631                  384   7
  338                m_alltoallv_z                         0.004332                  384   7
  339                map_scatter                           0.019447                  384   7
  340              map_backward                          0.029667                    576   6
  341                map_gather                            0.007123                  288   7
  342                m_alltoallv_z                         0.003281                  288   7
  343                map_scatter                           0.014176                  288   7
  344        m_sumb_d                              0.000668                          120   3
  345        pothar                                0.002168                           24   3
  346          m_sumb_d                              0.000219                         24   4
  347        m_bcast_d                             0.000610                           48   3
  348      potlok_metagga                        0.000001                             24   2
  349      set_dd_magatom                        0.000081                             24   2
  350      set_dd_paw                            0.320408                             24   2
  351        m_sumb_d                              0.086801                          168   3
  352      wavpre_noio                           0.828064                             23   2
  353        stufak                                0.197569                           23   3
  354      densta                                6.544237                              1   2

 Flat profile

 raccmu_                                57.512080      141577
 eccp                                   53.200710      637992
 phaser                                 34.586910       16128
 densta                                 32.393836         181
 m_sumb_d                               30.410358      185660
 i2                                     29.445078       88933
 redis_pw                               28.898788      342396
 eccp_nl                                25.990288      473832
 eddav                                  25.265890          28
 w1_gemv                                24.157743      992794
 lapack                                 22.811268       52644
 rpromu_acc                             17.535795      203017
 rpro_isp                               16.771266        7488
 eddiag                                 16.444185         152
 fftwav                                 15.141888     1187903
 m_alltoall_d                           14.548159     2353484
 init_acc                               12.567152           1
 fft3d                                  12.517642     1760911
 cnorma                                 12.496697      473832
 eddrmm                                 11.368296         152
 total_time                              9.262559           1
 overl1                                  8.199842      496397
 soft_charge                             7.650040         176
 hamilt_local                            7.163217      138624
 w1_copy                                 6.691473     1303150
 setup_precond                           5.799494      164160
 w1_dscal                                5.536518      925251
 setdij_                                 5.101375         825
 racc0mu_acc                             4.682894      141577
 redis_proj                              4.678636      395216
 hamiltmu                                4.315593      141577
 apply_precond                           4.311522      918081
 newband                                 4.174179      150217
 pw_charge                               4.014345      118214
 w1_dot                                  3.900095      138583
 w1_daxpy                                3.708732      670502
 w1_gaxpy                                3.637209      705934
 orth1                                   3.154069      205164
 rspher_all                              2.881705         313
 depsum                                  2.633696         176
 kinhamil                                2.530407      573008
 vhamil                                  2.461943      573008
 acc_init_cublas                         2.432893           1
 fftext_mpi                              2.293602      573008
 set_dd_paw                              2.182402         224
 overl_mu                                2.172420      141577
 set_charge                              2.074784         176
 orthch                                  1.853786         176
 overl                                   1.606799      188392
 fftwav_mpi                              1.597227     1187903
 choleski                                1.545836        8448
 zhegv                                   1.536489      196668
 m_bcast_z                               1.432216       56292
 augmentation_charge                     1.223511         176
 elmin                                   1.078580          24
 m_bcast_d                               0.866927      105785
 potlok                                  0.866326         200
 i3                                      0.864359       88933
 acc_init_cusolver                       0.788457           1
 fft3d_mpi                               0.722016      579544
 ggemm                                   0.707333       66084
 proall                                  0.696354          24
 wavpre_noio                             0.630496          23
 dfftw_execute                           0.534458        2208
 map_scatter                             0.462993        7288
 force_and_stress                        0.448657          24
 m_alltoallv_z                           0.438435        7288
 lincom                                  0.339969       17088
 map_gather                              0.327572        7288
 sphpro_fast                             0.321605          25
 brmix                                   0.249691         176
 fftbas_plan_mpi                         0.247661        6536
 setg0                                   0.219383         224
 stufak                                  0.206779          24
 strnlr                                  0.162912          24
 acc_cufft_makeplan                      0.133874          19
 w1_projall                              0.120855      128137
 i1                                      0.103607       88933
 forhar                                  0.062786          48
 strelo                                  0.056431          24
 fornlr                                  0.055942          24
 broyd                                   0.052609         176
 map_backward                            0.049905        6832
 truncate_high_frequency_w1              0.046457      598544
 map_forward                             0.045404        6240
 strehar                                 0.042673          24
 brget                                   0.035513        5495
 forloc                                  0.031455          24
 strkin                                  0.028410          24
 pothar                                  0.018178         224
 fft_gq                                  0.015914         176
 brsav                                   0.011182        1716
 rsp                                     0.006954          24
 brpre                                   0.006315         352
 chggra                                  0.005506          24
 inisym                                  0.004335           1
 fftbrc_mpi                              0.003383        6536
 shift_bands_between_low_high            0.000914        7296
 set_dd_magatom                          0.000904         224
 fordep                                  0.000864          24
 vectorpot                               0.000727         177
 fewald                                  0.000448          24
 rcp                                     0.000436          24
 brgrid                                  0.000237           1
 crpa_reader                             0.000027           1
 posmap                                  0.000017           2
 potlok_metagga                          0.000017         200
 acc_cufft_makeplans                     0.000015           3
 rotate_active_occupied_orbital          0.000006          24
 redis_pw_over_bands                     0.000006          24
  summed up times     634.6288080215454

 Accumulative profile

 total_time                            634.628808           1
 elmin                                 529.962317          24
 eddrmm                                279.473430         152
 eddav                                 136.760684          28
 i3                                     86.847486       88933
 i2                                     83.194916       88933
 hamiltmu                               77.375357      141577
 raccmu_                                64.367393      141577
 force_and_stress                       64.109045          24
 eccp                                   53.200710      637992
 eddiag                                 44.446671         152
 strnlr                                 41.785390          24
 rpro_isp                               38.742523        7488
 cnorma                                 38.486986      473832
 redis_pw                               35.631759      342396
 phaser                                 34.586910       16128
 densta                                 32.393836         181
 w1_gemv                                32.357585      992794
 newband                                31.176885      150217
 m_sumb_d                               30.410358      185660
 eccp_nl                                25.990288      473832
 fftwav_mpi                             25.434461     1187903
 fftwav                                 23.837234     1187903
 set_charge                             23.618036         176
 lapack                                 22.811268       52644
 orthch                                 19.482309         176
 rpromu_acc                             17.535795      203017
 soft_charge                            16.423428         176
 m_alltoall_d                           14.548159     2353484
 fornlr                                 13.948853          24
 init_acc                               12.567152           1
 fft3d                                  12.517642     1760911
 redis_proj                             12.493823      395216
 hamilt_local                            9.748944      138624
 kinhamil                                8.816155      573008
 overl1                                  8.199842      496397
 w1_copy                                 6.691473     1303150
 fft3d_mpi                               6.654121      579544
 fftext_mpi                              6.285748      573008
 setup_precond                           5.799494      164160
 w1_dscal                                5.536518      925251
 setdij_                                 5.285259         825
 racc0mu_acc                             4.682894      141577
 w1_projall                              4.357264      128137
 apply_precond                           4.311522      918081
 pw_charge                               4.014345      118214
 w1_dot                                  3.900095      138583
 w1_daxpy                                3.708732      670502
 w1_gaxpy                                3.637209      705934
 orth1                                   3.154069      205164
 proall                                  3.011435          24
 set_dd_paw                              2.973915         224
 rspher_all                              2.881705         313
 depsum                                  2.661145         176
 vhamil                                  2.461943      573008
 acc_init_cublas                         2.432893           1
 overl_mu                                2.172420      141577
 augmentation_charge                     2.139874         176
 fftbrc_mpi                              2.109811        6536
 fftbas_plan_mpi                         2.106428        6536
 potlok                                  1.972653         200
 overl                                   1.606799      188392
 i1                                      1.595193       88933
 choleski                                1.545836        8448
 zhegv                                   1.536489      196668
 m_bcast_z                               1.432216       56292
 fordep                                  0.917110          24
 m_bcast_d                               0.866927      105785
 wavpre_noio                             0.828064          23
 map_backward                            0.789242        6832
 acc_init_cusolver                       0.788457           1
 ggemm                                   0.707333       66084
 brmix                                   0.591890         176
 map_forward                             0.535067        6240
 dfftw_execute                           0.534458        2208
 fft_gq                                  0.496230         176
 map_scatter                             0.462993        7288
 m_alltoallv_z                           0.438435        7288
 lincom                                  0.339969       17088
 sphpro_fast                             0.330841          25
 map_gather                              0.327572        7288
 setg0                                   0.219383         224
 stufak                                  0.206779          24
 acc_cufft_makeplans                     0.133889           3
 acc_cufft_makeplan                      0.133874          19
 broyd                                   0.106272         176
 forhar                                  0.063853          48
 strelo                                  0.057565          24
 truncate_high_frequency_w1              0.046457      598544
 strehar                                 0.042994          24
 brget                                   0.035513        5495
 forloc                                  0.032194          24
 strkin                                  0.028543          24
 pothar                                  0.020214         224
 chggra                                  0.019807          24
 brsav                                   0.011182        1716
 fewald                                  0.010530          24
 rsp                                     0.006954          24
 brpre                                   0.006315         352
 inisym                                  0.004352           1
 shift_bands_between_low_high            0.000914        7296
 set_dd_magatom                          0.000904         224
 vectorpot                               0.000727         177
 rcp                                     0.000436          24
 brgrid                                  0.000237           1
 crpa_reader                             0.000027           1
 posmap                                  0.000017           2
 potlok_metagga                          0.000017         200
 rotate_active_occupied_orbital          0.000006          24
 redis_pw_over_bands                     0.000006          24

Profiling took   2.283247  1.570860  0.003206  0.003131 seconds
Profiling took   1.857149 seconds