 vasp.6.3.2 27Jun22 (build Jul  3 2023 11:46:21) complex
 executed on    LinuxNV_CrayMPICH date 2024.04.21  23:51:59

 INCAR:
   ADDGRID = True
   ALGO = Normal
   EDIFF = 0.0014
   ENCUT = 520.0
   IBRION = -1
   ICHARG = 0
   ISIF = 3
   ISMEAR = -5
   ISPIN = 2
   KPOINT_BSE = -1 0 0 0
   LAECHG = True
   LASPH = True
   LCHARG = True
   LELF = True
   LORBIT = 11
   LREAL = Auto
   LVHAR = True
   LWAVE = False
   MAGMOM = 8*0.6 4*7.0 16*0.6
   NELM = 1000
   NSW = 0
   PREC = accurate
   SIGMA = 0.05

 POTCAR:    PAW_PBE Yb_2 06Sep2000
 POTCAR:    PAW_PBE Eu 23Dec2003
 POTCAR:    PAW_PBE O 08Apr2002
 POTCAR:    PAW_PBE Yb_2 06Sep2000
   VRHFIN =Yb : [core=Xe4]

   TITEL  = PAW_PBE Yb_2 06Sep2000
   POMASS =  173.040; ZVAL   =    8.000    mass and valenz
   ENMAX  =  112.578; ENMIN  =   84.433 eV

   TITEL  = PAW_PBE Eu 23Dec2003
   POMASS =  151.965; ZVAL   =   17.000    mass and valenz
   ENMAX  =  249.668; ENMIN  =  187.251 eV

   TITEL  = PAW_PBE O 08Apr2002
   POMASS =   16.000; ZVAL   =    6.000    mass and valenz
   ENMAX  =  400.000; ENMIN  =  300.000 eV

 Optimization of the real space projectors (new method)

 maximal supplied QI-value         = 12.09
 optimisation between [QCUT,QGAM] = [ 11.61, 23.34] = [ 37.75,152.57] Ry
 Optimized for a Real-space Cutoff    1.89 Angstroem

   l    n(q)    QCUT    max X(q) W(low)/X(q) W(high)/X(q)  e(spline)
   0     13    11.610    37.655    0.45E-04    0.19E-04    0.34E-06
   0     13    11.610    17.791    0.29E-04    0.15E-04    0.27E-06
   1     13    11.610    36.143    0.15E-04    0.51E-06    0.99E-06
   1     13    11.610    36.445    0.16E-04    0.54E-06    0.10E-05
   2     12    11.610    14.662    0.21E-03    0.42E-03    0.57E-05
   2     12    11.610    15.811    0.17E-03    0.35E-03    0.47E-05
 Optimization of the real space projectors (new method)

[...]

   l    n(q)    QCUT    max X(q) W(low)/X(q) W(high)/X(q)  e(spline)
   0     11    11.673    10.400    0.14E-04    0.18E-05    0.24E-07
   0     11    11.673    10.768    0.21E-04    0.32E-05    0.49E-07
   1     11    11.673     4.094    0.40E-05    0.13E-04    0.93E-07
   1     11    11.673     4.009    0.11E-04    0.46E-04    0.33E-06
   2     10    11.673    29.030    0.79E-04    0.60E-04    0.70E-06
   2     10    11.673    19.941    0.80E-04    0.60E-04    0.71E-06
   3     10    11.673    88.889    0.23E-03    0.29E-03    0.30E-06
   3     10    11.673    76.102    0.23E-03    0.30E-03    0.30E-06
 Optimization of the real space projectors (new method)

 maximal supplied QI-value         = 24.76
 optimisation between [QCUT,QGAM] = [ 11.64, 23.27] = [ 37.91,151.63] Ry
 Optimized for a Real-space Cutoff    1.14 Angstroem

   l    n(q)    QCUT    max X(q) W(low)/X(q) W(high)/X(q)  e(spline)
   0      8    11.635    20.381    0.10E-03    0.33E-03    0.24E-06
   0      8    11.635    15.268    0.11E-03    0.35E-03    0.26E-06
   1      7    11.635     5.964    0.24E-03    0.31E-03    0.30E-06
   1      7    11.635     5.382    0.22E-03    0.25E-03    0.26E-06
  PAW_PBE Yb_2 06Sep2000                :
  PAW_PBE Eu 23Dec2003                  :
  PAW_PBE O 08Apr2002                   :

 POSCAR: Yb8 Eu4 O16
  positions in direct lattice
 exchange correlation table for  LEXCH =        8
   RHO(1)=    0.500       N(1)  =     2000
   RHO(2)=  100.500       N(2)  =     4000

 VTST: version 4.2, (08/11/21)

 CHAIN: initializing optimizer

 OPT: Using VASP Dynamics algorithm
 CHAIN: Read ICHAIN             0

 POSCAR: Yb8 Eu4 O16
  positions in direct lattice

 ion  position               nearest neighbor table
   1  0.250  0.582  0.894-  15 2.23  15 2.23  17 2.26  24 2.30  23 2.42  23 2.42   2 3.41   2 3.41
                             9 3.54  11 3.61  11 3.61  10 3.66  10 3.66   6 3.70   6 3.70   7 4.07
   2  0.750  0.418  0.106-  16 2.23  16 2.23  18 2.26  23 2.30  24 2.42  24 2.42   1 3.41   1 3.41
                            10 3.54  12 3.61  12 3.61   9 3.66   9 3.66   5 3.70   5 3.70   8 4.07
   3  0.750  0.918  0.394-  13 2.23  13 2.23  19 2.26  22 2.30  21 2.42  21 2.42   4 3.41   4 3.41
                            11 3.54   9 3.61   9 3.61  12 3.66  12 3.66   8 3.70   8 3.70   5 4.07
   4  0.250  0.082  0.606-  14 2.23  14 2.23  20 2.26  21 2.30  22 2.42  22 2.42   3 3.41   3 3.41
                            12 3.54  10 3.61  10 3.61  11 3.66  11 3.66   7 3.70   7 3.70   6 4.07
   5  0.250  0.077  0.108-  13 2.24  28 2.30  18 2.34  18 2.34  27 2.35  27 2.35  12 3.17   9 3.27
                             6 3.40   6 3.40   2 3.70   2 3.70   3 4.07   3 4.07
   6  0.750  0.923  0.892-  14 2.24  27 2.30  17 2.34  17 2.34  28 2.35  28 2.35  11 3.17  10 3.27
                             5 3.40   5 3.40   1 3.70   1 3.70   4 4.07   4 4.07
   7  0.750  0.423  0.608-  15 2.24  26 2.30  20 2.34  20 2.34  25 2.35  25 2.35  10 3.17  11 3.27
                             8 3.40   8 3.40   4 3.70   4 3.70   1 4.07   1 4.07
   8  0.250  0.577  0.392-  16 2.24  25 2.30  19 2.34  19 2.34  26 2.35  26 2.35   9 3.17  12 3.27
                             7 3.40   7 3.40   3 3.70   3 3.70   2 4.07   2 4.07
   9  0.250  0.747  0.162-  19 2.41  19 2.41  27 2.46  27 2.46  23 2.48  23 2.48  13 2.62  16 2.72
                             8 3.17   5 3.27   1 3.54   3 3.61   3 3.61   2 3.66   2 3.66
  10  0.750  0.253  0.838-  20 2.41  20 2.41  28 2.46  28 2.46  24 2.48  24 2.48  14 2.62  15 2.72
                             7 3.17   6 3.27   2 3.54   4 3.61   4 3.61   1 3.66   1 3.66
  11  0.750  0.753  0.662-  17 2.41  17 2.41  25 2.46  25 2.46  21 2.48  21 2.48  15 2.62  14 2.72
                             6 3.17   7 3.27   3 3.54   1 3.61   1 3.61   4 3.66   4 3.66
  12  0.250  0.247  0.338-  18 2.41  18 2.41  26 2.46  26 2.46  22 2.48  22 2.48  16 2.62  13 2.72
                             5 3.17   8 3.27   4 3.54   2 3.61   2 3.61   3 3.66   3 3.66
  13  0.250  0.976  0.279-   3 2.23   3 2.23   5 2.24   9 2.62  12 2.72
  14  0.750  0.024  0.721-   4 2.23   4 2.23   6 2.24  10 2.62  11 2.72
  15  0.750  0.524  0.779-   1 2.23   1 2.23   7 2.24  11 2.62  10 2.72
  16  0.250  0.476  0.221-   2 2.23   2 2.23   8 2.24  12 2.62   9 2.72
  17  0.250  0.789  0.806-   1 2.26   6 2.34   6 2.34  11 2.41  11 2.41
  18  0.750  0.211  0.194-   2 2.26   5 2.34   5 2.34  12 2.41  12 2.41
  19  0.750  0.711  0.306-   3 2.26   8 2.34   8 2.34   9 2.41   9 2.41
  20  0.250  0.289  0.694-   4 2.26   7 2.34   7 2.34  10 2.41  10 2.41
  21  0.250  0.862  0.535-   4 2.30   3 2.42   3 2.42  11 2.48  11 2.48
  22  0.750  0.138  0.465-   3 2.30   4 2.42   4 2.42  12 2.48  12 2.48
  23  0.750  0.638  0.035-   2 2.30   1 2.42   1 2.42   9 2.48   9 2.48
  24  0.250  0.362  0.965-   1 2.30   2 2.42   2 2.42  10 2.48  10 2.48
  25  0.250  0.591  0.586-   8 2.30   7 2.35   7 2.35  11 2.46  11 2.46
  26  0.750  0.409  0.414-   7 2.30   8 2.35   8 2.35  12 2.46  12 2.46
  27  0.750  0.909  0.086-   6 2.30   5 2.35   5 2.35   9 2.46   9 2.46
  28  0.250  0.091  0.914-   5 2.30   6 2.35   6 2.35  10 2.46  10 2.46

  LATTYP: Found a simple orthorhombic cell.
 ALAT       =     3.3454120000
 B/A-ratio  =     2.9002284323
 C/A-ratio  =     3.5248725717

  Lattice vectors:

 A1 = (   3.3454120000,   0.0000000000,   0.0000000000)
 A2 = (   0.0000000000,   9.7024590000,   0.0000000000)
 A3 = (   0.0000000000,   0.0000000000,  11.7921510000)

Analysis of symmetry for initial positions (statically):
 Subroutine PRICEL returns:
 Original cell was already a primitive cell.

 Routine SETGRP: Setting up the symmetry group for a
 simple orthorhombic supercell.

 Subroutine GETGRP returns: Found  8 space group operations
 (whereof  2 operations were pure point group operations)
 out of a pool of  8 trial point group operations.

The static configuration has the point symmetry S_2 .
 The point group associated with its full space group is D_2h.

Analysis of symmetry for dynamics (positions and initial velocities):
 Subroutine PRICEL returns:
 Original cell was already a primitive cell.

[...]

The dynamic configuration has the point symmetry S_2 .
 The point group associated with its full space group is D_2h.

Analysis of structural, dynamic, and magnetic symmetry:
 Subroutine PRICEL returns:
 Original cell was already a primitive cell.

 Routine SETGRP: Setting up the symmetry group for a
 simple orthorhombic supercell.

 Subroutine GETGRP returns: Found  8 space group operations
 (whereof  2 operations were pure point group operations)
 out of a pool of  8 trial point group operations.

The overall configuration has the point symmetry S_2 .
 The point group associated with its full space group is D_2h.

 Subroutine INISYM returns: Found  8 space group operations
 (whereof  2 operations are pure point group operations),
 and found     1 'primitive' translations

                                     Primitive cell

  volume of cell :     382.7582

  direct lattice vectors                    reciprocal lattice vectors
     3.345412000  0.000000000  0.000000000     0.298916845  0.000000000  0.000000000
     0.000000000  9.702459000  0.000000000     0.000000000  0.103066656  0.000000000
     0.000000000  0.000000000 11.792151000     0.000000000  0.000000000  0.084802171

  length of vectors
     3.345412000  9.702459000 11.792151000     0.298916845  0.103066656  0.084802171

  position of ions in fractional coordinates (direct lattice)
     0.250000000  0.582255000  0.893981000
     0.750000000  0.417745000  0.106019000
     0.750000000  0.917745000  0.393981000
     0.250000000  0.082255000  0.606019000
     0.250000000  0.077435000  0.108414000
     0.750000000  0.922565000  0.891586000
     0.750000000  0.422565000  0.608414000
     0.250000000  0.577435000  0.391586000
     0.250000000  0.746726000  0.161676000
     0.750000000  0.253274000  0.838324000
     0.750000000  0.753274000  0.661676000
     0.250000000  0.246726000  0.338324000
     0.250000000  0.976038000  0.278611000
     0.750000000  0.023962000  0.721389000
     0.750000000  0.523962000  0.778611000
     0.250000000  0.476038000  0.221389000
     0.250000000  0.789289000  0.806222000
     0.750000000  0.210711000  0.193778000
     0.750000000  0.710711000  0.306222000
     0.250000000  0.289289000  0.693778000
     0.250000000  0.861571000  0.534972000
     0.750000000  0.138429000  0.465028000
     0.750000000  0.638429000  0.034972000
     0.250000000  0.361571000  0.965028000
     0.250000000  0.591251000  0.586434000
     0.750000000  0.408749000  0.413566000
     0.750000000  0.908749000  0.086434000
     0.250000000  0.091251000  0.913566000

  ion indices of the primitive-cell ions
   primitive index   ion index
                 1           1
                 2           2
                 3           3
                 4           4
                 5           5
                 6           6
                 7           7
                 8           8
                 9           9
                10          10
                11          11
                12          12
                13          13
                14          14
                15          15
                16          16
                17          17
                18          18
[...]
  318                map_forward                           0.000208                    4   7
  319                  map_gather                            0.000044                  2   8
  320                  m_alltoallv_z                         0.000030                  2   8
  321                  map_scatter                           0.000101                  2   8
  322                map_backward                          0.000105                    2   7
  323                  map_gather                            0.000025                  1   8
  324                  m_alltoallv_z                         0.000013                  1   8
  325                  map_scatter                           0.000049                  1   8
  326          m_sumb_d                              0.000008                          2   4
  327          pothar                                0.000084                          1   4
  328            m_sumb_d                              0.000006                        1   5
  329        brmix                                 0.011756                            1   3
  330          m_sumb_d                              0.000047                          6   4
  331          brpre                                 0.000036                          2   4
  332          setg0                                 0.001259                          1   4
  333          broyd                                 0.008945                          1   4
  334            brget                                 0.002175                      326   5
  335            brsav                                 0.000996                      163   5
  336            m_sumb_d                              0.000557                       47   5
  337        m_bcast_d                             0.000024                            2   3
  338      potlok                                0.043241                              2   2
  339        fft3d_mpi                             0.027408                           36   3
  340          fftbrc_mpi                            0.023063                         36   4
  341            fftbas_plan_mpi                       0.023047                       36   5
  342              map_forward                           0.006653                     40   6
  343                map_gather                            0.002158                   24   7
  344                m_alltoallv_z                         0.002392                   24   7
  345                map_scatter                           0.001893                   24   7
  346              map_backward                          0.005673                     32   6
  347                map_gather                            0.001942                   16   7
  348                m_alltoallv_z                         0.001877                   16   7
  349                map_scatter                           0.001633                   16   7
  350              dfftw_execute                         0.009079                     30   6
  351        m_sumb_d                              0.000031                            5   3
  352        pothar                                0.001781                            2   3
  353          m_sumb_d                              0.000120                          2   4
  354        m_bcast_d                             0.003055                            4   3
  355      potlok_metagga                        0.000000                              1   2
  356      set_dd_magatom                        0.000004                              1   2
  357      set_dd_paw                            2.799255                              1   2
  358        m_sumb_d                              0.011585                            7   3
  359      augmentation_charge                   0.202903                              1   2
  360        fft3d_mpi                             0.064983                            2   3
  361          fftbrc_mpi                            0.058759                          2   4
  362            fftbas_plan_mpi                       0.058758                        2   5
  363              dfftw_execute                         0.036285                      6   6
  364              map_backward                          0.022184                      4   6
  365                map_gather                            0.006449                    2   7
  366                m_alltoallv_z                         0.008960                    2   7
  367                map_scatter                           0.006764                    2   7
  368      fftwav_mpi                            6.189290                           4800   2
  369        fftwav                                6.183243                         4800   3
  370          fft3d                                 5.723614                       4800   4
  371      densta                               11.316423                              1   2

 Flat profile

 set_dd_paw                            413.761922         148
 raccmu_                               257.697126      465952
 eddav                                 238.974838         150
 lapack                                217.181507      465952
 redis_pw                              109.798044     2567792
 m_sumb_d                               98.299421     1417078
 m_alltoall_d                           46.865833     6771328
 phaser                                 38.911227        6260
 densta                                 34.590626         151
 fft3d                                  27.678169     2750532
 eccp                                   25.622749      240000
 orth1                                  24.742506     1398056
 setdij_                                22.540699         174
 redis_proj                             21.465547     3259736
 augmentation_charge                    20.505826         148
 total_time                             17.681069           1
 fftwav                                 17.440675     1818628
 hamiltmu                               13.887183      465952
 w1_copy                                13.705608     2795712
 racc0mu_acc                            13.660594      465952
 dfftw_execute                          13.540852        3996
 overl                                  13.424536     1623848
 init_acc                               11.737816           1
 rpromu_acc                             11.418607      351152
 m_bcast_z                              10.580426      472352
 soft_charge                             9.777302         147
 setup_precond                           8.667370      240000
 m_bcast_d                               7.638165      932205
 ggemm                                   7.269283      585952
 overl_mu                                7.156886      465952
 pw_charge                               5.675583      169220
 vhamil                                  4.212196      931904
 kinhamil                                4.193568      931904
 depsum                                  3.895091         147
 fftext_mpi                              3.840766      931904
 apply_precond                           3.747044      691904
 newband                                 3.658467      471952
 acc_init_cublas                         3.464916           1
 m_alltoallv_z                           3.052239        5789
 fft3d_mpi                               2.471467      937083
 map_scatter                             2.419586        5789
 fftwav_mpi                              2.395877     1818628
 map_gather                              1.950563        5789
 set_charge                              1.612538         147
 rpro_isp                                1.111900         260
 acc_init_cusolver                       1.109513           1
 potlok                                  0.717637         148
 broyd                                   0.672479         146
 acc_cufft_makeplan                      0.409663          19
 rspher_all                              0.400969          14
 brmix                                   0.399220         146
 sphpro_fast                             0.360043           2
 elmin                                   0.349141           1
 w1_projall                              0.335146      345952
 fftbas_plan_mpi                         0.283986        5179
 lincom                                  0.229353        6040
 brget                                   0.208874       29915
 setg0                                   0.188853         148
 truncate_high_frequency_w1              0.090968     1171904
 proall                                  0.089957           1
 brsav                                   0.056184        8446
 orthch                                  0.050025           1
 map_backward                            0.036512        5462
 map_forward                             0.031243        4896
 force_and_stress                        0.029425           1
 stufak                                  0.017742           1
 fft_gq                                  0.017331         147
 choleski                                0.016352          40
 pothar                                  0.013819         149
 strnlr                                  0.008250           1
 brpre                                   0.005205         292
 inisym                                  0.004398           1
 fornlr                                  0.003518           1
 fftbrc_mpi                              0.003086        5179
 forhar                                  0.002603           2
 strelo                                  0.002555           1
 strkin                                  0.001890           1
 strehar                                 0.001789           1
 forloc                                  0.001354           1
 rsp                                     0.000950           1
 set_dd_magatom                          0.000656         148
 vectorpot                               0.000619         147
 fewald                                  0.000349           1
 chggra                                  0.000260           1
 brgrid                                  0.000258           1
 fordep                                  0.000129           1
 posmap                                  0.000049           2
 rcp                                     0.000034           1
 crpa_reader                             0.000026           1
 potlok_metagga                          0.000015         147
 acc_cufft_makeplans                     0.000015           3
 rotate_active_occupied_orbital          0.000000           1
 redis_pw_over_bands                     0.000000           1
  summed up times     1830.076657056808

 Accumulative profile

 total_time                           1830.076657           1
 elmin                                1757.272069           1
 eddav                                1232.804501         150
 set_dd_paw                            417.285923         148
 hamiltmu                              311.564786      465952
 raccmu_                               278.514605      465952
 lapack                                217.181507      465952
 redis_pw                              133.076790     2567792
 m_sumb_d                               98.299421     1417078
 set_charge                             58.854095         147
 newband                                56.901689      471952
 m_alltoall_d                           46.865833     6771328
 redis_proj                             45.052634     3259736
 fftwav_mpi                             40.873926     1818628
 phaser                                 38.911227        6260
 fftwav                                 38.478049     1818628
 setdij_                                35.062292         174
 densta                                 34.590626         151
 fft3d_mpi                              30.430330      937083
 augmentation_charge                    30.076420         148
 fft3d                                  27.678169     2750532
 eccp                                   25.622749      240000
 orth1                                  24.742506     1398056
 soft_charge                            23.140754         147
 fftbrc_mpi                             21.318068        5179
 fftbas_plan_mpi                        21.314983        5179
 kinhamil                               14.950802      931904
 w1_copy                                13.705608     2795712
 racc0mu_acc                            13.660594      465952
 dfftw_execute                          13.540852        3996
 overl                                  13.424536     1623848
 force_and_stress                       13.381534           1
 init_acc                               11.737816           1
 rpromu_acc                             11.418607      351152
 fftext_mpi                             10.757234      931904
 m_bcast_z                              10.580426      472352
 w1_projall                             10.396714      345952
 setup_precond                           8.667370      240000
 m_bcast_d                               7.638165      932205
 ggemm                                   7.269283      585952
 overl_mu                                7.156886      465952
 pw_charge                               5.675583      169220
 vhamil                                  4.212196      931904
 map_backward                            4.009276        5462
 depsum                                  3.940663         147
 apply_precond                           3.747044      691904
 strnlr                                  3.680453           1
 map_forward                             3.480868        4896
 acc_init_cublas                         3.464916           1
 rpro_isp                                3.099282         260
 m_alltoallv_z                           3.052239        5789
 map_scatter                             2.419586        5789
 map_gather                              1.950563        5789
 brmix                                   1.604002         146
 potlok                                  1.571566         148
 fornlr                                  1.228579           1
 fordep                                  1.211570           1
 acc_init_cusolver                       1.109513           1
 broyd                                   1.002344         146
 orthch                                  0.460008           1
 fft_gq                                  0.416420         147
 acc_cufft_makeplans                     0.409678           3
 acc_cufft_makeplan                      0.409663          19
 rspher_all                              0.400969          14
 sphpro_fast                             0.375321           2
 proall                                  0.289217           1
 lincom                                  0.229353        6040
 brget                                   0.208874       29915
 setg0                                   0.188853         148
 truncate_high_frequency_w1              0.090968     1171904
 brsav                                   0.056184        8446
 stufak                                  0.017742           1
 choleski                                0.016352          40
 pothar                                  0.015328         149
 brpre                                   0.005205         292
 inisym                                  0.004447           1
 forloc                                  0.003180           1
 strelo                                  0.002687           1
 forhar                                  0.002655           2
 strkin                                  0.001895           1
 strehar                                 0.001799           1
 fewald                                  0.001461           1
 rsp                                     0.000950           1
 chggra                                  0.000881           1
 set_dd_magatom                          0.000656         148
 vectorpot                               0.000619         147
 brgrid                                  0.000258           1
 posmap                                  0.000049           2
 rcp                                     0.000034           1
 crpa_reader                             0.000026           1
 potlok_metagga                          0.000015         147
 rotate_active_occupied_orbital          0.000000           1
 redis_pw_over_bands                     0.000000           1

Profiling took   5.707894  2.804399  0.003258  0.003142 seconds
Profiling took   3.541937 seconds